14
Properties=species:S:1:pos:R:3:energies:R:1:forces:R:3:charge:R:1 level_of_theory=GFN2-xTB energy=-510.9792324443006 free_energy=-510.9792324443006 dipole="-0.020143079760348428 0.22207715133352135 0.0062993825865121636" pbc="F F F"
C        2.61933928       0.11038410       0.11916870     -58.54152893       0.00000088       0.00000289       0.00000746      -0.14052718
C        1.63278631      -0.76760348       0.04021436     -58.49414268      -0.00000924      -0.00000320       0.00000612       0.10173017
O        0.29926541      -0.54632100      -0.04175726    -111.42462954      -0.00000577      -0.00000896       0.00000273      -0.26657851
C       -0.15318470       0.79360784      -0.01189202     -59.23740331      -0.00000600      -0.00002201       0.00001384       0.07624339
C        0.18157772       1.56313728      -1.25714338     -58.23269263       0.00003504       0.00005166      -0.00000197      -0.03570647
C        0.44408689       2.85549480      -1.28490561     -58.41457441      -0.00004120      -0.00007940      -0.00000587      -0.09246089
H        3.63455079      -0.23138471       0.19022442     -13.53131343      -0.00000566       0.00001192      -0.00000148       0.03673496
H        2.46669199       1.17390832       0.10583267     -13.49204116       0.00001281      -0.00000820      -0.00000212       0.04067003
H        1.81515443      -1.83456451       0.04234390     -13.23917414       0.00000676      -0.00000025      -0.00000869       0.04493114
H        0.22958055       1.30841731       0.87926451     -13.17832749       0.00001622       0.00001644      -0.00001436       0.04009391
H       -1.24297962       0.70755550       0.07634225     -12.99448312      -0.00000483       0.00001630      -0.00002496       0.05899865
H        0.17656631       0.97255301      -2.16310751     -13.31852171      -0.00000842       0.00001890       0.00002173       0.04994410
H        0.65256047       3.37365253      -2.20468429     -13.41279973       0.00000289       0.00000092      -0.00000609       0.04593696
H        0.45365761       3.45213494      -0.38685919     -13.46760017       0.00000651       0.00000301       0.00001367       0.03998975
