14
Properties=species:S:1:pos:R:3:energies:R:1:forces:R:3:charge:R:1 level_of_theory=GFN2-xTB energy=-510.97459195107393 free_energy=-510.97459195107393 dipole="-0.03641539372740334 0.22052427797860644 0.03425623633598342" pbc="F F F"
C        2.61760158       0.28546881       0.29946663     -58.52991686       0.00002603       0.00002415       0.00000054      -0.13963494
C        1.73082080      -0.67946602       0.11677128     -58.48829253       0.00000903       0.00000597      -0.00001297       0.10224932
O        0.39734737      -0.58461415      -0.09961744    -111.38325888       0.00001385       0.00005155       0.00000225      -0.26180412
C       -0.18631387       0.69912069      -0.08887674     -59.24423212       0.00000173       0.00001056       0.00000921       0.07777485
C        0.07897858       1.53131375      -1.31220121     -58.26033260      -0.00002593      -0.00003087       0.00004466      -0.03951050
C        0.66859603       1.09881659      -2.40948666     -58.31555384      -0.00001036      -0.00001692      -0.00001272      -0.08302204
H        3.64718575       0.03975358       0.47778222     -13.53087882      -0.00007700      -0.00001483       0.00000494       0.03682804
H        2.36996385       1.33092985       0.26623381     -13.51165866       0.00000276      -0.00002074      -0.00001117       0.03833295
H        2.01294452      -1.72437152       0.13676682     -13.23902269      -0.00000010       0.00000968      -0.00000723       0.04488179
H        0.13056660       1.25135686       0.80824308     -13.16599579      -0.00000130      -0.00001216      -0.00004809       0.03937452
H       -1.26521326       0.51844356      -0.00860603     -13.00844999      -0.00000855      -0.00002205       0.00001241       0.05764051
H       -0.27848526       2.54929726      -1.23033651     -13.44286878       0.00004973      -0.00001027       0.00002184       0.03564229
H        0.82468121       1.73907226      -3.26015796     -13.46556614      -0.00001286       0.00002621      -0.00004699       0.04077107
H        1.02177058       0.08518505      -2.49794975     -13.38856426       0.00003297      -0.00000028       0.00004330       0.05047625
