14
Properties=species:S:1:pos:R:3:energies:R:1:forces:R:3:charge:R:1 level_of_theory=GFN2-xTB energy=-510.94995382383814 free_energy=-510.94995382383814 dipole="-0.020327353331388243 0.23063348990967425 0.023559160033331986" pbc="F F F"
C        2.60149574       0.31064744       0.30084681     -58.53137401      -0.00003590       0.00002103       0.00003458      -0.14129036
C        1.73802005      -0.66622502       0.07045241     -58.49172790       0.00001438      -0.00005137      -0.00006120       0.10331967
O        0.40703386      -0.60313014      -0.16266105    -111.40444980      -0.00004388       0.00002680       0.00003518      -0.26479084
C       -0.21737964       0.66667292      -0.18874695     -59.23362187      -0.00001169       0.00001406       0.00001213       0.07560217
C        0.02354178       1.40883012      -1.47164671     -58.24648807       0.00004211      -0.00001933       0.00004268      -0.03775694
C       -0.89912877       2.10742536      -2.10426101     -58.41937388      -0.00002202       0.00004862       0.00001523      -0.09216646
H        3.63228167       0.07684518       0.48854874     -13.54407667       0.00001238       0.00000599       0.00000241       0.03583818
H        2.33699190       1.35270323       0.31530610     -13.49672686       0.00002888       0.00002690      -0.00001200       0.03907692
H        2.04796142      -1.70343959       0.05844837     -13.23411250       0.00002411      -0.00004346       0.00001406       0.04526052
H        0.12775636       1.26982311       0.66465911     -13.13377839      -0.00002380      -0.00001613      -0.00002458       0.04230179
H       -1.28461130       0.46635286      -0.06019130     -13.04773334       0.00002251      -0.00001039       0.00000786       0.05636637
H        1.02816666       1.33048736      -1.86359690     -13.31291998       0.00002354       0.00000059      -0.00001880       0.05026035
H       -0.68466447       2.63651525      -3.01664340     -13.40318431      -0.00000177       0.00000901      -0.00004539       0.04641909
H       -1.90656451       2.18737455      -1.72979426     -13.45038625      -0.00002884      -0.00001231      -0.00000216       0.04155954
