14
Properties=species:S:1:pos:R:3:energies:R:1:forces:R:3:charge:R:1 level_of_theory=GFN2-xTB energy=-510.94596392214265 free_energy=-510.94596392214265 dipole="-0.03912508016991163 0.22539853938014678 0.003419558476522526" pbc="F F F"
C        2.53432553       0.34341893      -0.01369384     -58.54485964      -0.00000078       0.00002673      -0.00001055      -0.14243575
C        1.65906730      -0.64694698      -0.08956826     -58.53192468       0.00002744      -0.00002489       0.00001895       0.10076998
O        0.30969885      -0.59023055      -0.05554773    -111.37551774      -0.00000194      -0.00006866      -0.00001244      -0.26346923
C       -0.28827741       0.68570267       0.08430155     -59.17069764       0.00000536       0.00005916      -0.00000628       0.08107188
C       -1.77537474       0.51686977       0.06256168     -58.26013517      -0.00008550      -0.00003240       0.00003262      -0.03212100
C       -2.60653107       1.14557911       0.87065392     -58.40799656      -0.00001968       0.00002723       0.00002326      -0.09085987
H        3.58587597       0.13238136      -0.05746050     -13.52711103       0.00001165      -0.00002146       0.00000070       0.03730880
H        2.25591518       1.37622421       0.09254267     -13.51902014      -0.00000806       0.00002968       0.00000478       0.03671846
H        1.97136186      -1.67771765      -0.19525239     -13.22154705       0.00000148      -0.00001434      -0.00000826       0.04673973
H        0.02091297       1.32834950      -0.75635640     -13.14621063       0.00003514       0.00002937      -0.00003081       0.03966133
H        0.03807842       1.15978727       1.01965063     -13.19316642       0.00000425       0.00000737       0.00001737       0.03831316
H       -2.13346221      -0.17647032      -0.68499191     -13.24309198       0.00001203       0.00000727       0.00000269       0.05602265
H       -3.67187818       1.00799872       0.80733036     -13.37850707       0.00002264       0.00000379      -0.00000523       0.04866193
H       -2.25669035       1.83255496       1.62389894     -13.42617817      -0.00000402      -0.00002886      -0.00002681       0.04361792
