14
Properties=species:S:1:pos:R:3:energies:R:1:forces:R:3:charge:R:1 level_of_theory=GFN2-xTB energy=-510.94025709459515 free_energy=-510.94025709459515 dipole="-0.019146678791009335 0.2164899981836099 -0.0003968283884029516" pbc="F F F"
C        2.52225090       0.33393176       0.00713055     -58.54590957      -0.00002655      -0.00000290       0.00000773      -0.14268379
C        1.63776818      -0.65143315       0.00686540     -58.54096449       0.00000011       0.00002840      -0.00001577       0.10013149
O        0.28873335      -0.58312379       0.00387030    -111.32289663       0.00003608       0.00001608      -0.00001091      -0.25766415
C       -0.29675828       0.70004597       0.00050614     -59.18758754       0.00001607      -0.00002286       0.00000959       0.08285168
C       -1.79193761       0.60165694      -0.00252654     -58.28591387       0.00000749       0.00001204       0.00000092      -0.03641086
C       -2.47414513      -0.52662477      -0.00213760     -58.33721168       0.00000584       0.00003028       0.00002310      -0.08532362
H        3.57192538       0.10937319       0.00974421     -13.52646530      -0.00005294      -0.00000779      -0.00000351       0.03732502
H        2.25510032       1.37506167       0.00484522     -13.52290148       0.00004475      -0.00003260       0.00000130       0.03628084
H        1.94384440      -1.68957146       0.00922658     -13.22162957       0.00000884       0.00005097       0.00000789       0.04648970
H        0.03228410       1.26210854      -0.88833330     -13.15986532      -0.00000681      -0.00004816       0.00001964       0.03860473
H        0.02848797       1.26503144       0.88888927     -13.15986474      -0.00001504      -0.00003073      -0.00001726       0.03860467
H       -2.28863593       1.56288288      -0.00516070     -13.41217457      -0.00000548       0.00005823      -0.00000545       0.03764052
H       -3.55024605      -0.53749607      -0.00441581     -13.43274768      -0.00005542      -0.00002315      -0.00000723       0.04346460
H       -1.97386952      -1.47899500       0.00049416     -13.28412464       0.00004306      -0.00002781      -0.00001005       0.06068918
