14
Properties=species:S:1:pos:R:3:energies:R:1:forces:R:3:charge:R:1 level_of_theory=GFN2-xTB energy=-510.9085291058801 free_energy=-510.9085291058801 dipole="-0.0494881403943515 -0.35020767436324535 -0.043355142322569595" pbc="F F F"
C        2.52508682       0.38407566      -0.07928606     -58.48823295      -0.00001872      -0.00000323      -0.00001098      -0.13305105
C        1.72541387      -0.66569167      -0.16974823     -58.40130591      -0.00002099      -0.00002088       0.00000869       0.10660929
O        0.38629774      -0.57966624       0.04574698    -111.33831331      -0.00000527      -0.00001697      -0.00001048      -0.26304470
C       -0.31835820      -1.79707599       0.05654133     -59.25848808      -0.00001396       0.00000489      -0.00001200       0.08012017
C       -0.10074370      -2.64088683       1.28249517     -58.27188582       0.00000523       0.00001220      -0.00001450      -0.04209815
C        0.63113429      -2.29246979       2.32271193     -58.32619425       0.00003996      -0.00003595      -0.00000791      -0.08399347
H        3.57510135       0.29420227      -0.28006347     -13.48093034       0.00000002       0.00001627       0.00000452       0.04152324
H        2.14457319       1.35222784       0.19025238     -13.38122189       0.00002129      -0.00000206       0.00000229       0.05163393
H        2.09935874      -1.64933201      -0.43822047     -13.48526806       0.00000607       0.00000076      -0.00000045       0.01901570
H       -0.07016432      -2.39381929      -0.83645070     -13.20472295       0.00001118       0.00001440       0.00000342       0.03394418
H       -1.37733755      -1.52176330      -0.00859504     -12.99945544      -0.00000268       0.00001547      -0.00000831       0.05935896
H       -0.61251643      -3.59355429       1.24809991     -13.43780369       0.00000158       0.00001032       0.00000660       0.03626916
H        0.75007049      -2.94027785       3.17379260     -13.46015760      -0.00000338      -0.00000315       0.00004253       0.04131067
H        1.13859654      -1.34322152       2.36562807     -13.37454884      -0.00002034       0.00000792      -0.00000343       0.05240207
