14
Properties=species:S:1:pos:R:3:energies:R:1:forces:R:3:charge:R:1 level_of_theory=GFN2-xTB energy=-510.90649570746916 free_energy=-510.90649570746916 dipole="-0.03897695650241007 -0.3607378167002928 0.005469471615766536" pbc="F F F"
C        2.46476532       0.45080661      -0.00877253     -58.48398797      -0.00000641       0.00000623      -0.00001974      -0.13206698
C        1.71275261      -0.63531276      -0.06831517     -58.41137942       0.00001686      -0.00002491       0.00002755       0.10527208
O        0.35547716      -0.58188482      -0.00852324    -111.37667261      -0.00002394       0.00003071      -0.00001022      -0.26823820
C       -0.30740199      -1.83105081      -0.00164783     -59.24288928       0.00002589       0.00001343      -0.00000820       0.07743302
C       -0.02054129      -2.62850322       1.23764277     -58.25419600       0.00006479      -0.00004437      -0.00002760      -0.03871360
C        0.29555261      -3.90910328       1.23980761     -58.40293456      -0.00003506       0.00000040       0.00000687      -0.08964330
H        3.53355272       0.38321761      -0.07217551     -13.47647746      -0.00000764      -0.00000150      -0.00000140       0.04179720
H        2.02683006       1.42596027       0.10018763     -13.37268543       0.00000136      -0.00000190       0.00000780       0.05231033
H        2.14215514      -1.62681137      -0.17398575     -13.48603149       0.00000814      -0.00000334      -0.00000534       0.01941555
H       -0.04804980      -2.41116509      -0.89854438     -13.22520359      -0.00000937       0.00000142       0.00001180       0.03450169
H       -1.37318249      -1.58000839      -0.04197847     -13.00239573      -0.00002270       0.00001103      -0.00001268       0.05969117
H       -0.07761372      -2.06275711       2.15772420     -13.31962824      -0.00003067       0.00002245       0.00003286       0.04985824
H        0.48705022      -4.44665621       2.15241420     -13.40532479       0.00001606       0.00000021       0.00000663       0.04656253
H        0.36183069      -4.47900957       0.32682207     -13.44668913       0.00000270      -0.00000984      -0.00000833       0.04182027
