14
Properties=species:S:1:pos:R:3:energies:R:1:forces:R:3:charge:R:1 level_of_theory=GFN2-xTB energy=-510.8862480268524 free_energy=-510.8862480268524 dipole="-0.040067493627380525 -0.364038993794568 -0.03319222992809392" pbc="F F F"
C        2.54155134       0.33057246      -0.03737791     -58.48104497      -0.00006692      -0.00005465       0.00002041      -0.13183473
C        1.70873742      -0.68531715      -0.19185574     -58.40835747       0.00000072      -0.00003824      -0.00001786       0.10601387
O        0.37716567      -0.57941757       0.05148412    -111.36725140       0.00005185      -0.00001012       0.00000492      -0.26675134
C       -0.34705682      -1.79048409       0.10298798     -59.24008499      -0.00002509       0.00006249      -0.00005052       0.07852829
C       -0.10624560      -2.54863065       1.37737415     -58.23658930      -0.00002952      -0.00001597      -0.00002442      -0.03795760
C       -1.05899429      -3.08686125       2.11306712     -58.40879350       0.00001977      -0.00008479      -0.00004147      -0.08982679
H        3.58264614       0.22954012      -0.27633599     -13.47662862      -0.00002023       0.00003022       0.00001534       0.04176594
H        2.19607995       1.28364456       0.31849857     -13.37890962       0.00003776       0.00000548      -0.00002359       0.05211331
H        2.04888267      -1.65345246      -0.55086332     -13.47907391       0.00001940       0.00002696      -0.00000777       0.01828479
H       -0.07615426      -2.42756619      -0.75555828     -13.19558465       0.00005495      -0.00001100       0.00002337       0.03476695
H       -1.39992818      -1.51223383       0.01331318     -13.04455595      -0.00007752       0.00001856       0.00002488       0.05763974
H        0.93333419      -2.62382695       1.66954865     -13.35105616       0.00004764       0.00001814       0.00002221       0.04589644
H       -0.84108744      -3.63212775       3.01515301     -13.39014617      -0.00003288       0.00001444       0.00003261       0.04761035
H       -2.09806788      -3.01210165       1.83746999     -13.42817132       0.00002008       0.00003848       0.00002190       0.04375081
