14
Properties=species:S:1:pos:R:3:energies:R:1:forces:R:3:charge:R:1 level_of_theory=GFN2-xTB energy=-509.7970768813842 free_energy=-509.7970768813842 dipole="-0.1024986300526577 0.21259130459702202 -0.1662422183195489" pbc="F F F"
C       -1.13688071       0.74550546      -0.32446995     -58.73230797      -0.00004367      -0.00003069      -0.00000558      -0.08338721
C       -1.32863059      -0.46869203       0.34084876     -58.00156040       0.00005312      -0.00000588       0.00000365       0.09645688
O       -0.36093644      -1.35704472       0.37157621    -111.16039402       0.00000806       0.00000007      -0.00000561      -0.25199307
C        1.06034106      -0.90216495       0.11846057     -58.82689600      -0.00002368      -0.00000235      -0.00000458       0.06469456
C        1.18239078       0.31913040       0.89591994     -57.93424016      -0.00000041      -0.00002010      -0.00005133      -0.10600794
C        0.45138970       1.40169336       0.36606050     -58.61568932       0.00004109      -0.00001237       0.00004249      -0.05358485
H       -1.91853317       1.48355950      -0.20447535     -13.41530890      -0.00000318       0.00000755       0.00000382       0.04232603
H       -0.79727245       0.66438190      -1.34754986     -13.12871707       0.00001596       0.00001712       0.00000254       0.05961453
H       -2.01749989      -0.53826787       1.18128359     -13.32157038      -0.00002078       0.00003934      -0.00000237       0.03227292
H        1.64499049      -1.75097440       0.46329714     -13.10012122       0.00002298       0.00001407       0.00000620       0.05971783
H        1.17748633      -0.76039781      -0.95828160     -13.20772451       0.00000467      -0.00000923       0.00000028       0.04185633
H        1.13154048       0.16622979       1.96886794     -13.64313379      -0.00002550       0.00001519       0.00001330       0.01673837
H        0.20813643       2.19385292       1.06684490     -13.47352462       0.00000009      -0.00000885       0.00000255       0.03354155
H        0.81871201       1.80214476      -0.57100449     -13.23588853      -0.00002875      -0.00000387      -0.00000535       0.04775407
