14
Properties=species:S:1:pos:R:3:energies:R:1:forces:R:3:charge:R:1 level_of_theory=GFN2-xTB energy=-510.0486498008665 free_energy=-510.0486498008665 dipole="0.05077602084758441 0.3619848936651956 0.16032900062128538" pbc="F F F"
C       -1.27754430       0.81801044      -0.24314346     -58.51990905      -0.00001354      -0.00002278       0.00000645      -0.07692305
C       -1.23562077      -0.47138421       0.26286216     -58.12626670       0.00000352      -0.00001840       0.00002314       0.11044520
O       -0.36371827      -1.32246125      -0.21828623    -111.62396269       0.00001800       0.00002395      -0.00001180      -0.31657161
C        1.12948101      -0.93150402       0.15780920     -58.68383631       0.00001366      -0.00004875      -0.00003132       0.04771975
C        1.30582545       0.41679111      -0.29532486     -58.09908117      -0.00002384      -0.00001669       0.00005794      -0.06707848
C        0.49885032       1.39019940       0.27544868     -58.50508768       0.00002181      -0.00000001      -0.00003254      -0.05288122
H       -1.96979871       1.51719066       0.20492268     -13.38930570       0.00000438       0.00001323      -0.00001377       0.04476361
H       -1.13766920       0.95261519      -1.30508201     -13.16287908       0.00000331       0.00000375       0.00000587       0.06332772
H       -1.62208331      -0.66574395       1.26741806     -13.50573047      -0.00000414       0.00000292      -0.00001075       0.00867296
H        1.70821145      -1.69064882      -0.35629628     -13.08632864      -0.00001187       0.00001305      -0.00000329       0.06469286
H        1.14799068      -1.06940574       1.23804888     -13.20086614      -0.00000936       0.00004552       0.00000329       0.04646849
H        1.64136012       0.55616889      -1.31347421     -13.45055327      -0.00000925       0.00000714      -0.00000535       0.03625706
H        0.54152568       2.39249408      -0.12803183     -13.34013303      -0.00000284      -0.00000454       0.00001347       0.04754383
H        0.35244884       1.36774024       1.34702822     -13.35470987       0.00001018       0.00000163      -0.00000134       0.04356286
