 Entering Gaussian System, Link 0=g16
 Input=/bigdata/rhome/djo04747/Documents/Gaussian/saunders 1133tetramethylcyclohexane/1133tetramethylcyclohexane_b3lyp6311gdp.gjf
 Output=/bigdata/rhome/djo04747/Documents/Gaussian/saunders 1133tetramethylcyclohexane/1133tetramethylcyclohexane_b3lyp6311gdp.log
 Initial command:
 /opt/linux/rocky/8/software/gaussian/16c01_avx2/g16/l1.exe "/scratch/djo04747/21687/Gau-1057464.inp" -scrdir="/scratch/djo04747/21687/"
 Entering Link 1 = /opt/linux/rocky/8/software/gaussian/16c01_avx2/g16/l1.exe PID=   1057466.
  
 Copyright (c) 1988-2019, Gaussian, Inc.  All Rights Reserved.
  
 This is part of the Gaussian(R) 16 program.  It is based on
 the Gaussian(R) 09 system (copyright 2009, Gaussian, Inc.),
 the Gaussian(R) 03 system (copyright 2003, Gaussian, Inc.),
 the Gaussian(R) 98 system (copyright 1998, Gaussian, Inc.),
 the Gaussian(R) 94 system (copyright 1995, Gaussian, Inc.),
 the Gaussian 92(TM) system (copyright 1992, Gaussian, Inc.),
 the Gaussian 90(TM) system (copyright 1990, Gaussian, Inc.),
 the Gaussian 88(TM) system (copyright 1988, Gaussian, Inc.),
 the Gaussian 86(TM) system (copyright 1986, Carnegie Mellon
 University), and the Gaussian 82(TM) system (copyright 1983,
 Carnegie Mellon University). Gaussian is a federally registered
 trademark of Gaussian, Inc.
  
 This software contains proprietary and confidential information,
 including trade secrets, belonging to Gaussian, Inc.
  
 This software is provided under written license and may be
 used, copied, transmitted, or stored only in accord with that
 written license.
  
 The following legend is applicable only to US Government
 contracts under FAR:
  
                    RESTRICTED RIGHTS LEGEND
  
 Use, reproduction and disclosure by the US Government is
 subject to restrictions as set forth in subparagraphs (a)
 and (c) of the Commercial Computer Software - Restricted
 Rights clause in FAR 52.227-19.
  
 Gaussian, Inc.
 340 Quinnipiac St., Bldg. 40, Wallingford CT 06492
  
  
 ---------------------------------------------------------------
 Warning -- This program may not be used in any manner that
 competes with the business of Gaussian, Inc. or will provide
 assistance to any competitor of Gaussian, Inc.  The licensee
 of this program is prohibited from giving any competitor of
 Gaussian, Inc. access to this program.  By using this program,
 the user acknowledges that Gaussian, Inc. is engaged in the
 business of creating and licensing software in the field of
 computational chemistry and represents and warrants to the
 licensee that it is not a competitor of Gaussian, Inc. and that
 it will not use this program in any manner prohibited above.
 ---------------------------------------------------------------
  

 Cite this work as:
 Gaussian 16, Revision C.01,
 M. J. Frisch, G. W. Trucks, H. B. Schlegel, G. E. Scuseria, 
 M. A. Robb, J. R. Cheeseman, G. Scalmani, V. Barone, 
 G. A. Petersson, H. Nakatsuji, X. Li, M. Caricato, A. V. Marenich, 
 J. Bloino, B. G. Janesko, R. Gomperts, B. Mennucci, H. P. Hratchian, 
 J. V. Ortiz, A. F. Izmaylov, J. L. Sonnenberg, D. Williams-Young, 
 F. Ding, F. Lipparini, F. Egidi, J. Goings, B. Peng, A. Petrone, 
 T. Henderson, D. Ranasinghe, V. G. Zakrzewski, J. Gao, N. Rega, 
 G. Zheng, W. Liang, M. Hada, M. Ehara, K. Toyota, R. Fukuda, 
 J. Hasegawa, M. Ishida, T. Nakajima, Y. Honda, O. Kitao, H. Nakai, 
 T. Vreven, K. Throssell, J. A. Montgomery, Jr., J. E. Peralta, 
 F. Ogliaro, M. J. Bearpark, J. J. Heyd, E. N. Brothers, K. N. Kudin, 
 V. N. Staroverov, T. A. Keith, R. Kobayashi, J. Normand, 
 K. Raghavachari, A. P. Rendell, J. C. Burant, S. S. Iyengar, 
 J. Tomasi, M. Cossi, J. M. Millam, M. Klene, C. Adamo, R. Cammi, 
 J. W. Ochterski, R. L. Martin, K. Morokuma, O. Farkas, 
 J. B. Foresman, and D. J. Fox, Gaussian, Inc., Wallingford CT, 2019.
 
 ******************************************
 Gaussian 16:  ES64L-G16RevC.01  3-Jul-2019
                23-Jul-2025 
 ******************************************
 %nprocshared=36
 Will use up to   36 processors via shared memory.
 %chk=1133tetramethylcyclohexane_b3lyp6311gdp.chk
 ---------------------------------------------
 #P opt freq b3lyp/6-311g(d) geom=connectivity
 ---------------------------------------------
 1/18=20,19=15,26=3,38=1,57=2/1,3;
 2/9=110,12=2,17=6,18=5,40=1/2;
 3/5=4,6=6,7=1,11=2,25=1,30=1,71=1,74=-5/1,2,3;
 4//1;
 5/5=2,38=5/2;
 6/7=2,8=2,9=2,10=2,28=1/1;
 7//1,2,3,16;
 1/18=20,19=15,26=3/3(2);
 2/9=110/2;
 99//99;
 2/9=110/2;
 3/5=4,6=6,7=1,11=2,25=1,30=1,71=1,74=-5/1,2,3;
 4/5=5,16=3,69=1/1;
 5/5=2,38=5/2;
 7//1,2,3,16;
 1/18=20,19=15,26=3/3(-5);
 2/9=110/2;
 6/7=2,8=2,9=2,10=2,19=2,28=1/1;
 99/9=1/99;
 Leave Link    1 at Wed Jul 23 16:40:03 2025, MaxMem=           0 cpu:               2.1 elap:               0.1
 (Enter /opt/linux/rocky/8/software/gaussian/16c01_avx2/g16/l101.exe)
 -------------------
 Title Card Required
 -------------------
 Symbolic Z-matrix:
 Charge =  0 Multiplicity = 1
 C                     1.33696  -0.26105  -0.04862 
 C                     0.       -0.94957  -0.43809 
 C                    -1.33696  -0.26105  -0.04862 
 C                    -1.26477   1.2382   -0.42237 
 C                    0.         1.93921   0.08767 
 C                     1.26477   1.2382   -0.42237 
 H                     0.       -1.03896  -1.53203 
 H                     0.       -1.97958  -0.05904 
 H                    -1.2916    1.32724  -1.51673 
 H                    -2.16154   1.75091  -0.05446 
 H                    0.         2.98261  -0.24619 
 H                    0.         1.9795    1.18251 
 H                     1.2916    1.32725  -1.51673 
 H                     2.16154   1.75091  -0.05445 
 C                    -2.46445  -0.92615  -0.86073 
 H                    -2.54845  -1.992    -0.62435 
 H                    -3.4324   -0.46321  -0.64339 
 H                    -2.28832  -0.83783  -1.93705 
 C                    -1.68667  -0.4317    1.44336 
 H                    -2.69987  -0.06598   1.63867 
 H                    -1.65706  -1.48595   1.7357 
 H                    -1.0168    0.11036   2.11037 
 C                     2.46445  -0.92615  -0.86073 
 H                     3.4324   -0.46321  -0.64339 
 H                     2.54845  -1.992    -0.62435 
 H                     2.28832  -0.83782  -1.93705 
 C                     1.68666  -0.43171   1.44337 
 H                     1.65711  -1.48596   1.73568 
 H                     2.69985  -0.06593   1.63868 
 H                     1.01677   0.11032   2.11037 
 
 ITRead=  0  0  0  0  0  0  0  0  0  0  0  0  0  0  0  0  0  0  0  0
 ITRead=  0  0  0  0  0  0  0  0  0  0
 MicOpt= -1 -1 -1 -1 -1 -1 -1 -1 -1 -1 -1 -1 -1 -1 -1 -1 -1 -1 -1 -1
 MicOpt= -1 -1 -1 -1 -1 -1 -1 -1 -1 -1
 NAtoms=     30 NQM=       30 NQMF=       0 NMMI=      0 NMMIF=      0
                NMic=       0 NMicF=      0.
                    Isotopes and Nuclear Properties:
 (Nuclear quadrupole moments (NQMom) in fm**2, nuclear magnetic moments (NMagM)
  in nuclear magnetons)

  Atom         1           2           3           4           5           6           7           8           9          10
 IAtWgt=          12          12          12          12          12          12           1           1           1           1
 AtmWgt=  12.0000000  12.0000000  12.0000000  12.0000000  12.0000000  12.0000000   1.0078250   1.0078250   1.0078250   1.0078250
 NucSpn=           0           0           0           0           0           0           1           1           1           1
 AtZEff=  -0.0000000  -0.0000000  -0.0000000  -0.0000000  -0.0000000  -0.0000000  -0.0000000  -0.0000000  -0.0000000  -0.0000000
 NQMom=    0.0000000   0.0000000   0.0000000   0.0000000   0.0000000   0.0000000   0.0000000   0.0000000   0.0000000   0.0000000
 NMagM=    0.0000000   0.0000000   0.0000000   0.0000000   0.0000000   0.0000000   2.7928460   2.7928460   2.7928460   2.7928460
 AtZNuc=   6.0000000   6.0000000   6.0000000   6.0000000   6.0000000   6.0000000   1.0000000   1.0000000   1.0000000   1.0000000

  Atom        11          12          13          14          15          16          17          18          19          20
 IAtWgt=           1           1           1           1          12           1           1           1          12           1
 AtmWgt=   1.0078250   1.0078250   1.0078250   1.0078250  12.0000000   1.0078250   1.0078250   1.0078250  12.0000000   1.0078250
 NucSpn=           1           1           1           1           0           1           1           1           0           1
 AtZEff=  -0.0000000  -0.0000000  -0.0000000  -0.0000000  -0.0000000  -0.0000000  -0.0000000  -0.0000000  -0.0000000  -0.0000000
 NQMom=    0.0000000   0.0000000   0.0000000   0.0000000   0.0000000   0.0000000   0.0000000   0.0000000   0.0000000   0.0000000
 NMagM=    2.7928460   2.7928460   2.7928460   2.7928460   0.0000000   2.7928460   2.7928460   2.7928460   0.0000000   2.7928460
 AtZNuc=   1.0000000   1.0000000   1.0000000   1.0000000   6.0000000   1.0000000   1.0000000   1.0000000   6.0000000   1.0000000

  Atom        21          22          23          24          25          26          27          28          29          30
 IAtWgt=           1           1          12           1           1           1          12           1           1           1
 AtmWgt=   1.0078250   1.0078250  12.0000000   1.0078250   1.0078250   1.0078250  12.0000000   1.0078250   1.0078250   1.0078250
 NucSpn=           1           1           0           1           1           1           0           1           1           1
 AtZEff=  -0.0000000  -0.0000000  -0.0000000  -0.0000000  -0.0000000  -0.0000000  -0.0000000  -0.0000000  -0.0000000  -0.0000000
 NQMom=    0.0000000   0.0000000   0.0000000   0.0000000   0.0000000   0.0000000   0.0000000   0.0000000   0.0000000   0.0000000
 NMagM=    2.7928460   2.7928460   0.0000000   2.7928460   2.7928460   2.7928460   0.0000000   2.7928460   2.7928460   2.7928460
 AtZNuc=   1.0000000   1.0000000   6.0000000   1.0000000   1.0000000   1.0000000   6.0000000   1.0000000   1.0000000   1.0000000
 Leave Link  101 at Wed Jul 23 16:40:03 2025, MaxMem=   104857600 cpu:               2.7 elap:               0.1
 (Enter /opt/linux/rocky/8/software/gaussian/16c01_avx2/g16/l103.exe)

 GradGradGradGradGradGradGradGradGradGradGradGradGradGradGradGradGradGrad
 Berny optimization.
 Initialization pass.
                           ----------------------------
                           !    Initial Parameters    !
                           ! (Angstroms and Degrees)  !
 --------------------------                            --------------------------
 ! Name  Definition              Value          Derivative Info.                !
 --------------------------------------------------------------------------------
 ! R1    R(1,2)                  1.5535         estimate D2E/DX2                !
 ! R2    R(1,6)                  1.5468         estimate D2E/DX2                !
 ! R3    R(1,23)                 1.5405         estimate D2E/DX2                !
 ! R4    R(1,27)                 1.5419         estimate D2E/DX2                !
 ! R5    R(2,3)                  1.5535         estimate D2E/DX2                !
 ! R6    R(2,7)                  1.0976         estimate D2E/DX2                !
 ! R7    R(2,8)                  1.0976         estimate D2E/DX2                !
 ! R8    R(3,4)                  1.5468         estimate D2E/DX2                !
 ! R9    R(3,15)                 1.5405         estimate D2E/DX2                !
 ! R10   R(3,19)                 1.5419         estimate D2E/DX2                !
 ! R11   R(4,5)                  1.5334         estimate D2E/DX2                !
 ! R12   R(4,9)                  1.0983         estimate D2E/DX2                !
 ! R13   R(4,10)                 1.0966         estimate D2E/DX2                !
 ! R14   R(5,6)                  1.5334         estimate D2E/DX2                !
 ! R15   R(5,11)                 1.0955         estimate D2E/DX2                !
 ! R16   R(5,12)                 1.0956         estimate D2E/DX2                !
 ! R17   R(6,13)                 1.0983         estimate D2E/DX2                !
 ! R18   R(6,14)                 1.0966         estimate D2E/DX2                !
 ! R19   R(15,16)                1.095          estimate D2E/DX2                !
 ! R20   R(15,17)                1.0948         estimate D2E/DX2                !
 ! R21   R(15,18)                1.0942         estimate D2E/DX2                !
 ! R22   R(19,20)                1.0948         estimate D2E/DX2                !
 ! R23   R(19,21)                1.0944         estimate D2E/DX2                !
 ! R24   R(19,22)                1.0897         estimate D2E/DX2                !
 ! R25   R(23,24)                1.0947         estimate D2E/DX2                !
 ! R26   R(23,25)                1.095          estimate D2E/DX2                !
 ! R27   R(23,26)                1.0942         estimate D2E/DX2                !
 ! R28   R(27,28)                1.0944         estimate D2E/DX2                !
 ! R29   R(27,29)                1.0948         estimate D2E/DX2                !
 ! R30   R(27,30)                1.0897         estimate D2E/DX2                !
 ! A1    A(2,1,6)              109.1982         estimate D2E/DX2                !
 ! A2    A(2,1,23)             107.8409         estimate D2E/DX2                !
 ! A3    A(2,1,27)             112.8762         estimate D2E/DX2                !
 ! A4    A(6,1,23)             108.9804         estimate D2E/DX2                !
 ! A5    A(6,1,27)             110.5893         estimate D2E/DX2                !
 ! A6    A(23,1,27)            107.2375         estimate D2E/DX2                !
 ! A7    A(1,2,3)              118.777          estimate D2E/DX2                !
 ! A8    A(1,2,7)              106.6175         estimate D2E/DX2                !
 ! A9    A(1,2,8)              109.2296         estimate D2E/DX2                !
 ! A10   A(3,2,7)              106.6176         estimate D2E/DX2                !
 ! A11   A(3,2,8)              109.2296         estimate D2E/DX2                !
 ! A12   A(7,2,8)              105.5325         estimate D2E/DX2                !
 ! A13   A(2,3,4)              109.1982         estimate D2E/DX2                !
 ! A14   A(2,3,15)             107.8408         estimate D2E/DX2                !
 ! A15   A(2,3,19)             112.8762         estimate D2E/DX2                !
 ! A16   A(4,3,15)             108.9805         estimate D2E/DX2                !
 ! A17   A(4,3,19)             110.5893         estimate D2E/DX2                !
 ! A18   A(15,3,19)            107.2375         estimate D2E/DX2                !
 ! A19   A(3,4,5)              113.6554         estimate D2E/DX2                !
 ! A20   A(3,4,9)              108.5544         estimate D2E/DX2                !
 ! A21   A(3,4,10)             109.5083         estimate D2E/DX2                !
 ! A22   A(5,4,9)              108.3318         estimate D2E/DX2                !
 ! A23   A(5,4,10)             110.438          estimate D2E/DX2                !
 ! A24   A(9,4,10)             106.0473         estimate D2E/DX2                !
 ! A25   A(4,5,6)              111.1434         estimate D2E/DX2                !
 ! A26   A(4,5,11)             109.5152         estimate D2E/DX2                !
 ! A27   A(4,5,12)             110.4396         estimate D2E/DX2                !
 ! A28   A(6,5,11)             109.5152         estimate D2E/DX2                !
 ! A29   A(6,5,12)             110.4396         estimate D2E/DX2                !
 ! A30   A(11,5,12)            105.6352         estimate D2E/DX2                !
 ! A31   A(1,6,5)              113.6554         estimate D2E/DX2                !
 ! A32   A(1,6,13)             108.5544         estimate D2E/DX2                !
 ! A33   A(1,6,14)             109.5084         estimate D2E/DX2                !
 ! A34   A(5,6,13)             108.3317         estimate D2E/DX2                !
 ! A35   A(5,6,14)             110.4379         estimate D2E/DX2                !
 ! A36   A(13,6,14)            106.0473         estimate D2E/DX2                !
 ! A37   A(3,15,16)            111.2602         estimate D2E/DX2                !
 ! A38   A(3,15,17)            111.0939         estimate D2E/DX2                !
 ! A39   A(3,15,18)            111.4629         estimate D2E/DX2                !
 ! A40   A(16,15,17)           107.5139         estimate D2E/DX2                !
 ! A41   A(16,15,18)           107.6541         estimate D2E/DX2                !
 ! A42   A(17,15,18)           107.6661         estimate D2E/DX2                !
 ! A43   A(3,19,20)            110.2159         estimate D2E/DX2                !
 ! A44   A(3,19,21)            111.0354         estimate D2E/DX2                !
 ! A45   A(3,19,22)            113.4414         estimate D2E/DX2                !
 ! A46   A(20,19,21)           107.4087         estimate D2E/DX2                !
 ! A47   A(20,19,22)           107.0707         estimate D2E/DX2                !
 ! A48   A(21,19,22)           107.4009         estimate D2E/DX2                !
 ! A49   A(1,23,24)            111.0939         estimate D2E/DX2                !
 ! A50   A(1,23,25)            111.2603         estimate D2E/DX2                !
 ! A51   A(1,23,26)            111.463          estimate D2E/DX2                !
 ! A52   A(24,23,25)           107.5138         estimate D2E/DX2                !
 ! A53   A(24,23,26)           107.666          estimate D2E/DX2                !
 ! A54   A(25,23,26)           107.6541         estimate D2E/DX2                !
 ! A55   A(1,27,28)            111.0352         estimate D2E/DX2                !
 ! A56   A(1,27,29)            110.216          estimate D2E/DX2                !
 ! A57   A(1,27,30)            113.4414         estimate D2E/DX2                !
 ! A58   A(28,27,29)           107.4088         estimate D2E/DX2                !
 ! A59   A(28,27,30)           107.4009         estimate D2E/DX2                !
 ! A60   A(29,27,30)           107.0709         estimate D2E/DX2                !
 ! D1    D(6,1,2,3)            -46.7203         estimate D2E/DX2                !
 ! D2    D(6,1,2,7)             73.5722         estimate D2E/DX2                !
 ! D3    D(6,1,2,8)           -172.8451         estimate D2E/DX2                !
 ! D4    D(23,1,2,3)          -165.006          estimate D2E/DX2                !
 ! D5    D(23,1,2,7)           -44.7135         estimate D2E/DX2                !
 ! D6    D(23,1,2,8)            68.8692         estimate D2E/DX2                !
 ! D7    D(27,1,2,3)            76.7208         estimate D2E/DX2                !
 ! D8    D(27,1,2,7)          -162.9867         estimate D2E/DX2                !
 ! D9    D(27,1,2,8)           -49.404          estimate D2E/DX2                !
 ! D10   D(2,1,6,5)             50.0197         estimate D2E/DX2                !
 ! D11   D(2,1,6,13)           -70.5925         estimate D2E/DX2                !
 ! D12   D(2,1,6,14)           174.0502         estimate D2E/DX2                !
 ! D13   D(23,1,6,5)           167.5898         estimate D2E/DX2                !
 ! D14   D(23,1,6,13)           46.9776         estimate D2E/DX2                !
 ! D15   D(23,1,6,14)          -68.3797         estimate D2E/DX2                !
 ! D16   D(27,1,6,5)           -74.7672         estimate D2E/DX2                !
 ! D17   D(27,1,6,13)          164.6206         estimate D2E/DX2                !
 ! D18   D(27,1,6,14)           49.2632         estimate D2E/DX2                !
 ! D19   D(2,1,23,24)          178.6834         estimate D2E/DX2                !
 ! D20   D(2,1,23,25)          -61.5682         estimate D2E/DX2                !
 ! D21   D(2,1,23,26)           58.6065         estimate D2E/DX2                !
 ! D22   D(6,1,23,24)           60.2581         estimate D2E/DX2                !
 ! D23   D(6,1,23,25)         -179.9935         estimate D2E/DX2                !
 ! D24   D(6,1,23,26)          -59.8188         estimate D2E/DX2                !
 ! D25   D(27,1,23,24)         -59.4836         estimate D2E/DX2                !
 ! D26   D(27,1,23,25)          60.2648         estimate D2E/DX2                !
 ! D27   D(27,1,23,26)        -179.5605         estimate D2E/DX2                !
 ! D28   D(2,1,27,28)           52.5628         estimate D2E/DX2                !
 ! D29   D(2,1,27,29)          171.4579         estimate D2E/DX2                !
 ! D30   D(2,1,27,30)          -68.5001         estimate D2E/DX2                !
 ! D31   D(6,1,27,28)          175.2304         estimate D2E/DX2                !
 ! D32   D(6,1,27,29)          -65.8745         estimate D2E/DX2                !
 ! D33   D(6,1,27,30)           54.1675         estimate D2E/DX2                !
 ! D34   D(23,1,27,28)         -66.0624         estimate D2E/DX2                !
 ! D35   D(23,1,27,29)          52.8326         estimate D2E/DX2                !
 ! D36   D(23,1,27,30)         172.8747         estimate D2E/DX2                !
 ! D37   D(1,2,3,4)             46.7204         estimate D2E/DX2                !
 ! D38   D(1,2,3,15)           165.006          estimate D2E/DX2                !
 ! D39   D(1,2,3,19)           -76.7208         estimate D2E/DX2                !
 ! D40   D(7,2,3,4)            -73.5721         estimate D2E/DX2                !
 ! D41   D(7,2,3,15)            44.7136         estimate D2E/DX2                !
 ! D42   D(7,2,3,19)           162.9868         estimate D2E/DX2                !
 ! D43   D(8,2,3,4)            172.8452         estimate D2E/DX2                !
 ! D44   D(8,2,3,15)           -68.8692         estimate D2E/DX2                !
 ! D45   D(8,2,3,19)            49.404          estimate D2E/DX2                !
 ! D46   D(2,3,4,5)            -50.0198         estimate D2E/DX2                !
 ! D47   D(2,3,4,9)             70.5925         estimate D2E/DX2                !
 ! D48   D(2,3,4,10)          -174.0503         estimate D2E/DX2                !
 ! D49   D(15,3,4,5)          -167.5898         estimate D2E/DX2                !
 ! D50   D(15,3,4,9)           -46.9775         estimate D2E/DX2                !
 ! D51   D(15,3,4,10)           68.3797         estimate D2E/DX2                !
 ! D52   D(19,3,4,5)            74.7672         estimate D2E/DX2                !
 ! D53   D(19,3,4,9)          -164.6205         estimate D2E/DX2                !
 ! D54   D(19,3,4,10)          -49.2633         estimate D2E/DX2                !
 ! D55   D(2,3,15,16)           61.5684         estimate D2E/DX2                !
 ! D56   D(2,3,15,17)         -178.6832         estimate D2E/DX2                !
 ! D57   D(2,3,15,18)          -58.6063         estimate D2E/DX2                !
 ! D58   D(4,3,15,16)          179.9936         estimate D2E/DX2                !
 ! D59   D(4,3,15,17)          -60.2579         estimate D2E/DX2                !
 ! D60   D(4,3,15,18)           59.8189         estimate D2E/DX2                !
 ! D61   D(19,3,15,16)         -60.2646         estimate D2E/DX2                !
 ! D62   D(19,3,15,17)          59.4838         estimate D2E/DX2                !
 ! D63   D(19,3,15,18)         179.5606         estimate D2E/DX2                !
 ! D64   D(2,3,19,20)         -171.4549         estimate D2E/DX2                !
 ! D65   D(2,3,19,21)          -52.5598         estimate D2E/DX2                !
 ! D66   D(2,3,19,22)           68.5032         estimate D2E/DX2                !
 ! D67   D(4,3,19,20)           65.8775         estimate D2E/DX2                !
 ! D68   D(4,3,19,21)         -175.2274         estimate D2E/DX2                !
 ! D69   D(4,3,19,22)          -54.1644         estimate D2E/DX2                !
 ! D70   D(15,3,19,20)         -52.8297         estimate D2E/DX2                !
 ! D71   D(15,3,19,21)          66.0654         estimate D2E/DX2                !
 ! D72   D(15,3,19,22)        -172.8716         estimate D2E/DX2                !
 ! D73   D(3,4,5,6)             56.7055         estimate D2E/DX2                !
 ! D74   D(3,4,5,11)           177.841          estimate D2E/DX2                !
 ! D75   D(3,4,5,12)           -66.2314         estimate D2E/DX2                !
 ! D76   D(9,4,5,6)            -64.032          estimate D2E/DX2                !
 ! D77   D(9,4,5,11)            57.1036         estimate D2E/DX2                !
 ! D78   D(9,4,5,12)           173.0312         estimate D2E/DX2                !
 ! D79   D(10,4,5,6)          -179.7692         estimate D2E/DX2                !
 ! D80   D(10,4,5,11)          -58.6337         estimate D2E/DX2                !
 ! D81   D(10,4,5,12)           57.294          estimate D2E/DX2                !
 ! D82   D(4,5,6,1)            -56.7054         estimate D2E/DX2                !
 ! D83   D(4,5,6,13)            64.032          estimate D2E/DX2                !
 ! D84   D(4,5,6,14)           179.7692         estimate D2E/DX2                !
 ! D85   D(11,5,6,1)          -177.841          estimate D2E/DX2                !
 ! D86   D(11,5,6,13)          -57.1036         estimate D2E/DX2                !
 ! D87   D(11,5,6,14)           58.6336         estimate D2E/DX2                !
 ! D88   D(12,5,6,1)            66.2314         estimate D2E/DX2                !
 ! D89   D(12,5,6,13)         -173.0312         estimate D2E/DX2                !
 ! D90   D(12,5,6,14)          -57.294          estimate D2E/DX2                !
 --------------------------------------------------------------------------------
 Trust Radius=3.00D-01 FncErr=1.00D-07 GrdErr=1.00D-06 EigMax=2.50D+02 EigMin=1.00D-04
 Number of steps in this run=    180 maximum allowed number of steps=    180.
 GradGradGradGradGradGradGradGradGradGradGradGradGradGradGradGradGradGrad

 Leave Link  103 at Wed Jul 23 16:40:04 2025, MaxMem=   104857600 cpu:               0.3 elap:               0.0
 (Enter /opt/linux/rocky/8/software/gaussian/16c01_avx2/g16/l202.exe)
                          Input orientation:                          
 ---------------------------------------------------------------------
 Center     Atomic      Atomic             Coordinates (Angstroms)
 Number     Number       Type             X           Y           Z
 ---------------------------------------------------------------------
      1          6           0        1.336962   -0.261051   -0.048618
      2          6           0        0.000000   -0.949566   -0.438094
      3          6           0       -1.336962   -0.261051   -0.048618
      4          6           0       -1.264769    1.238197   -0.422374
      5          6           0       -0.000001    1.939206    0.087668
      6          6           0        1.264769    1.238197   -0.422373
      7          1           0        0.000001   -1.038960   -1.532028
      8          1           0        0.000000   -1.979582   -0.059036
      9          1           0       -1.291599    1.327244   -1.516727
     10          1           0       -2.161538    1.750906   -0.054455
     11          1           0       -0.000001    2.982605   -0.246187
     12          1           0       -0.000001    1.979502    1.182513
     13          1           0        1.291599    1.327245   -1.516726
     14          1           0        2.161537    1.750907   -0.054453
     15          6           0       -2.464446   -0.926151   -0.860728
     16          1           0       -2.548449   -1.991999   -0.624345
     17          1           0       -3.432397   -0.463210   -0.643393
     18          1           0       -2.288316   -0.837830   -1.937046
     19          6           0       -1.686665   -0.431703    1.443364
     20          1           0       -2.699870   -0.065979    1.638668
     21          1           0       -1.657062   -1.485952    1.735698
     22          1           0       -1.016801    0.110363    2.110370
     23          6           0        2.464447   -0.926148   -0.860727
     24          1           0        3.432398   -0.463209   -0.643389
     25          1           0        2.548450   -1.991997   -0.624347
     26          1           0        2.288320   -0.837824   -1.937045
     27          6           0        1.686664   -0.431705    1.443365
     28          1           0        1.657112   -1.485961    1.735682
     29          1           0        2.699849   -0.065933    1.638681
     30          1           0        1.016767    0.110316    2.110373
 ---------------------------------------------------------------------
                    Distance matrix (angstroms):
                    1          2          3          4          5
     1  C    0.000000
     2  C    1.553452   0.000000
     3  C    2.673924   1.553452   0.000000
     4  C    3.025961   2.527092   1.546819   0.000000
     5  C    2.578212   2.936227   2.578211   1.533361   0.000000
     6  C    1.546819   2.527092   3.025961   2.529538   1.533362
     7  H    2.143155   1.097580   2.143156   2.831328   3.390116
     8  H    2.177366   1.097551   2.177366   3.476458   3.921533
     9  H    3.404021   2.831173   2.163350   1.098298   2.148675
    10  H    4.035778   3.480226   2.174381   1.096553   2.174373
    11  H    3.513945   3.936851   3.513944   2.161860   1.095509
    12  H    2.885001   3.347507   2.885000   2.173668   1.095586
    13  H    2.163350   2.831173   3.404021   2.782185   2.148676
    14  H    2.174381   3.480227   4.035778   3.483936   2.174374
    15  C    3.943676   2.500532   1.540487   2.513122   3.896564
    16  H    4.292326   2.759701   2.189827   3.481780   4.738768
    17  H    4.810552   3.472757   2.187572   2.764461   4.252928
    18  H    4.128132   2.737833   2.191782   2.766183   4.128896
    19  C    3.376011   2.579323   1.541890   2.539201   3.209978
    20  H    4.379612   3.518944   2.177729   2.829891   3.703466
    21  H    3.694367   2.785487   2.187837   3.497450   4.146512
    22  H    3.215490   2.941429   2.213974   2.783575   2.910305
    23  C    1.540486   2.500533   3.943677   4.334004   3.896564
    24  H    2.187572   3.472758   4.810552   5.000701   4.252929
    25  H    2.189827   2.759701   4.292326   5.001558   4.738768
    26  H    2.191781   2.737837   4.128134   4.385035   4.128895
    27  C    1.541891   2.579322   3.376011   3.870467   3.209980
    28  H    2.187836   2.785506   3.694403   4.540444   4.146534
    29  H    2.177730   3.518947   4.379600   4.654772   3.703433
    30  H    2.213974   2.941403   3.215462   3.590589   2.910325
                    6          7          8          9         10
     6  C    0.000000
     7  H    2.831328   0.000000
     8  H    3.476457   1.747706   0.000000
     9  H    2.782186   2.695809   3.837732   0.000000
    10  H    3.483937   3.826072   4.311474   1.753432   0.000000
    11  H    2.161861   4.222129   4.965715   2.454123   2.495213
    12  H    2.173669   4.059538   4.149191   3.062607   2.500917
    13  H    1.098298   2.695809   3.837733   2.583198   3.773842
    14  H    1.096553   3.826072   4.311474   3.773842   4.323075
    15  C    4.334005   2.556730   2.797485   2.623679   2.812199
    16  H    5.001559   2.868235   2.610425   3.659698   3.805760
    17  H    5.000700   3.592007   3.797658   2.924287   2.619970
    18  H    4.385035   2.332571   3.172839   2.420260   3.203401
    19  C    3.870466   3.473696   2.738243   3.465849   2.689377
    20  H    4.654796   4.276600   3.719324   3.725697   2.541169
    21  H    4.540413   3.691029   2.492107   4.315774   3.733148
    22  H    3.590593   3.952454   3.179320   3.835642   2.947587
    23  C    2.513120   2.556729   2.797486   4.428995   5.405222
    24  H    2.764461   3.592007   3.797659   5.126850   6.044937
    25  H    3.481779   2.868232   2.610427   5.153608   6.043020
    26  H    2.766180   2.332573   3.172844   4.204760   5.481506
    27  C    2.539202   3.473695   2.738242   4.552592   4.670751
    28  H    3.497452   3.691037   2.492127   5.214133   5.316388
    29  H    2.829868   4.276606   3.719339   5.275339   5.459001
    30  H    2.783599   3.952434   3.179280   4.468257   4.180866
                   11         12         13         14         15
    11  H    0.000000
    12  H    1.745680   0.000000
    13  H    2.454122   3.062607   0.000000
    14  H    2.495213   2.500917   1.753432   0.000000
    15  C    4.661494   4.323325   4.428995   5.405223   0.000000
    16  H    5.602167   5.052934   5.153610   6.043020   1.094973
    17  H    4.879832   4.591527   5.126849   6.044937   1.094750
    18  H    4.763519   4.785958   4.204760   5.481506   1.094204
    19  C    4.166163   2.954114   4.552591   4.670749   2.481585
    20  H    4.487297   3.417801   5.275359   5.459030   2.653733
    21  H    5.161562   3.880881   5.214110   5.316352   2.776090
    22  H    3.851885   2.321310   4.468259   4.180870   3.463735
    23  C    4.661493   4.323325   2.623678   2.812198   4.928893
    24  H    4.879833   4.591527   2.924289   2.619970   5.918980
    25  H    5.602167   5.052935   3.659697   3.805760   5.130403
    26  H    4.763517   4.785957   2.420257   3.203397   4.873915
    27  C    4.166166   2.954116   3.465851   2.689379   4.773367
    28  H    5.161580   3.880909   4.315772   3.733141   4.903261
    29  H    4.487260   3.417760   3.725682   2.541140   5.801462
    30  H    3.851913   2.321335   3.835661   2.947628   4.692606
                   16         17         18         19         20
    16  H    0.000000
    17  H    1.766047   0.000000
    18  H    1.767190   1.767144   0.000000
    19  C    2.729948   2.720869   3.457469   0.000000
    20  H    2.975518   2.429442   3.681149   1.094752   0.000000
    21  H    2.573025   3.139728   3.782538   1.094430   1.764422
    22  H    3.774194   3.707735   4.347114   1.089702   1.756793
    23  C    5.130404   5.918979   4.873912   4.773368   5.801468
    24  H    6.173175   6.864795   5.877113   5.528140   6.555173
    25  H    5.096899   6.173174   5.142916   4.964488   6.031223
    26  H    5.142921   5.877114   4.576636   5.233795   6.185750
    27  C    4.964486   5.528140   5.233792   3.373329   4.406084
    28  H    4.848974   5.710440   5.429126   3.518203   4.583563
    29  H    6.031223   6.555161   6.185745   4.406069   5.399719
    30  H    4.960764   5.263765   5.310758   2.836764   3.750597
                   21         22         23         24         25
    21  H    0.000000
    22  H    1.760266   0.000000
    23  C    4.903227   4.692639   0.000000
    24  H    5.710399   5.263796   1.094750   0.000000
    25  H    4.848941   4.960807   1.094973   1.766046   0.000000
    26  H    5.429102   5.310786   1.094204   1.767144   1.767190
    27  C    3.518153   2.836804   2.481584   2.720868   2.729949
    28  H    3.314174   3.136631   2.776062   3.139688   2.572993
    29  H    4.583507   3.750608   2.653757   2.429465   2.975557
    30  H    3.136529   2.033568   3.463736   3.707750   3.774184
                   26         27         28         29         30
    26  H    0.000000
    27  C    3.457469   0.000000
    28  H    3.782516   1.094431   0.000000
    29  H    3.681167   1.094752   1.764423   0.000000
    30  H    4.347115   1.089701   1.760266   1.756793   0.000000
 Stoichiometry    C10H20
 Framework group  C1[X(C10H20)]
 Deg. of freedom    84
 Full point group                 C1      NOp   1
 Largest Abelian subgroup         C1      NOp   1
 Largest concise Abelian subgroup C1      NOp   1
                         Standard orientation:                         
 ---------------------------------------------------------------------
 Center     Atomic      Atomic             Coordinates (Angstroms)
 Number     Number       Type             X           Y           Z
 ---------------------------------------------------------------------
      1          6           0        1.336962   -0.261051   -0.048618
      2          6           0        0.000000   -0.949566   -0.438094
      3          6           0       -1.336962   -0.261051   -0.048618
      4          6           0       -1.264769    1.238197   -0.422374
      5          6           0       -0.000001    1.939206    0.087668
      6          6           0        1.264769    1.238197   -0.422373
      7          1           0        0.000001   -1.038960   -1.532028
      8          1           0       -0.000000   -1.979582   -0.059036
      9          1           0       -1.291599    1.327244   -1.516727
     10          1           0       -2.161538    1.750906   -0.054455
     11          1           0       -0.000001    2.982605   -0.246187
     12          1           0       -0.000001    1.979502    1.182513
     13          1           0        1.291599    1.327245   -1.516726
     14          1           0        2.161537    1.750907   -0.054453
     15          6           0       -2.464446   -0.926151   -0.860728
     16          1           0       -2.548449   -1.991999   -0.624345
     17          1           0       -3.432397   -0.463210   -0.643393
     18          1           0       -2.288316   -0.837830   -1.937046
     19          6           0       -1.686665   -0.431703    1.443364
     20          1           0       -2.699870   -0.065979    1.638668
     21          1           0       -1.657062   -1.485952    1.735698
     22          1           0       -1.016801    0.110363    2.110370
     23          6           0        2.464447   -0.926148   -0.860727
     24          1           0        3.432398   -0.463209   -0.643389
     25          1           0        2.548450   -1.991997   -0.624347
     26          1           0        2.288320   -0.837824   -1.937045
     27          6           0        1.686664   -0.431705    1.443365
     28          1           0        1.657112   -1.485961    1.735682
     29          1           0        2.699849   -0.065933    1.638681
     30          1           0        1.016767    0.110316    2.110373
 ---------------------------------------------------------------------
 Rotational constants (GHZ):           1.8439717           1.0304478           0.9371811
 Leave Link  202 at Wed Jul 23 16:40:04 2025, MaxMem=   104857600 cpu:               0.2 elap:               0.0
 (Enter /opt/linux/rocky/8/software/gaussian/16c01_avx2/g16/l301.exe)
 Standard basis: 6-311G(d) (5D, 7F)
 Ernie: Thresh=  0.10000D-02 Tol=  0.10000D-05 Strict=F.
 There are   250 symmetry adapted cartesian basis functions of A   symmetry.
 There are   240 symmetry adapted basis functions of A   symmetry.
   240 basis functions,   420 primitive gaussians,   250 cartesian basis functions
    40 alpha electrons       40 beta electrons
       nuclear repulsion energy       604.7692323635 Hartrees.
 IExCor=  402 DFT=T Ex+Corr=B3LYP ExCW=0 ScaHFX=  0.200000
 ScaDFX=  0.800000  0.720000  1.000000  0.810000 ScalE2=  1.000000  1.000000
 IRadAn=      5 IRanWt=     -1 IRanGd=            0 ICorTp=0 IEmpDi=  4
 NAtoms=   30 NActive=   30 NUniq=   30 SFac= 1.00D+00 NAtFMM=   60 NAOKFM=F Big=F
 Integral buffers will be    131072 words long.
 Raffenetti 2 integral format.
 Two-electron integral symmetry is turned on.
 Leave Link  301 at Wed Jul 23 16:40:04 2025, MaxMem=   104857600 cpu:               1.9 elap:               0.1
 (Enter /opt/linux/rocky/8/software/gaussian/16c01_avx2/g16/l302.exe)
 NPDir=0 NMtPBC=     1 NCelOv=     1 NCel=       1 NClECP=     1 NCelD=      1
         NCelK=      1 NCelE2=     1 NClLst=     1 CellRange=     0.0.
 One-electron integrals computed using PRISM.
 One-electron integral symmetry used in STVInt
 PrsmSu:  requested number of processors reduced to:  29 ShMem   1 Linda.
 NBasis=   240 RedAO= T EigKep=  1.44D-03  NBF=   240
 NBsUse=   240 1.00D-06 EigRej= -1.00D+00 NBFU=   240
 Precomputing XC quadrature grid using
 IXCGrd= 4 IRadAn=           5 IRanWt=          -1 IRanGd=           0 AccXCQ= 0.00D+00.
 Generated NRdTot=       0 NPtTot=           0 NUsed=           0 NTot=          32
 NSgBfM=   250   250   250   250   250 MxSgAt=    30 MxSgA2=    30.
 Leave Link  302 at Wed Jul 23 16:40:05 2025, MaxMem=   104857600 cpu:               5.9 elap:               0.2
 (Enter /opt/linux/rocky/8/software/gaussian/16c01_avx2/g16/l303.exe)
 DipDrv:  MaxL=1.
 Leave Link  303 at Wed Jul 23 16:40:05 2025, MaxMem=   104857600 cpu:               0.6 elap:               0.0
 (Enter /opt/linux/rocky/8/software/gaussian/16c01_avx2/g16/l401.exe)
 ExpMin= 1.03D-01 ExpMax= 4.56D+03 ExpMxC= 6.82D+02 IAcc=3 IRadAn=         5 AccDes= 0.00D+00
 Harris functional with IExCor=  402 and IRadAn=       5 diagonalized for initial guess.
 HarFok:  IExCor=  402 AccDes= 0.00D+00 IRadAn=         5 IDoV= 1 UseB2=F ITyADJ=14
 ICtDFT=  3500011 ScaDFX=  1.000000  1.000000  1.000000  1.000000
 FoFCou: FMM=F IPFlag=           0 FMFlag=      100000 FMFlg1=           0
         NFxFlg=           0 DoJE=T BraDBF=F KetDBF=T FulRan=T
         wScrn=  0.000000 ICntrl=       500 IOpCl=  0 I1Cent=   200000004 NGrid=           0
         NMat0=    1 NMatS0=      1 NMatT0=    0 NMatD0=    1 NMtDS0=    0 NMtDT0=    0
 Petite list used in FoFCou.
 Harris En= -393.320503986253    
 JPrj=0 DoOrth=F DoCkMO=F.
 Leave Link  401 at Wed Jul 23 16:40:07 2025, MaxMem=   104857600 cpu:              12.8 elap:               0.5
 (Enter /opt/linux/rocky/8/software/gaussian/16c01_avx2/g16/l502.exe)
 Integral symmetry usage will be decided dynamically.
 Closed shell SCF:
 Using DIIS extrapolation, IDIIS=  1040.
 NGot=   104857600 LenX=   104719964 LenY=   104657023
 Requested convergence on RMS density matrix=1.00D-08 within 128 cycles.
 Requested convergence on MAX density matrix=1.00D-06.
 Requested convergence on             energy=1.00D-06.
 No special actions if energy rises.
 Fock matrices will be formed incrementally for  20 cycles.
 Integral accuracy reduced to 1.0D-05 until final iterations.

 Cycle   1  Pass 0  IDiag  1:
 FoFJK:  IHMeth= 1 ICntrl=       0 DoSepK=F KAlg= 0 I1Cent=           0 FoldK=F
 IRaf= 960000000 NMat=       1 IRICut=       1 DoRegI=T DoRafI=F ISym2E= 0 IDoP0=0 IntGTp=1.
 FoFCou: FMM=F IPFlag=           0 FMFlag=      100000 FMFlg1=           0
         NFxFlg=           0 DoJE=F BraDBF=F KetDBF=F FulRan=T
         wScrn=  0.000000 ICntrl=         0 IOpCl=  0 I1Cent=           0 NGrid=           0
         NMat0=    1 NMatS0=      1 NMatT0=    0 NMatD0=    1 NMtDS0=    0 NMtDT0=    0
 Symmetry not used in FoFCou.
 E= -392.759801423618    
 DIIS: error= 3.99D-02 at cycle   1 NSaved=   1.
 NSaved= 1 IEnMin= 1 EnMin= -392.759801423618     IErMin= 1 ErrMin= 3.99D-02
 ErrMax= 3.99D-02  0.00D+00 EMaxC= 1.00D-01 BMatC= 4.47D-01 BMatP= 4.47D-01
 IDIUse=3 WtCom= 6.01D-01 WtEn= 3.99D-01
 Coeff-Com:  0.100D+01
 Coeff-En:   0.100D+01
 Coeff:      0.100D+01
 Gap=     0.242 Goal=   None    Shift=    0.000
 GapD=    0.242 DampG=1.000 DampE=0.500 DampFc=0.5000 IDamp=-1.
 Damping current iteration by 5.00D-01
 RMSDP=5.56D-03 MaxDP=1.31D-01              OVMax= 2.13D-01

 Cycle   2  Pass 0  IDiag  1:
 RMSU=  2.70D-03    CP:  9.46D-01
 E= -392.936774877080     Delta-E=       -0.176973453462 Rises=F Damp=T
 DIIS: error= 8.42D-03 at cycle   2 NSaved=   2.
 NSaved= 2 IEnMin= 2 EnMin= -392.936774877080     IErMin= 2 ErrMin= 8.42D-03
 ErrMax= 8.42D-03  0.00D+00 EMaxC= 1.00D-01 BMatC= 2.56D-02 BMatP= 4.47D-01
 IDIUse=3 WtCom= 9.16D-01 WtEn= 8.42D-02
 Coeff-Com:  0.984D-01 0.902D+00
 Coeff-En:   0.214D+00 0.786D+00
 Coeff:      0.108D+00 0.892D+00
 Gap=     0.340 Goal=   None    Shift=    0.000
 RMSDP=1.59D-03 MaxDP=4.32D-02 DE=-1.77D-01 OVMax= 1.36D-01

 Cycle   3  Pass 0  IDiag  1:
 RMSU=  1.21D-03    CP:  9.69D-01  6.32D-01
 E= -393.198940776868     Delta-E=       -0.262165899789 Rises=F Damp=F
 DIIS: error= 9.14D-03 at cycle   3 NSaved=   3.
 NSaved= 3 IEnMin= 3 EnMin= -393.198940776868     IErMin= 2 ErrMin= 8.42D-03
 ErrMax= 9.14D-03  0.00D+00 EMaxC= 1.00D-01 BMatC= 1.09D-02 BMatP= 2.56D-02
 IDIUse=3 WtCom= 9.09D-01 WtEn= 9.14D-02
 Coeff-Com:  0.297D-02 0.374D+00 0.623D+00
 Coeff-En:   0.000D+00 0.000D+00 0.100D+01
 Coeff:      0.270D-02 0.340D+00 0.657D+00
 Gap=     0.318 Goal=   None    Shift=    0.000
 RMSDP=7.05D-04 MaxDP=2.07D-02 DE=-2.62D-01 OVMax= 2.34D-02

 Cycle   4  Pass 0  IDiag  1:
 RMSU=  3.72D-04    CP:  9.61D-01  7.53D-01  5.94D-01
 E= -393.207012808461     Delta-E=       -0.008072031593 Rises=F Damp=F
 DIIS: error= 4.57D-03 at cycle   4 NSaved=   4.
 NSaved= 4 IEnMin= 4 EnMin= -393.207012808461     IErMin= 4 ErrMin= 4.57D-03
 ErrMax= 4.57D-03  0.00D+00 EMaxC= 1.00D-01 BMatC= 2.91D-03 BMatP= 1.09D-02
 IDIUse=3 WtCom= 9.54D-01 WtEn= 4.57D-02
 Coeff-Com: -0.120D-01 0.800D-01 0.361D+00 0.571D+00
 Coeff-En:   0.000D+00 0.000D+00 0.197D+00 0.803D+00
 Coeff:     -0.115D-01 0.763D-01 0.354D+00 0.581D+00
 Gap=     0.324 Goal=   None    Shift=    0.000
 RMSDP=1.94D-04 MaxDP=6.92D-03 DE=-8.07D-03 OVMax= 9.50D-03

 Cycle   5  Pass 0  IDiag  1:
 RMSU=  9.00D-05    CP:  9.62D-01  7.28D-01  6.81D-01  6.86D-01
 E= -393.209647754578     Delta-E=       -0.002634946117 Rises=F Damp=F
 DIIS: error= 4.52D-04 at cycle   5 NSaved=   5.
 NSaved= 5 IEnMin= 5 EnMin= -393.209647754578     IErMin= 5 ErrMin= 4.52D-04
 ErrMax= 4.52D-04  0.00D+00 EMaxC= 1.00D-01 BMatC= 5.58D-05 BMatP= 2.91D-03
 IDIUse=3 WtCom= 9.95D-01 WtEn= 4.52D-03
 Coeff-Com: -0.330D-02 0.615D-02 0.813D-01 0.205D+00 0.711D+00
 Coeff-En:   0.000D+00 0.000D+00 0.000D+00 0.000D+00 0.100D+01
 Coeff:     -0.328D-02 0.612D-02 0.810D-01 0.204D+00 0.712D+00
 Gap=     0.323 Goal=   None    Shift=    0.000
 RMSDP=2.69D-05 MaxDP=9.94D-04 DE=-2.63D-03 OVMax= 1.19D-03

 Cycle   6  Pass 0  IDiag  1:
 RMSU=  1.61D-05    CP:  9.62D-01  7.30D-01  6.86D-01  7.06D-01  7.88D-01
 E= -393.209696884341     Delta-E=       -0.000049129763 Rises=F Damp=F
 DIIS: error= 8.36D-05 at cycle   6 NSaved=   6.
 NSaved= 6 IEnMin= 6 EnMin= -393.209696884341     IErMin= 6 ErrMin= 8.36D-05
 ErrMax= 8.36D-05  0.00D+00 EMaxC= 1.00D-01 BMatC= 2.18D-06 BMatP= 5.58D-05
 IDIUse=1 WtCom= 1.00D+00 WtEn= 0.00D+00
 Coeff-Com: -0.832D-03 0.175D-03 0.245D-01 0.702D-01 0.296D+00 0.610D+00
 Coeff:     -0.832D-03 0.175D-03 0.245D-01 0.702D-01 0.296D+00 0.610D+00
 Gap=     0.323 Goal=   None    Shift=    0.000
 RMSDP=6.11D-06 MaxDP=2.99D-04 DE=-4.91D-05 OVMax= 3.12D-04

 Initial convergence to 1.0D-05 achieved.  Increase integral accuracy.
 Cycle   7  Pass 1  IDiag  1:
 E= -393.209710612218     Delta-E=       -0.000013727877 Rises=F Damp=F
 DIIS: error= 2.56D-05 at cycle   1 NSaved=   1.
 NSaved= 1 IEnMin= 1 EnMin= -393.209710612218     IErMin= 1 ErrMin= 2.56D-05
 ErrMax= 2.56D-05  0.00D+00 EMaxC= 1.00D-01 BMatC= 2.48D-07 BMatP= 2.48D-07
 IDIUse=1 WtCom= 1.00D+00 WtEn= 0.00D+00
 Coeff-Com:  0.100D+01
 Coeff:      0.100D+01
 Gap=     0.323 Goal=   None    Shift=    0.000
 RMSDP=6.11D-06 MaxDP=2.99D-04 DE=-1.37D-05 OVMax= 1.68D-04

 Cycle   8  Pass 1  IDiag  1:
 RMSU=  4.62D-06    CP:  1.00D+00
 E= -393.209710491006     Delta-E=        0.000000121213 Rises=F Damp=F
 DIIS: error= 3.34D-05 at cycle   2 NSaved=   2.
 NSaved= 2 IEnMin= 1 EnMin= -393.209710612218     IErMin= 1 ErrMin= 2.56D-05
 ErrMax= 3.34D-05  0.00D+00 EMaxC= 1.00D-01 BMatC= 3.85D-07 BMatP= 2.48D-07
 IDIUse=1 WtCom= 1.00D+00 WtEn= 0.00D+00
 Coeff-Com:  0.557D+00 0.443D+00
 Coeff:      0.557D+00 0.443D+00
 Gap=     0.323 Goal=   None    Shift=    0.000
 RMSDP=2.01D-06 MaxDP=7.74D-05 DE= 1.21D-07 OVMax= 1.00D-04

 Cycle   9  Pass 1  IDiag  1:
 RMSU=  1.26D-06    CP:  1.00D+00  6.61D-01
 E= -393.209710851106     Delta-E=       -0.000000360100 Rises=F Damp=F
 DIIS: error= 1.74D-06 at cycle   3 NSaved=   3.
 NSaved= 3 IEnMin= 3 EnMin= -393.209710851106     IErMin= 3 ErrMin= 1.74D-06
 ErrMax= 1.74D-06  0.00D+00 EMaxC= 1.00D-01 BMatC= 1.16D-09 BMatP= 2.48D-07
 IDIUse=1 WtCom= 1.00D+00 WtEn= 0.00D+00
 Coeff-Com:  0.601D-01 0.764D-01 0.864D+00
 Coeff:      0.601D-01 0.764D-01 0.864D+00
 Gap=     0.323 Goal=   None    Shift=    0.000
 RMSDP=2.04D-07 MaxDP=7.75D-06 DE=-3.60D-07 OVMax= 8.05D-06

 Cycle  10  Pass 1  IDiag  1:
 RMSU=  1.83D-07    CP:  1.00D+00  6.79D-01  9.84D-01
 E= -393.209710851969     Delta-E=       -0.000000000863 Rises=F Damp=F
 DIIS: error= 1.10D-06 at cycle   4 NSaved=   4.
 NSaved= 4 IEnMin= 4 EnMin= -393.209710851969     IErMin= 4 ErrMin= 1.10D-06
 ErrMax= 1.10D-06  0.00D+00 EMaxC= 1.00D-01 BMatC= 2.97D-10 BMatP= 1.16D-09
 IDIUse=1 WtCom= 1.00D+00 WtEn= 0.00D+00
 Coeff-Com: -0.673D-04 0.123D-01 0.385D+00 0.603D+00
 Coeff:     -0.673D-04 0.123D-01 0.385D+00 0.603D+00
 Gap=     0.323 Goal=   None    Shift=    0.000
 RMSDP=7.09D-08 MaxDP=4.26D-06 DE=-8.63D-10 OVMax= 3.57D-06

 Cycle  11  Pass 1  IDiag  1:
 RMSU=  3.62D-08    CP:  1.00D+00  6.81D-01  1.00D+00  6.98D-01
 E= -393.209710852242     Delta-E=       -0.000000000273 Rises=F Damp=F
 DIIS: error= 2.32D-07 at cycle   5 NSaved=   5.
 NSaved= 5 IEnMin= 5 EnMin= -393.209710852242     IErMin= 5 ErrMin= 2.32D-07
 ErrMax= 2.32D-07  0.00D+00 EMaxC= 1.00D-01 BMatC= 1.91D-11 BMatP= 2.97D-10
 IDIUse=1 WtCom= 1.00D+00 WtEn= 0.00D+00
 Coeff-Com: -0.371D-02 0.137D-02 0.134D+00 0.284D+00 0.584D+00
 Coeff:     -0.371D-02 0.137D-02 0.134D+00 0.284D+00 0.584D+00
 Gap=     0.323 Goal=   None    Shift=    0.000
 RMSDP=1.57D-08 MaxDP=7.10D-07 DE=-2.73D-10 OVMax= 7.24D-07

 Cycle  12  Pass 1  IDiag  1:
 RMSU=  9.87D-09    CP:  1.00D+00  6.82D-01  1.00D+00  6.93D-01  6.77D-01
 E= -393.209710852259     Delta-E=       -0.000000000017 Rises=F Damp=F
 DIIS: error= 2.27D-08 at cycle   6 NSaved=   6.
 NSaved= 6 IEnMin= 6 EnMin= -393.209710852259     IErMin= 6 ErrMin= 2.27D-08
 ErrMax= 2.27D-08  0.00D+00 EMaxC= 1.00D-01 BMatC= 1.90D-13 BMatP= 1.91D-11
 IDIUse=1 WtCom= 1.00D+00 WtEn= 0.00D+00
 Coeff-Com: -0.802D-03 0.243D-04 0.183D-01 0.460D-01 0.144D+00 0.793D+00
 Coeff:     -0.802D-03 0.243D-04 0.183D-01 0.460D-01 0.144D+00 0.793D+00
 Gap=     0.323 Goal=   None    Shift=    0.000
 RMSDP=2.54D-09 MaxDP=9.99D-08 DE=-1.72D-11 OVMax= 9.58D-08

 SCF Done:  E(RB3LYP) =  -393.209710852     A.U. after   12 cycles
            NFock= 12  Conv=0.25D-08     -V/T= 2.0048
 KE= 3.913416508682D+02 PE=-2.119418613016D+03 EE= 7.300980189323D+02
 Leave Link  502 at Wed Jul 23 16:40:12 2025, MaxMem=   104857600 cpu:             169.8 elap:               4.8
 (Enter /opt/linux/rocky/8/software/gaussian/16c01_avx2/g16/l601.exe)
 Copying SCF densities to generalized density rwf, IOpCl= 0 IROHF=0.

 **********************************************************************

            Population analysis using the SCF Density.

 **********************************************************************

 Orbital symmetries:
       Occupied  (A) (A) (A) (A) (A) (A) (A) (A) (A) (A) (A) (A)
                 (A) (A) (A) (A) (A) (A) (A) (A) (A) (A) (A) (A)
                 (A) (A) (A) (A) (A) (A) (A) (A) (A) (A) (A) (A)
                 (A) (A) (A) (A)
       Virtual   (A) (A) (A) (A) (A) (A) (A) (A) (A) (A) (A) (A)
                 (A) (A) (A) (A) (A) (A) (A) (A) (A) (A) (A) (A)
                 (A) (A) (A) (A) (A) (A) (A) (A) (A) (A) (A) (A)
                 (A) (A) (A) (A) (A) (A) (A) (A) (A) (A) (A) (A)
                 (A) (A) (A) (A) (A) (A) (A) (A) (A) (A) (A) (A)
                 (A) (A) (A) (A) (A) (A) (A) (A) (A) (A) (A) (A)
                 (A) (A) (A) (A) (A) (A) (A) (A) (A) (A) (A) (A)
                 (A) (A) (A) (A) (A) (A) (A) (A) (A) (A) (A) (A)
                 (A) (A) (A) (A) (A) (A) (A) (A) (A) (A) (A) (A)
                 (A) (A) (A) (A) (A) (A) (A) (A) (A) (A) (A) (A)
                 (A) (A) (A) (A) (A) (A) (A) (A) (A) (A) (A) (A)
                 (A) (A) (A) (A) (A) (A) (A) (A) (A) (A) (A) (A)
                 (A) (A) (A) (A) (A) (A) (A) (A) (A) (A) (A) (A)
                 (A) (A) (A) (A) (A) (A) (A) (A) (A) (A) (A) (A)
                 (A) (A) (A) (A) (A) (A) (A) (A) (A) (A) (A) (A)
                 (A) (A) (A) (A) (A) (A) (A) (A) (A) (A) (A) (A)
                 (A) (A) (A) (A) (A) (A) (A) (A)
 The electronic state is 1-A.
 Alpha  occ. eigenvalues --  -10.17840 -10.17838 -10.15994 -10.15875 -10.15872
 Alpha  occ. eigenvalues --  -10.15805 -10.15239 -10.15239 -10.15192 -10.15192
 Alpha  occ. eigenvalues --   -0.84626  -0.79586  -0.75821  -0.69039  -0.67825
 Alpha  occ. eigenvalues --   -0.67610  -0.67205  -0.59915  -0.55139  -0.51660
 Alpha  occ. eigenvalues --   -0.47353  -0.45407  -0.45116  -0.44074  -0.43388
 Alpha  occ. eigenvalues --   -0.41532  -0.41072  -0.39378  -0.38215  -0.38027
 Alpha  occ. eigenvalues --   -0.36519  -0.36428  -0.35801  -0.34256  -0.33309
 Alpha  occ. eigenvalues --   -0.33183  -0.32342  -0.30766  -0.29218  -0.29067
 Alpha virt. eigenvalues --    0.03219   0.05966   0.06390   0.06842   0.08014
 Alpha virt. eigenvalues --    0.08383   0.09234   0.10299   0.10889   0.11530
 Alpha virt. eigenvalues --    0.11884   0.12547   0.13112   0.14846   0.15491
 Alpha virt. eigenvalues --    0.15517   0.15821   0.17292   0.17979   0.18508
 Alpha virt. eigenvalues --    0.18912   0.19429   0.21245   0.22350   0.22788
 Alpha virt. eigenvalues --    0.23491   0.23737   0.25738   0.26397   0.26608
 Alpha virt. eigenvalues --    0.29344   0.30762   0.31071   0.34199   0.34531
 Alpha virt. eigenvalues --    0.35527   0.37380   0.38006   0.40174   0.40274
 Alpha virt. eigenvalues --    0.45413   0.46876   0.47147   0.48139   0.49109
 Alpha virt. eigenvalues --    0.49987   0.50033   0.51249   0.53104   0.53800
 Alpha virt. eigenvalues --    0.54838   0.56621   0.56919   0.57443   0.58129
 Alpha virt. eigenvalues --    0.58783   0.59336   0.60249   0.61219   0.61436
 Alpha virt. eigenvalues --    0.61909   0.62167   0.62868   0.63760   0.63970
 Alpha virt. eigenvalues --    0.65412   0.65875   0.66112   0.66181   0.67578
 Alpha virt. eigenvalues --    0.67793   0.68614   0.69822   0.69959   0.71558
 Alpha virt. eigenvalues --    0.71781   0.73880   0.77445   0.78340   0.86649
 Alpha virt. eigenvalues --    0.88359   0.97656   0.98394   1.01937   1.02782
 Alpha virt. eigenvalues --    1.06216   1.10853   1.10992   1.16020   1.17144
 Alpha virt. eigenvalues --    1.20402   1.21911   1.27547   1.27621   1.35011
 Alpha virt. eigenvalues --    1.38175   1.42914   1.46577   1.48373   1.50548
 Alpha virt. eigenvalues --    1.50842   1.52328   1.52353   1.53708   1.53984
 Alpha virt. eigenvalues --    1.54870   1.55293   1.57597   1.58214   1.60410
 Alpha virt. eigenvalues --    1.61362   1.61781   1.62403   1.62443   1.63820
 Alpha virt. eigenvalues --    1.64711   1.66502   1.68478   1.68746   1.70269
 Alpha virt. eigenvalues --    1.71526   1.73475   1.78759   1.79297   1.81721
 Alpha virt. eigenvalues --    1.82395   1.87266   1.93397   1.94513   2.00712
 Alpha virt. eigenvalues --    2.02128   2.03800   2.06572   2.10523   2.12179
 Alpha virt. eigenvalues --    2.15623   2.17490   2.22556   2.22596   2.27251
 Alpha virt. eigenvalues --    2.30401   2.34230   2.37947   2.39599   2.41000
 Alpha virt. eigenvalues --    2.42842   2.44634   2.48326   2.49633   2.50194
 Alpha virt. eigenvalues --    2.51816   2.52392   2.54536   2.55230   2.56414
 Alpha virt. eigenvalues --    2.60701   2.61334   2.65182   2.67364   2.74226
 Alpha virt. eigenvalues --    2.83643   2.91098   2.93403   2.99002   2.99275
 Alpha virt. eigenvalues --    3.02057   3.03971   3.06992   3.15323   3.19663
 Alpha virt. eigenvalues --    3.20426   3.22605   3.22960   3.24780   3.25086
 Alpha virt. eigenvalues --    3.28763   3.31100   3.33100   3.36085   3.38381
 Alpha virt. eigenvalues --    3.38954   3.45516   3.74799   3.93886   3.94910
 Alpha virt. eigenvalues --    4.03367   4.03778   4.13890   4.14780   4.23532
 Alpha virt. eigenvalues --   23.33315  23.48530  23.57305  23.61886  23.62871
 Alpha virt. eigenvalues --   23.70765  23.74530  23.76275  23.82224  23.84561
          Condensed to atoms (all electrons):
               1          2          3          4          5          6
     1  C    5.077760   0.343992  -0.033014  -0.006274  -0.055532   0.357769
     2  C    0.343992   5.460740   0.343993  -0.088129  -0.005680  -0.088129
     3  C   -0.033014   0.343993   5.077760   0.357769  -0.055532  -0.006274
     4  C   -0.006274  -0.088129   0.357769   5.346760   0.323844  -0.070312
     5  C   -0.055532  -0.005680  -0.055532   0.323844   5.219825   0.323844
     6  C    0.357769  -0.088129  -0.006274  -0.070312   0.323844   5.346761
     7  H   -0.045697   0.395668  -0.045697  -0.004693   0.000916  -0.004693
     8  H   -0.034071   0.382124  -0.034071   0.008781  -0.000879   0.008781
     9  H    0.000439  -0.005790  -0.044055   0.393161  -0.045154  -0.005196
    10  H   -0.000484   0.009159  -0.036910   0.395878  -0.038038   0.007875
    11  H    0.007484  -0.000957   0.007484  -0.039827   0.407932  -0.039827
    12  H   -0.006488  -0.000072  -0.006488  -0.047448   0.402427  -0.047448
    13  H   -0.044055  -0.005790   0.000439  -0.005196  -0.045154   0.393162
    14  H   -0.036909   0.009159  -0.000483   0.007875  -0.038038   0.395878
    15  C    0.006760  -0.096275   0.387176  -0.091491   0.007994  -0.000928
    16  H    0.000049  -0.008143  -0.034505   0.010076  -0.000434   0.000024
    17  H   -0.000378   0.010485  -0.034077  -0.007565  -0.000014   0.000032
    18  H    0.000067  -0.008974  -0.031330  -0.008415  -0.000039   0.000159
    19  C    0.000256  -0.084514   0.351682  -0.095773  -0.001607   0.000238
    20  H   -0.000412   0.009283  -0.034351  -0.007056   0.000167   0.000017
    21  H    0.000333  -0.008856  -0.034427   0.009468  -0.000423   0.000016
    22  H    0.001139  -0.003859  -0.031262  -0.006575   0.001246  -0.000255
    23  C    0.387176  -0.096275   0.006760  -0.000928   0.007994  -0.091492
    24  H   -0.034077   0.010485  -0.000378   0.000032  -0.000014  -0.007565
    25  H   -0.034505  -0.008143   0.000049   0.000024  -0.000434   0.010076
    26  H   -0.031330  -0.008974   0.000067   0.000159  -0.000039  -0.008415
    27  C    0.351684  -0.084515   0.000256   0.000238  -0.001607  -0.095773
    28  H   -0.034427  -0.008856   0.000333   0.000016  -0.000423   0.009468
    29  H   -0.034350   0.009283  -0.000412   0.000017   0.000167  -0.007056
    30  H   -0.031261  -0.003859   0.001138  -0.000254   0.001246  -0.006574
               7          8          9         10         11         12
     1  C   -0.045697  -0.034071   0.000439  -0.000484   0.007484  -0.006488
     2  C    0.395668   0.382124  -0.005790   0.009159  -0.000957  -0.000072
     3  C   -0.045697  -0.034071  -0.044055  -0.036910   0.007484  -0.006488
     4  C   -0.004693   0.008781   0.393161   0.395878  -0.039827  -0.047448
     5  C    0.000916  -0.000879  -0.045154  -0.038038   0.407932   0.402427
     6  C   -0.004693   0.008781  -0.005196   0.007875  -0.039827  -0.047448
     7  H    0.529356  -0.033111   0.003135  -0.000340  -0.000123   0.000165
     8  H   -0.033111   0.517894  -0.000383  -0.000393   0.000113  -0.000269
     9  H    0.003135  -0.000383   0.530237  -0.034242  -0.006691   0.008791
    10  H   -0.000340  -0.000393  -0.034242   0.512873  -0.004235  -0.005557
    11  H   -0.000123   0.000113  -0.006691  -0.004235   0.510492  -0.036333
    12  H    0.000165  -0.000269   0.008791  -0.005557  -0.036333   0.529324
    13  H    0.003135  -0.000383   0.005457  -0.000191  -0.006691   0.008791
    14  H   -0.000340  -0.000393  -0.000191  -0.000349  -0.004235  -0.005557
    15  C   -0.011330  -0.003699  -0.009114  -0.003936  -0.000339  -0.000276
    16  H   -0.000167   0.003885   0.000166  -0.000369   0.000025   0.000017
    17  H    0.000357  -0.000349  -0.000221   0.003881  -0.000023   0.000003
    18  H    0.004864  -0.000105   0.004634  -0.000219  -0.000020  -0.000001
    19  C    0.009534  -0.009579   0.009919  -0.009430  -0.000205   0.002718
    20  H   -0.000439  -0.000013  -0.000110   0.004164  -0.000074   0.000308
    21  H    0.000109   0.004514  -0.000412  -0.000027   0.000035  -0.000116
    22  H   -0.000379  -0.000006  -0.000147  -0.000126  -0.000025   0.000417
    23  C   -0.011330  -0.003699  -0.000325   0.000081  -0.000339  -0.000276
    24  H    0.000357  -0.000349   0.000005  -0.000003  -0.000023   0.000003
    25  H   -0.000167   0.003885   0.000010  -0.000003   0.000025   0.000017
    26  H    0.004864  -0.000105   0.000007  -0.000004  -0.000020  -0.000001
    27  C    0.009534  -0.009579   0.000165  -0.000118  -0.000205   0.002718
    28  H    0.000109   0.004514   0.000006  -0.000003   0.000035  -0.000116
    29  H   -0.000439  -0.000013   0.000008  -0.000002  -0.000074   0.000309
    30  H   -0.000379  -0.000006  -0.000042   0.000032  -0.000025   0.000416
              13         14         15         16         17         18
     1  C   -0.044055  -0.036909   0.006760   0.000049  -0.000378   0.000067
     2  C   -0.005790   0.009159  -0.096275  -0.008143   0.010485  -0.008974
     3  C    0.000439  -0.000483   0.387176  -0.034505  -0.034077  -0.031330
     4  C   -0.005196   0.007875  -0.091491   0.010076  -0.007565  -0.008415
     5  C   -0.045154  -0.038038   0.007994  -0.000434  -0.000014  -0.000039
     6  C    0.393162   0.395878  -0.000928   0.000024   0.000032   0.000159
     7  H    0.003135  -0.000340  -0.011330  -0.000167   0.000357   0.004864
     8  H   -0.000383  -0.000393  -0.003699   0.003885  -0.000349  -0.000105
     9  H    0.005457  -0.000191  -0.009114   0.000166  -0.000221   0.004634
    10  H   -0.000191  -0.000349  -0.003936  -0.000369   0.003881  -0.000219
    11  H   -0.006691  -0.004235  -0.000339   0.000025  -0.000023  -0.000020
    12  H    0.008791  -0.005557  -0.000276   0.000017   0.000003  -0.000001
    13  H    0.530237  -0.034242  -0.000325   0.000010   0.000005   0.000007
    14  H   -0.034242   0.512873   0.000081  -0.000003  -0.000003  -0.000004
    15  C   -0.000325   0.000081   5.363130   0.385087   0.384217   0.382280
    16  H    0.000010  -0.000003   0.385087   0.505319  -0.030936  -0.030034
    17  H    0.000005  -0.000003   0.384217  -0.030936   0.505108  -0.029403
    18  H    0.000007  -0.000004   0.382280  -0.030034  -0.029403   0.505026
    19  C    0.000165  -0.000118  -0.101096  -0.006905  -0.007781   0.009940
    20  H    0.000008  -0.000002  -0.010101  -0.000396   0.004229   0.000160
    21  H    0.000006  -0.000003  -0.005870   0.003587  -0.000303  -0.000177
    22  H   -0.000042   0.000032   0.008848  -0.000125  -0.000069  -0.000438
    23  C   -0.009114  -0.003936  -0.000384  -0.000033   0.000019  -0.000046
    24  H   -0.000221   0.003881   0.000019  -0.000000  -0.000001   0.000001
    25  H    0.000166  -0.000369  -0.000033   0.000005  -0.000000   0.000004
    26  H    0.004634  -0.000219  -0.000046   0.000004   0.000001  -0.000026
    27  C    0.009919  -0.009430  -0.000488   0.000007   0.000020   0.000005
    28  H   -0.000412  -0.000027  -0.000064  -0.000008   0.000003   0.000002
    29  H   -0.000110   0.004165   0.000029  -0.000000  -0.000001  -0.000000
    30  H   -0.000147  -0.000126  -0.000024   0.000009   0.000007  -0.000010
              19         20         21         22         23         24
     1  C    0.000256  -0.000412   0.000333   0.001139   0.387176  -0.034077
     2  C   -0.084514   0.009283  -0.008856  -0.003859  -0.096275   0.010485
     3  C    0.351682  -0.034351  -0.034427  -0.031262   0.006760  -0.000378
     4  C   -0.095773  -0.007056   0.009468  -0.006575  -0.000928   0.000032
     5  C   -0.001607   0.000167  -0.000423   0.001246   0.007994  -0.000014
     6  C    0.000238   0.000017   0.000016  -0.000255  -0.091492  -0.007565
     7  H    0.009534  -0.000439   0.000109  -0.000379  -0.011330   0.000357
     8  H   -0.009579  -0.000013   0.004514  -0.000006  -0.003699  -0.000349
     9  H    0.009919  -0.000110  -0.000412  -0.000147  -0.000325   0.000005
    10  H   -0.009430   0.004164  -0.000027  -0.000126   0.000081  -0.000003
    11  H   -0.000205  -0.000074   0.000035  -0.000025  -0.000339  -0.000023
    12  H    0.002718   0.000308  -0.000116   0.000417  -0.000276   0.000003
    13  H    0.000165   0.000008   0.000006  -0.000042  -0.009114  -0.000221
    14  H   -0.000118  -0.000002  -0.000003   0.000032  -0.003936   0.003881
    15  C   -0.101096  -0.010101  -0.005870   0.008848  -0.000384   0.000019
    16  H   -0.006905  -0.000396   0.003587  -0.000125  -0.000033  -0.000000
    17  H   -0.007781   0.004229  -0.000303  -0.000069   0.000019  -0.000001
    18  H    0.009940   0.000160  -0.000177  -0.000438  -0.000046   0.000001
    19  C    5.387318   0.385492   0.385662   0.383337  -0.000488   0.000020
    20  H    0.385492   0.506965  -0.030280  -0.031365   0.000029  -0.000001
    21  H    0.385662  -0.030280   0.503780  -0.030319  -0.000064   0.000003
    22  H    0.383337  -0.031365  -0.030319   0.501583  -0.000024   0.000007
    23  C   -0.000488   0.000029  -0.000064  -0.000024   5.363131   0.384217
    24  H    0.000020  -0.000001   0.000003   0.000007   0.384217   0.505108
    25  H    0.000007  -0.000000  -0.000008   0.000009   0.385087  -0.030936
    26  H    0.000005  -0.000000   0.000002  -0.000010   0.382280  -0.029403
    27  C   -0.007951   0.000380   0.000189  -0.004966  -0.101097  -0.007781
    28  H    0.000189  -0.000034   0.000180  -0.000130  -0.005871  -0.000303
    29  H    0.000380  -0.000020  -0.000034   0.000429  -0.010100   0.004229
    30  H   -0.004965   0.000429  -0.000130   0.005079   0.008848  -0.000069
              25         26         27         28         29         30
     1  C   -0.034505  -0.031330   0.351684  -0.034427  -0.034350  -0.031261
     2  C   -0.008143  -0.008974  -0.084515  -0.008856   0.009283  -0.003859
     3  C    0.000049   0.000067   0.000256   0.000333  -0.000412   0.001138
     4  C    0.000024   0.000159   0.000238   0.000016   0.000017  -0.000254
     5  C   -0.000434  -0.000039  -0.001607  -0.000423   0.000167   0.001246
     6  C    0.010076  -0.008415  -0.095773   0.009468  -0.007056  -0.006574
     7  H   -0.000167   0.004864   0.009534   0.000109  -0.000439  -0.000379
     8  H    0.003885  -0.000105  -0.009579   0.004514  -0.000013  -0.000006
     9  H    0.000010   0.000007   0.000165   0.000006   0.000008  -0.000042
    10  H   -0.000003  -0.000004  -0.000118  -0.000003  -0.000002   0.000032
    11  H    0.000025  -0.000020  -0.000205   0.000035  -0.000074  -0.000025
    12  H    0.000017  -0.000001   0.002718  -0.000116   0.000309   0.000416
    13  H    0.000166   0.004634   0.009919  -0.000412  -0.000110  -0.000147
    14  H   -0.000369  -0.000219  -0.009430  -0.000027   0.004165  -0.000126
    15  C   -0.000033  -0.000046  -0.000488  -0.000064   0.000029  -0.000024
    16  H    0.000005   0.000004   0.000007  -0.000008  -0.000000   0.000009
    17  H   -0.000000   0.000001   0.000020   0.000003  -0.000001   0.000007
    18  H    0.000004  -0.000026   0.000005   0.000002  -0.000000  -0.000010
    19  C    0.000007   0.000005  -0.007951   0.000189   0.000380  -0.004965
    20  H   -0.000000  -0.000000   0.000380  -0.000034  -0.000020   0.000429
    21  H   -0.000008   0.000002   0.000189   0.000180  -0.000034  -0.000130
    22  H    0.000009  -0.000010  -0.004966  -0.000130   0.000429   0.005079
    23  C    0.385087   0.382280  -0.101097  -0.005871  -0.010100   0.008848
    24  H   -0.030936  -0.029403  -0.007781  -0.000303   0.004229  -0.000069
    25  H    0.505319  -0.030034  -0.006905   0.003587  -0.000396  -0.000125
    26  H   -0.030034   0.505025   0.009940  -0.000177   0.000160  -0.000438
    27  C   -0.006905   0.009940   5.387316   0.385662   0.385492   0.383336
    28  H    0.003587  -0.000177   0.385662   0.503781  -0.030280  -0.030319
    29  H   -0.000396   0.000160   0.385492  -0.030280   0.506965  -0.031365
    30  H   -0.000125  -0.000438   0.383336  -0.030319  -0.031365   0.501582
 Mulliken charges:
               1
     1  C   -0.071644
     2  C   -0.368581
     3  C   -0.071642
     4  C   -0.374163
     5  C   -0.408556
     6  C   -0.374163
     7  H    0.197219
     8  H    0.196965
     9  H    0.195930
    10  H    0.201037
    11  H    0.206670
    12  H    0.200022
    13  H    0.195930
    14  H    0.201037
    15  C   -0.589802
    16  H    0.203792
    17  H    0.202757
    18  H    0.202092
    19  C   -0.596450
    20  H    0.203022
    21  H    0.203564
    22  H    0.207993
    23  C   -0.589802
    24  H    0.202757
    25  H    0.203791
    26  H    0.202092
    27  C   -0.596447
    28  H    0.203563
    29  H    0.203022
    30  H    0.207994
 Sum of Mulliken charges =  -0.00000
 Mulliken charges with hydrogens summed into heavy atoms:
               1
     1  C   -0.071644
     2  C    0.025603
     3  C   -0.071642
     4  C    0.022805
     5  C   -0.001864
     6  C    0.022804
    15  C    0.018838
    19  C    0.018130
    23  C    0.018839
    27  C    0.018131
 Electronic spatial extent (au):  <R**2>=           1602.3576
 Charge=             -0.0000 electrons
 Dipole moment (field-independent basis, Debye):
    X=             -0.0000    Y=              0.1266    Z=             -0.0196  Tot=              0.1281
 Quadrupole moment (field-independent basis, Debye-Ang):
   XX=            -68.8562   YY=            -67.8791   ZZ=            -68.3882
   XY=              0.0000   XZ=             -0.0000   YZ=             -0.2250
 Traceless Quadrupole moment (field-independent basis, Debye-Ang):
   XX=             -0.4817   YY=              0.4954   ZZ=             -0.0137
   XY=              0.0000   XZ=             -0.0000   YZ=             -0.2250
 Octapole moment (field-independent basis, Debye-Ang**2):
  XXX=             -0.0001  YYY=             -1.5519  ZZZ=             -3.9042  XYY=              0.0001
  XXY=              3.7440  XXZ=              2.6493  XZZ=             -0.0000  YZZ=              1.8252
  YYZ=              1.6210  XYZ=              0.0000
 Hexadecapole moment (field-independent basis, Debye-Ang**3):
 XXXX=          -1245.8940 YYYY=           -579.6050 ZZZZ=           -457.6032 XXXY=              0.0001
 XXXZ=             -0.0001 YYYX=             -0.0001 YYYZ=             -7.6864 ZZZX=             -0.0001
 ZZZY=              2.2667 XXYY=           -309.9297 XXZZ=           -295.0693 YYZZ=           -176.8253
 XXYZ=              0.2646 YYXZ=              0.0001 ZZXY=              0.0000
 N-N= 6.047692323635D+02 E-N=-2.119418614189D+03  KE= 3.913416508682D+02
 No NMR shielding tensors so no spin-rotation constants.
 Leave Link  601 at Wed Jul 23 16:40:13 2025, MaxMem=   104857600 cpu:               3.5 elap:               0.1
 (Enter /opt/linux/rocky/8/software/gaussian/16c01_avx2/g16/l701.exe)
 ... and contract with generalized density number  0.
 Compute integral first derivatives.
 PrsmSu:  requested number of processors reduced to:  29 ShMem   1 Linda.
 Leave Link  701 at Wed Jul 23 16:40:13 2025, MaxMem=   104857600 cpu:               3.9 elap:               0.1
 (Enter /opt/linux/rocky/8/software/gaussian/16c01_avx2/g16/l702.exe)
 L702 exits ... SP integral derivatives will be done elsewhere.
 Leave Link  702 at Wed Jul 23 16:40:14 2025, MaxMem=   104857600 cpu:               0.2 elap:               0.0
 (Enter /opt/linux/rocky/8/software/gaussian/16c01_avx2/g16/l703.exe)
 Integral derivatives from FoFJK, PRISM(SPDF).
 Compute integral first derivatives, UseDBF=F ICtDFT=           0.
 Calling FoFJK, ICntrl=      2127 FMM=F ISym2X=0 I1Cent= 0 IOpClX= 0 NMat=1 NMatS=1 NMatT=0.
 FoFJK:  IHMeth= 1 ICntrl=    2127 DoSepK=F KAlg= 0 I1Cent=           0 FoldK=F
 IRaf=         0 NMat=       1 IRICut=       1 DoRegI=T DoRafI=F ISym2E= 0 IDoP0=0 IntGTp=1.
 FoFCou: FMM=F IPFlag=           0 FMFlag=      100000 FMFlg1=         800
         NFxFlg=           0 DoJE=F BraDBF=F KetDBF=F FulRan=T
         wScrn=  0.000000 ICntrl=      2127 IOpCl=  0 I1Cent=           0 NGrid=           0
         NMat0=    1 NMatS0=      1 NMatT0=    0 NMatD0=    1 NMtDS0=    0 NMtDT0=    0
 Symmetry not used in FoFCou.
 Leave Link  703 at Wed Jul 23 16:40:15 2025, MaxMem=   104857600 cpu:              42.9 elap:               1.2
 (Enter /opt/linux/rocky/8/software/gaussian/16c01_avx2/g16/l716.exe)
 Dipole        =-1.86341747D-06 4.98037627D-02-7.70936964D-03
 ***** Axes restored to original set *****
 -------------------------------------------------------------------
 Center     Atomic                   Forces (Hartrees/Bohr)
 Number     Number              X              Y              Z
 -------------------------------------------------------------------
      1        6          -0.000000309    0.000000288   -0.000002829
      2        6           0.000000278    0.000010924    0.000006497
      3        6           0.000000337    0.000000052   -0.000003652
      4        6           0.000004307   -0.000004280    0.000003970
      5        6           0.000000485   -0.000008957   -0.000001548
      6        6          -0.000005108   -0.000003807    0.000004075
      7        1          -0.000000099   -0.000002506   -0.000010059
      8        1          -0.000000004   -0.000008809    0.000003309
      9        1          -0.000003680    0.000003935   -0.000007608
     10        1          -0.000006715    0.000002827    0.000005739
     11        1           0.000000018    0.000006706   -0.000005212
     12        1          -0.000000006    0.000006560    0.000007432
     13        1           0.000003738    0.000003889   -0.000007565
     14        1           0.000006704    0.000002744    0.000005712
     15        6           0.000006181    0.000002388    0.000003602
     16        1          -0.000000891   -0.000009781    0.000001217
     17        1          -0.000009299    0.000003954    0.000001895
     18        1           0.000001304    0.000001392   -0.000011563
     19        6           0.000000141   -0.000000538   -0.000009392
     20        1          -0.000009560    0.000004421    0.000002822
     21        1          -0.000001848   -0.000011216    0.000002507
     22        1           0.000008645    0.000004701    0.000010159
     23        6          -0.000005843    0.000001769    0.000003539
     24        1           0.000009420    0.000004140    0.000001998
     25        1           0.000000788   -0.000009617    0.000001134
     26        1          -0.000001364    0.000001431   -0.000011724
     27        6          -0.000000394   -0.000001210   -0.000010198
     28        1           0.000001722   -0.000010720    0.000002497
     29        1           0.000009819    0.000004338    0.000002799
     30        1          -0.000008765    0.000004983    0.000010445
 -------------------------------------------------------------------
 Cartesian Forces:  Max     0.000011724 RMS     0.000005760
 Leave Link  716 at Wed Jul 23 16:40:16 2025, MaxMem=   104857600 cpu:               0.4 elap:               0.0
 (Enter /opt/linux/rocky/8/software/gaussian/16c01_avx2/g16/l103.exe)

 GradGradGradGradGradGradGradGradGradGradGradGradGradGradGradGradGradGrad
 Berny optimization.
 FormGI is forming the generalized inverse of G from B-inverse, IUseBI=4.
 Internal  Forces:  Max     0.000014524 RMS     0.000003784
 Search for a local minimum.
 Step number   1 out of a maximum of  180
 All quantities printed in internal units (Hartrees-Bohrs-Radians)
 RMS Force = .37842D-05 SwitMx=.10000D-02 MixMth= 2
 Mixed Optimization -- En-DIIS/RFO-DIIS
 Second derivative matrix not updated -- first step.
 ITU=  0
     Eigenvalues ---    0.00230   0.00230   0.00230   0.00230   0.00385
     Eigenvalues ---    0.00410   0.00553   0.01764   0.02060   0.03191
     Eigenvalues ---    0.03876   0.04202   0.04515   0.04610   0.04612
     Eigenvalues ---    0.04844   0.04946   0.04948   0.05158   0.05158
     Eigenvalues ---    0.05360   0.05360   0.05404   0.05404   0.05446
     Eigenvalues ---    0.05490   0.05490   0.06019   0.06466   0.06783
     Eigenvalues ---    0.08113   0.08464   0.08483   0.08910   0.09227
     Eigenvalues ---    0.09527   0.12233   0.13234   0.13534   0.14784
     Eigenvalues ---    0.15686   0.16000   0.16000   0.16000   0.16000
     Eigenvalues ---    0.16000   0.16000   0.16000   0.16000   0.16000
     Eigenvalues ---    0.16000   0.16000   0.16000   0.18363   0.25610
     Eigenvalues ---    0.26533   0.26691   0.27922   0.28352   0.28352
     Eigenvalues ---    0.28476   0.28476   0.28478   0.28630   0.33871
     Eigenvalues ---    0.33871   0.33951   0.33954   0.34066   0.34066
     Eigenvalues ---    0.34175   0.34184   0.34244   0.34244   0.34269
     Eigenvalues ---    0.34269   0.34269   0.34269   0.34306   0.34306
     Eigenvalues ---    0.34331   0.34331   0.34847   0.34847
 RFO step:  Lambda=-2.91881777D-08 EMin= 2.30000000D-03
 Linear search not attempted -- first point.
 Iteration  1 RMS(Cart)=  0.00019567 RMS(Int)=  0.00000003
 Iteration  2 RMS(Cart)=  0.00000004 RMS(Int)=  0.00000000
 ITry= 1 IFail=0 DXMaxC= 1.07D-03 DCOld= 1.00D+10 DXMaxT= 3.00D-01 DXLimC= 3.00D+00 Rises=F
 Variable       Old X    -DE/DX   Delta X   Delta X   Delta X     New X
                                 (Linear)    (Quad)   (Total)
    R1        2.93560   0.00000   0.00000   0.00001   0.00001   2.93561
    R2        2.92306   0.00000   0.00000   0.00002   0.00002   2.92308
    R3        2.91110   0.00001   0.00000   0.00002   0.00002   2.91112
    R4        2.91375   0.00001   0.00000   0.00002   0.00002   2.91377
    R5        2.93560   0.00001   0.00000   0.00001   0.00001   2.93561
    R6        2.07413   0.00001   0.00000   0.00003   0.00003   2.07416
    R7        2.07407   0.00001   0.00000   0.00003   0.00003   2.07410
    R8        2.92306   0.00000   0.00000   0.00002   0.00002   2.92308
    R9        2.91110   0.00001   0.00000   0.00002   0.00002   2.91112
   R10        2.91375   0.00001   0.00000   0.00002   0.00002   2.91377
   R11        2.89763   0.00001   0.00000   0.00003   0.00003   2.89766
   R12        2.07548   0.00001   0.00000   0.00002   0.00002   2.07551
   R13        2.07219   0.00001   0.00000   0.00003   0.00003   2.07221
   R14        2.89763   0.00000   0.00000   0.00002   0.00002   2.89766
   R15        2.07021   0.00001   0.00000   0.00002   0.00002   2.07024
   R16        2.07036   0.00001   0.00000   0.00002   0.00002   2.07038
   R17        2.07548   0.00001   0.00000   0.00002   0.00002   2.07551
   R18        2.07219   0.00001   0.00000   0.00002   0.00002   2.07221
   R19        2.06920   0.00001   0.00000   0.00003   0.00003   2.06923
   R20        2.06878   0.00001   0.00000   0.00003   0.00003   2.06881
   R21        2.06775   0.00001   0.00000   0.00003   0.00003   2.06778
   R22        2.06878   0.00001   0.00000   0.00003   0.00003   2.06881
   R23        2.06817   0.00001   0.00000   0.00003   0.00003   2.06820
   R24        2.05924   0.00001   0.00000   0.00004   0.00004   2.05928
   R25        2.06878   0.00001   0.00000   0.00003   0.00003   2.06881
   R26        2.06920   0.00001   0.00000   0.00003   0.00003   2.06923
   R27        2.06775   0.00001   0.00000   0.00003   0.00003   2.06778
   R28        2.06817   0.00001   0.00000   0.00003   0.00003   2.06820
   R29        2.06878   0.00001   0.00000   0.00003   0.00003   2.06881
   R30        2.05924   0.00001   0.00000   0.00004   0.00004   2.05928
    A1        1.90587  -0.00000   0.00000   0.00003   0.00003   1.90590
    A2        1.88218   0.00000   0.00000  -0.00002  -0.00002   1.88216
    A3        1.97006   0.00000   0.00000   0.00000   0.00000   1.97006
    A4        1.90207   0.00000   0.00000  -0.00001  -0.00001   1.90206
    A5        1.93015   0.00000   0.00000   0.00000   0.00000   1.93015
    A6        1.87165  -0.00000   0.00000  -0.00001  -0.00001   1.87164
    A7        2.07305   0.00000   0.00000   0.00003   0.00003   2.07308
    A8        1.86083  -0.00000   0.00000   0.00001   0.00001   1.86083
    A9        1.90642  -0.00000   0.00000  -0.00002  -0.00002   1.90640
   A10        1.86083  -0.00000   0.00000   0.00000   0.00000   1.86083
   A11        1.90642  -0.00000   0.00000  -0.00002  -0.00002   1.90640
   A12        1.84189  -0.00000   0.00000  -0.00001  -0.00001   1.84188
   A13        1.90587  -0.00000   0.00000   0.00003   0.00003   1.90590
   A14        1.88218   0.00000   0.00000  -0.00002  -0.00002   1.88216
   A15        1.97006   0.00000   0.00000   0.00000   0.00000   1.97007
   A16        1.90207   0.00000   0.00000  -0.00001  -0.00001   1.90206
   A17        1.93015   0.00000   0.00000   0.00000   0.00000   1.93015
   A18        1.87165  -0.00000   0.00000  -0.00001  -0.00001   1.87164
   A19        1.98366   0.00000   0.00000   0.00006   0.00006   1.98372
   A20        1.89463   0.00000   0.00000   0.00001   0.00001   1.89464
   A21        1.91128  -0.00000   0.00000  -0.00004  -0.00004   1.91125
   A22        1.89075  -0.00000   0.00000   0.00001   0.00001   1.89076
   A23        1.92751   0.00000   0.00000  -0.00003  -0.00003   1.92748
   A24        1.85087  -0.00000   0.00000  -0.00002  -0.00002   1.85085
   A25        1.93982   0.00000   0.00000   0.00008   0.00008   1.93990
   A26        1.91140  -0.00000   0.00000  -0.00005  -0.00005   1.91135
   A27        1.92753   0.00000   0.00000   0.00002   0.00002   1.92755
   A28        1.91140  -0.00000   0.00000  -0.00005  -0.00005   1.91135
   A29        1.92753   0.00000   0.00000   0.00002   0.00002   1.92755
   A30        1.84368  -0.00000   0.00000  -0.00003  -0.00003   1.84365
   A31        1.98366   0.00000   0.00000   0.00006   0.00006   1.98372
   A32        1.89463   0.00000   0.00000   0.00001   0.00001   1.89464
   A33        1.91128  -0.00000   0.00000  -0.00004  -0.00004   1.91125
   A34        1.89074  -0.00000   0.00000   0.00001   0.00001   1.89075
   A35        1.92751   0.00000   0.00000  -0.00003  -0.00003   1.92748
   A36        1.85088  -0.00000   0.00000  -0.00002  -0.00002   1.85085
   A37        1.94186   0.00000   0.00000   0.00000   0.00000   1.94186
   A38        1.93895   0.00000   0.00000   0.00000   0.00000   1.93896
   A39        1.94540   0.00000   0.00000   0.00000   0.00000   1.94540
   A40        1.87647  -0.00000   0.00000  -0.00000  -0.00000   1.87647
   A41        1.87892  -0.00000   0.00000  -0.00000  -0.00000   1.87892
   A42        1.87913  -0.00000   0.00000  -0.00000  -0.00000   1.87913
   A43        1.92363   0.00000   0.00000  -0.00000  -0.00000   1.92363
   A44        1.93793   0.00000   0.00000  -0.00000  -0.00000   1.93793
   A45        1.97993   0.00000   0.00000   0.00002   0.00002   1.97994
   A46        1.87464  -0.00000   0.00000  -0.00001  -0.00001   1.87463
   A47        1.86874  -0.00000   0.00000  -0.00001  -0.00001   1.86873
   A48        1.87450  -0.00000   0.00000  -0.00000  -0.00000   1.87450
   A49        1.93895   0.00000   0.00000   0.00000   0.00000   1.93896
   A50        1.94186   0.00000   0.00000   0.00000   0.00000   1.94186
   A51        1.94540   0.00000   0.00000   0.00000   0.00000   1.94540
   A52        1.87647  -0.00000   0.00000  -0.00000  -0.00000   1.87647
   A53        1.87913  -0.00000   0.00000  -0.00000  -0.00000   1.87913
   A54        1.87892  -0.00000   0.00000  -0.00000  -0.00000   1.87892
   A55        1.93793   0.00000   0.00000   0.00000   0.00000   1.93793
   A56        1.92363   0.00000   0.00000  -0.00000  -0.00000   1.92363
   A57        1.97993   0.00000   0.00000   0.00002   0.00002   1.97994
   A58        1.87464  -0.00000   0.00000  -0.00001  -0.00001   1.87463
   A59        1.87450  -0.00000   0.00000  -0.00000  -0.00000   1.87450
   A60        1.86874  -0.00000   0.00000  -0.00001  -0.00001   1.86873
    D1       -0.81542   0.00000   0.00000   0.00006   0.00006  -0.81536
    D2        1.28408   0.00000   0.00000   0.00010   0.00010   1.28417
    D3       -3.01672   0.00000   0.00000   0.00007   0.00007  -3.01664
    D4       -2.87990   0.00000   0.00000   0.00007   0.00007  -2.87983
    D5       -0.78040   0.00000   0.00000   0.00010   0.00010  -0.78029
    D6        1.20200   0.00000   0.00000   0.00008   0.00008   1.20208
    D7        1.33903   0.00000   0.00000   0.00009   0.00009   1.33912
    D8       -2.84465   0.00000   0.00000   0.00012   0.00012  -2.84453
    D9       -0.86226   0.00000   0.00000   0.00010   0.00010  -0.86216
   D10        0.87301  -0.00000   0.00000  -0.00014  -0.00014   0.87287
   D11       -1.23207  -0.00000   0.00000  -0.00020  -0.00020  -1.23227
   D12        3.03775  -0.00000   0.00000  -0.00016  -0.00016   3.03758
   D13        2.92499  -0.00000   0.00000  -0.00015  -0.00015   2.92484
   D14        0.81991  -0.00000   0.00000  -0.00021  -0.00021   0.81970
   D15       -1.19345  -0.00000   0.00000  -0.00018  -0.00018  -1.19363
   D16       -1.30493  -0.00000   0.00000  -0.00017  -0.00017  -1.30510
   D17        2.87317  -0.00000   0.00000  -0.00023  -0.00023   2.87294
   D18        0.85981  -0.00000   0.00000  -0.00019  -0.00019   0.85961
   D19        3.11861   0.00000   0.00000   0.00010   0.00010   3.11871
   D20       -1.07457   0.00000   0.00000   0.00010   0.00010  -1.07447
   D21        1.02288  -0.00000   0.00000   0.00009   0.00009   1.02297
   D22        1.05170   0.00000   0.00000   0.00008   0.00008   1.05178
   D23       -3.14148   0.00000   0.00000   0.00008   0.00008  -3.14140
   D24       -1.04403   0.00000   0.00000   0.00008   0.00008  -1.04396
   D25       -1.03818   0.00000   0.00000   0.00009   0.00009  -1.03810
   D26        1.05182   0.00000   0.00000   0.00008   0.00008   1.05190
   D27       -3.13392   0.00000   0.00000   0.00008   0.00008  -3.13384
   D28        0.91739   0.00000   0.00000   0.00041   0.00041   0.91780
   D29        2.99250   0.00000   0.00000   0.00039   0.00039   2.99290
   D30       -1.19555   0.00000   0.00000   0.00040   0.00040  -1.19516
   D31        3.05835   0.00000   0.00000   0.00045   0.00045   3.05880
   D32       -1.14973   0.00000   0.00000   0.00044   0.00044  -1.14929
   D33        0.94540   0.00000   0.00000   0.00044   0.00044   0.94584
   D34       -1.15301   0.00000   0.00000   0.00043   0.00043  -1.15258
   D35        0.92210   0.00000   0.00000   0.00042   0.00042   0.92252
   D36        3.01723   0.00000   0.00000   0.00042   0.00042   3.01765
   D37        0.81542  -0.00000   0.00000  -0.00006  -0.00006   0.81536
   D38        2.87990  -0.00000   0.00000  -0.00007  -0.00007   2.87983
   D39       -1.33903  -0.00000   0.00000  -0.00009  -0.00009  -1.33912
   D40       -1.28407  -0.00000   0.00000  -0.00010  -0.00010  -1.28417
   D41        0.78040  -0.00000   0.00000  -0.00011  -0.00011   0.78029
   D42        2.84466  -0.00000   0.00000  -0.00013  -0.00013   2.84453
   D43        3.01672  -0.00000   0.00000  -0.00008  -0.00008   3.01664
   D44       -1.20199  -0.00000   0.00000  -0.00008  -0.00008  -1.20208
   D45        0.86226  -0.00000   0.00000  -0.00010  -0.00010   0.86216
   D46       -0.87301   0.00000   0.00000   0.00015   0.00015  -0.87287
   D47        1.23207   0.00000   0.00000   0.00020   0.00020   1.23228
   D48       -3.03775   0.00000   0.00000   0.00017   0.00017  -3.03758
   D49       -2.92499   0.00000   0.00000   0.00016   0.00016  -2.92484
   D50       -0.81991   0.00000   0.00000   0.00021   0.00021  -0.81970
   D51        1.19345   0.00000   0.00000   0.00018   0.00018   1.19363
   D52        1.30493   0.00000   0.00000   0.00017   0.00017   1.30511
   D53       -2.87317   0.00000   0.00000   0.00023   0.00023  -2.87294
   D54       -0.85981   0.00000   0.00000   0.00020   0.00020  -0.85961
   D55        1.07457   0.00000   0.00000  -0.00009  -0.00009   1.07448
   D56       -3.11861  -0.00000   0.00000  -0.00009  -0.00009  -3.11870
   D57       -1.02287   0.00000   0.00000  -0.00009  -0.00009  -1.02296
   D58        3.14148  -0.00000   0.00000  -0.00007  -0.00007   3.14141
   D59       -1.05170  -0.00000   0.00000  -0.00007  -0.00007  -1.05177
   D60        1.04404  -0.00000   0.00000  -0.00007  -0.00007   1.04397
   D61       -1.05182  -0.00000   0.00000  -0.00008  -0.00008  -1.05189
   D62        1.03819  -0.00000   0.00000  -0.00008  -0.00008   1.03811
   D63        3.13392  -0.00000   0.00000  -0.00008  -0.00008   3.13385
   D64       -2.99245  -0.00000   0.00000  -0.00044  -0.00044  -2.99289
   D65       -0.91734  -0.00000   0.00000  -0.00045  -0.00045  -0.91779
   D66        1.19561  -0.00000   0.00000  -0.00044  -0.00044   1.19517
   D67        1.14978  -0.00000   0.00000  -0.00048  -0.00048   1.14930
   D68       -3.05829  -0.00000   0.00000  -0.00049  -0.00049  -3.05879
   D69       -0.94535  -0.00000   0.00000  -0.00049  -0.00049  -0.94583
   D70       -0.92205  -0.00000   0.00000  -0.00046  -0.00046  -0.92252
   D71        1.15306  -0.00000   0.00000  -0.00047  -0.00047   1.15258
   D72       -3.01718  -0.00000   0.00000  -0.00047  -0.00047  -3.01764
   D73        0.98970  -0.00000   0.00000  -0.00022  -0.00022   0.98948
   D74        3.10391  -0.00000   0.00000  -0.00026  -0.00026   3.10365
   D75       -1.15596  -0.00000   0.00000  -0.00031  -0.00031  -1.15627
   D76       -1.11757  -0.00000   0.00000  -0.00028  -0.00028  -1.11785
   D77        0.99665  -0.00000   0.00000  -0.00032  -0.00032   0.99632
   D78        3.01996  -0.00000   0.00000  -0.00037  -0.00037   3.01959
   D79       -3.13756  -0.00000   0.00000  -0.00025  -0.00025  -3.13781
   D80       -1.02335  -0.00000   0.00000  -0.00029  -0.00029  -1.02364
   D81        0.99997  -0.00000   0.00000  -0.00034  -0.00034   0.99963
   D82       -0.98970   0.00000   0.00000   0.00022   0.00022  -0.98948
   D83        1.11757   0.00000   0.00000   0.00028   0.00028   1.11785
   D84        3.13756   0.00000   0.00000   0.00025   0.00025   3.13781
   D85       -3.10391   0.00000   0.00000   0.00026   0.00026  -3.10365
   D86       -0.99665   0.00000   0.00000   0.00032   0.00032  -0.99633
   D87        1.02335   0.00000   0.00000   0.00028   0.00028   1.02363
   D88        1.15596   0.00000   0.00000   0.00031   0.00031   1.15627
   D89       -3.01996   0.00000   0.00000   0.00037   0.00037  -3.01959
   D90       -0.99997   0.00000   0.00000   0.00034   0.00034  -0.99963
         Item               Value     Threshold  Converged?
 Maximum Force            0.000015     0.000450     YES
 RMS     Force            0.000004     0.000300     YES
 Maximum Displacement     0.001074     0.001800     YES
 RMS     Displacement     0.000196     0.001200     YES
 Predicted change in Energy=-1.459483D-08
 Optimization completed.
    -- Stationary point found.
                           ----------------------------
                           !   Optimized Parameters   !
                           ! (Angstroms and Degrees)  !
 --------------------------                            --------------------------
 ! Name  Definition              Value          Derivative Info.                !
 --------------------------------------------------------------------------------
 ! R1    R(1,2)                  1.5535         -DE/DX =    0.0                 !
 ! R2    R(1,6)                  1.5468         -DE/DX =    0.0                 !
 ! R3    R(1,23)                 1.5405         -DE/DX =    0.0                 !
 ! R4    R(1,27)                 1.5419         -DE/DX =    0.0                 !
 ! R5    R(2,3)                  1.5535         -DE/DX =    0.0                 !
 ! R6    R(2,7)                  1.0976         -DE/DX =    0.0                 !
 ! R7    R(2,8)                  1.0976         -DE/DX =    0.0                 !
 ! R8    R(3,4)                  1.5468         -DE/DX =    0.0                 !
 ! R9    R(3,15)                 1.5405         -DE/DX =    0.0                 !
 ! R10   R(3,19)                 1.5419         -DE/DX =    0.0                 !
 ! R11   R(4,5)                  1.5334         -DE/DX =    0.0                 !
 ! R12   R(4,9)                  1.0983         -DE/DX =    0.0                 !
 ! R13   R(4,10)                 1.0966         -DE/DX =    0.0                 !
 ! R14   R(5,6)                  1.5334         -DE/DX =    0.0                 !
 ! R15   R(5,11)                 1.0955         -DE/DX =    0.0                 !
 ! R16   R(5,12)                 1.0956         -DE/DX =    0.0                 !
 ! R17   R(6,13)                 1.0983         -DE/DX =    0.0                 !
 ! R18   R(6,14)                 1.0966         -DE/DX =    0.0                 !
 ! R19   R(15,16)                1.095          -DE/DX =    0.0                 !
 ! R20   R(15,17)                1.0948         -DE/DX =    0.0                 !
 ! R21   R(15,18)                1.0942         -DE/DX =    0.0                 !
 ! R22   R(19,20)                1.0948         -DE/DX =    0.0                 !
 ! R23   R(19,21)                1.0944         -DE/DX =    0.0                 !
 ! R24   R(19,22)                1.0897         -DE/DX =    0.0                 !
 ! R25   R(23,24)                1.0947         -DE/DX =    0.0                 !
 ! R26   R(23,25)                1.095          -DE/DX =    0.0                 !
 ! R27   R(23,26)                1.0942         -DE/DX =    0.0                 !
 ! R28   R(27,28)                1.0944         -DE/DX =    0.0                 !
 ! R29   R(27,29)                1.0948         -DE/DX =    0.0                 !
 ! R30   R(27,30)                1.0897         -DE/DX =    0.0                 !
 ! A1    A(2,1,6)              109.1982         -DE/DX =    0.0                 !
 ! A2    A(2,1,23)             107.8409         -DE/DX =    0.0                 !
 ! A3    A(2,1,27)             112.8762         -DE/DX =    0.0                 !
 ! A4    A(6,1,23)             108.9804         -DE/DX =    0.0                 !
 ! A5    A(6,1,27)             110.5893         -DE/DX =    0.0                 !
 ! A6    A(23,1,27)            107.2375         -DE/DX =    0.0                 !
 ! A7    A(1,2,3)              118.777          -DE/DX =    0.0                 !
 ! A8    A(1,2,7)              106.6175         -DE/DX =    0.0                 !
 ! A9    A(1,2,8)              109.2296         -DE/DX =    0.0                 !
 ! A10   A(3,2,7)              106.6176         -DE/DX =    0.0                 !
 ! A11   A(3,2,8)              109.2296         -DE/DX =    0.0                 !
 ! A12   A(7,2,8)              105.5325         -DE/DX =    0.0                 !
 ! A13   A(2,3,4)              109.1982         -DE/DX =    0.0                 !
 ! A14   A(2,3,15)             107.8408         -DE/DX =    0.0                 !
 ! A15   A(2,3,19)             112.8762         -DE/DX =    0.0                 !
 ! A16   A(4,3,15)             108.9805         -DE/DX =    0.0                 !
 ! A17   A(4,3,19)             110.5893         -DE/DX =    0.0                 !
 ! A18   A(15,3,19)            107.2375         -DE/DX =    0.0                 !
 ! A19   A(3,4,5)              113.6554         -DE/DX =    0.0                 !
 ! A20   A(3,4,9)              108.5544         -DE/DX =    0.0                 !
 ! A21   A(3,4,10)             109.5083         -DE/DX =    0.0                 !
 ! A22   A(5,4,9)              108.3318         -DE/DX =    0.0                 !
 ! A23   A(5,4,10)             110.438          -DE/DX =    0.0                 !
 ! A24   A(9,4,10)             106.0473         -DE/DX =    0.0                 !
 ! A25   A(4,5,6)              111.1434         -DE/DX =    0.0                 !
 ! A26   A(4,5,11)             109.5152         -DE/DX =    0.0                 !
 ! A27   A(4,5,12)             110.4396         -DE/DX =    0.0                 !
 ! A28   A(6,5,11)             109.5152         -DE/DX =    0.0                 !
 ! A29   A(6,5,12)             110.4396         -DE/DX =    0.0                 !
 ! A30   A(11,5,12)            105.6352         -DE/DX =    0.0                 !
 ! A31   A(1,6,5)              113.6554         -DE/DX =    0.0                 !
 ! A32   A(1,6,13)             108.5544         -DE/DX =    0.0                 !
 ! A33   A(1,6,14)             109.5084         -DE/DX =    0.0                 !
 ! A34   A(5,6,13)             108.3317         -DE/DX =    0.0                 !
 ! A35   A(5,6,14)             110.4379         -DE/DX =    0.0                 !
 ! A36   A(13,6,14)            106.0473         -DE/DX =    0.0                 !
 ! A37   A(3,15,16)            111.2602         -DE/DX =    0.0                 !
 ! A38   A(3,15,17)            111.0939         -DE/DX =    0.0                 !
 ! A39   A(3,15,18)            111.4629         -DE/DX =    0.0                 !
 ! A40   A(16,15,17)           107.5139         -DE/DX =    0.0                 !
 ! A41   A(16,15,18)           107.6541         -DE/DX =    0.0                 !
 ! A42   A(17,15,18)           107.6661         -DE/DX =    0.0                 !
 ! A43   A(3,19,20)            110.2159         -DE/DX =    0.0                 !
 ! A44   A(3,19,21)            111.0354         -DE/DX =    0.0                 !
 ! A45   A(3,19,22)            113.4414         -DE/DX =    0.0                 !
 ! A46   A(20,19,21)           107.4087         -DE/DX =    0.0                 !
 ! A47   A(20,19,22)           107.0707         -DE/DX =    0.0                 !
 ! A48   A(21,19,22)           107.4009         -DE/DX =    0.0                 !
 ! A49   A(1,23,24)            111.0939         -DE/DX =    0.0                 !
 ! A50   A(1,23,25)            111.2603         -DE/DX =    0.0                 !
 ! A51   A(1,23,26)            111.463          -DE/DX =    0.0                 !
 ! A52   A(24,23,25)           107.5138         -DE/DX =    0.0                 !
 ! A53   A(24,23,26)           107.666          -DE/DX =    0.0                 !
 ! A54   A(25,23,26)           107.6541         -DE/DX =    0.0                 !
 ! A55   A(1,27,28)            111.0352         -DE/DX =    0.0                 !
 ! A56   A(1,27,29)            110.216          -DE/DX =    0.0                 !
 ! A57   A(1,27,30)            113.4414         -DE/DX =    0.0                 !
 ! A58   A(28,27,29)           107.4088         -DE/DX =    0.0                 !
 ! A59   A(28,27,30)           107.4009         -DE/DX =    0.0                 !
 ! A60   A(29,27,30)           107.0709         -DE/DX =    0.0                 !
 ! D1    D(6,1,2,3)            -46.7203         -DE/DX =    0.0                 !
 ! D2    D(6,1,2,7)             73.5722         -DE/DX =    0.0                 !
 ! D3    D(6,1,2,8)           -172.8451         -DE/DX =    0.0                 !
 ! D4    D(23,1,2,3)          -165.006          -DE/DX =    0.0                 !
 ! D5    D(23,1,2,7)           -44.7135         -DE/DX =    0.0                 !
 ! D6    D(23,1,2,8)            68.8692         -DE/DX =    0.0                 !
 ! D7    D(27,1,2,3)            76.7208         -DE/DX =    0.0                 !
 ! D8    D(27,1,2,7)          -162.9867         -DE/DX =    0.0                 !
 ! D9    D(27,1,2,8)           -49.404          -DE/DX =    0.0                 !
 ! D10   D(2,1,6,5)             50.0197         -DE/DX =    0.0                 !
 ! D11   D(2,1,6,13)           -70.5925         -DE/DX =    0.0                 !
 ! D12   D(2,1,6,14)           174.0502         -DE/DX =    0.0                 !
 ! D13   D(23,1,6,5)           167.5898         -DE/DX =    0.0                 !
 ! D14   D(23,1,6,13)           46.9776         -DE/DX =    0.0                 !
 ! D15   D(23,1,6,14)          -68.3797         -DE/DX =    0.0                 !
 ! D16   D(27,1,6,5)           -74.7672         -DE/DX =    0.0                 !
 ! D17   D(27,1,6,13)          164.6206         -DE/DX =    0.0                 !
 ! D18   D(27,1,6,14)           49.2632         -DE/DX =    0.0                 !
 ! D19   D(2,1,23,24)          178.6834         -DE/DX =    0.0                 !
 ! D20   D(2,1,23,25)          -61.5682         -DE/DX =    0.0                 !
 ! D21   D(2,1,23,26)           58.6065         -DE/DX =    0.0                 !
 ! D22   D(6,1,23,24)           60.2581         -DE/DX =    0.0                 !
 ! D23   D(6,1,23,25)         -179.9935         -DE/DX =    0.0                 !
 ! D24   D(6,1,23,26)          -59.8188         -DE/DX =    0.0                 !
 ! D25   D(27,1,23,24)         -59.4836         -DE/DX =    0.0                 !
 ! D26   D(27,1,23,25)          60.2648         -DE/DX =    0.0                 !
 ! D27   D(27,1,23,26)        -179.5605         -DE/DX =    0.0                 !
 ! D28   D(2,1,27,28)           52.5628         -DE/DX =    0.0                 !
 ! D29   D(2,1,27,29)          171.4579         -DE/DX =    0.0                 !
 ! D30   D(2,1,27,30)          -68.5001         -DE/DX =    0.0                 !
 ! D31   D(6,1,27,28)          175.2304         -DE/DX =    0.0                 !
 ! D32   D(6,1,27,29)          -65.8745         -DE/DX =    0.0                 !
 ! D33   D(6,1,27,30)           54.1675         -DE/DX =    0.0                 !
 ! D34   D(23,1,27,28)         -66.0624         -DE/DX =    0.0                 !
 ! D35   D(23,1,27,29)          52.8326         -DE/DX =    0.0                 !
 ! D36   D(23,1,27,30)         172.8747         -DE/DX =    0.0                 !
 ! D37   D(1,2,3,4)             46.7204         -DE/DX =    0.0                 !
 ! D38   D(1,2,3,15)           165.006          -DE/DX =    0.0                 !
 ! D39   D(1,2,3,19)           -76.7208         -DE/DX =    0.0                 !
 ! D40   D(7,2,3,4)            -73.5721         -DE/DX =    0.0                 !
 ! D41   D(7,2,3,15)            44.7136         -DE/DX =    0.0                 !
 ! D42   D(7,2,3,19)           162.9868         -DE/DX =    0.0                 !
 ! D43   D(8,2,3,4)            172.8452         -DE/DX =    0.0                 !
 ! D44   D(8,2,3,15)           -68.8692         -DE/DX =    0.0                 !
 ! D45   D(8,2,3,19)            49.404          -DE/DX =    0.0                 !
 ! D46   D(2,3,4,5)            -50.0198         -DE/DX =    0.0                 !
 ! D47   D(2,3,4,9)             70.5925         -DE/DX =    0.0                 !
 ! D48   D(2,3,4,10)          -174.0503         -DE/DX =    0.0                 !
 ! D49   D(15,3,4,5)          -167.5898         -DE/DX =    0.0                 !
 ! D50   D(15,3,4,9)           -46.9775         -DE/DX =    0.0                 !
 ! D51   D(15,3,4,10)           68.3797         -DE/DX =    0.0                 !
 ! D52   D(19,3,4,5)            74.7672         -DE/DX =    0.0                 !
 ! D53   D(19,3,4,9)          -164.6205         -DE/DX =    0.0                 !
 ! D54   D(19,3,4,10)          -49.2633         -DE/DX =    0.0                 !
 ! D55   D(2,3,15,16)           61.5684         -DE/DX =    0.0                 !
 ! D56   D(2,3,15,17)         -178.6832         -DE/DX =    0.0                 !
 ! D57   D(2,3,15,18)          -58.6063         -DE/DX =    0.0                 !
 ! D58   D(4,3,15,16)          179.9936         -DE/DX =    0.0                 !
 ! D59   D(4,3,15,17)          -60.2579         -DE/DX =    0.0                 !
 ! D60   D(4,3,15,18)           59.8189         -DE/DX =    0.0                 !
 ! D61   D(19,3,15,16)         -60.2646         -DE/DX =    0.0                 !
 ! D62   D(19,3,15,17)          59.4838         -DE/DX =    0.0                 !
 ! D63   D(19,3,15,18)         179.5606         -DE/DX =    0.0                 !
 ! D64   D(2,3,19,20)         -171.4549         -DE/DX =    0.0                 !
 ! D65   D(2,3,19,21)          -52.5598         -DE/DX =    0.0                 !
 ! D66   D(2,3,19,22)           68.5032         -DE/DX =    0.0                 !
 ! D67   D(4,3,19,20)           65.8775         -DE/DX =    0.0                 !
 ! D68   D(4,3,19,21)         -175.2274         -DE/DX =    0.0                 !
 ! D69   D(4,3,19,22)          -54.1644         -DE/DX =    0.0                 !
 ! D70   D(15,3,19,20)         -52.8297         -DE/DX =    0.0                 !
 ! D71   D(15,3,19,21)          66.0654         -DE/DX =    0.0                 !
 ! D72   D(15,3,19,22)        -172.8716         -DE/DX =    0.0                 !
 ! D73   D(3,4,5,6)             56.7055         -DE/DX =    0.0                 !
 ! D74   D(3,4,5,11)           177.841          -DE/DX =    0.0                 !
 ! D75   D(3,4,5,12)           -66.2314         -DE/DX =    0.0                 !
 ! D76   D(9,4,5,6)            -64.032          -DE/DX =    0.0                 !
 ! D77   D(9,4,5,11)            57.1036         -DE/DX =    0.0                 !
 ! D78   D(9,4,5,12)           173.0312         -DE/DX =    0.0                 !
 ! D79   D(10,4,5,6)          -179.7692         -DE/DX =    0.0                 !
 ! D80   D(10,4,5,11)          -58.6337         -DE/DX =    0.0                 !
 ! D81   D(10,4,5,12)           57.294          -DE/DX =    0.0                 !
 ! D82   D(4,5,6,1)            -56.7054         -DE/DX =    0.0                 !
 ! D83   D(4,5,6,13)            64.032          -DE/DX =    0.0                 !
 ! D84   D(4,5,6,14)           179.7692         -DE/DX =    0.0                 !
 ! D85   D(11,5,6,1)          -177.841          -DE/DX =    0.0                 !
 ! D86   D(11,5,6,13)          -57.1036         -DE/DX =    0.0                 !
 ! D87   D(11,5,6,14)           58.6336         -DE/DX =    0.0                 !
 ! D88   D(12,5,6,1)            66.2314         -DE/DX =    0.0                 !
 ! D89   D(12,5,6,13)         -173.0312         -DE/DX =    0.0                 !
 ! D90   D(12,5,6,14)          -57.294          -DE/DX =    0.0                 !
 --------------------------------------------------------------------------------
 Lowest energy point so far.  Saving SCF results.
 Largest change from initial coordinates is atom   20       0.000 Angstoms.
 GradGradGradGradGradGradGradGradGradGradGradGradGradGradGradGradGradGrad

 Leave Link  103 at Wed Jul 23 16:40:16 2025, MaxMem=   104857600 cpu:               7.1 elap:               0.2
 (Enter /opt/linux/rocky/8/software/gaussian/16c01_avx2/g16/l202.exe)
                          Input orientation:                          
 ---------------------------------------------------------------------
 Center     Atomic      Atomic             Coordinates (Angstroms)
 Number     Number       Type             X           Y           Z
 ---------------------------------------------------------------------
      1          6           0        1.336962   -0.261051   -0.048618
      2          6           0        0.000000   -0.949566   -0.438094
      3          6           0       -1.336962   -0.261051   -0.048618
      4          6           0       -1.264769    1.238197   -0.422374
      5          6           0       -0.000001    1.939206    0.087668
      6          6           0        1.264769    1.238197   -0.422373
      7          1           0        0.000001   -1.038960   -1.532028
      8          1           0        0.000000   -1.979582   -0.059036
      9          1           0       -1.291599    1.327244   -1.516727
     10          1           0       -2.161538    1.750906   -0.054455
     11          1           0       -0.000001    2.982605   -0.246187
     12          1           0       -0.000001    1.979502    1.182513
     13          1           0        1.291599    1.327245   -1.516726
     14          1           0        2.161537    1.750907   -0.054453
     15          6           0       -2.464446   -0.926151   -0.860728
     16          1           0       -2.548449   -1.991999   -0.624345
     17          1           0       -3.432397   -0.463210   -0.643393
     18          1           0       -2.288316   -0.837830   -1.937046
     19          6           0       -1.686665   -0.431703    1.443364
     20          1           0       -2.699870   -0.065979    1.638668
     21          1           0       -1.657062   -1.485952    1.735698
     22          1           0       -1.016801    0.110363    2.110370
     23          6           0        2.464447   -0.926148   -0.860727
     24          1           0        3.432398   -0.463209   -0.643389
     25          1           0        2.548450   -1.991997   -0.624347
     26          1           0        2.288320   -0.837824   -1.937045
     27          6           0        1.686664   -0.431705    1.443365
     28          1           0        1.657112   -1.485961    1.735682
     29          1           0        2.699849   -0.065933    1.638681
     30          1           0        1.016767    0.110316    2.110373
 ---------------------------------------------------------------------
                    Distance matrix (angstroms):
                    1          2          3          4          5
     1  C    0.000000
     2  C    1.553452   0.000000
     3  C    2.673924   1.553452   0.000000
     4  C    3.025961   2.527092   1.546819   0.000000
     5  C    2.578212   2.936227   2.578211   1.533361   0.000000
     6  C    1.546819   2.527092   3.025961   2.529538   1.533362
     7  H    2.143155   1.097580   2.143156   2.831328   3.390116
     8  H    2.177366   1.097551   2.177366   3.476458   3.921533
     9  H    3.404021   2.831173   2.163350   1.098298   2.148675
    10  H    4.035778   3.480226   2.174381   1.096553   2.174373
    11  H    3.513945   3.936851   3.513944   2.161860   1.095509
    12  H    2.885001   3.347507   2.885000   2.173668   1.095586
    13  H    2.163350   2.831173   3.404021   2.782185   2.148676
    14  H    2.174381   3.480227   4.035778   3.483936   2.174374
    15  C    3.943676   2.500532   1.540487   2.513122   3.896564
    16  H    4.292326   2.759701   2.189827   3.481780   4.738768
    17  H    4.810552   3.472757   2.187572   2.764461   4.252928
    18  H    4.128132   2.737833   2.191782   2.766183   4.128896
    19  C    3.376011   2.579323   1.541890   2.539201   3.209978
    20  H    4.379612   3.518944   2.177729   2.829891   3.703466
    21  H    3.694367   2.785487   2.187837   3.497450   4.146512
    22  H    3.215490   2.941429   2.213974   2.783575   2.910305
    23  C    1.540486   2.500533   3.943677   4.334004   3.896564
    24  H    2.187572   3.472758   4.810552   5.000701   4.252929
    25  H    2.189827   2.759701   4.292326   5.001558   4.738768
    26  H    2.191781   2.737837   4.128134   4.385035   4.128895
    27  C    1.541891   2.579322   3.376011   3.870467   3.209980
    28  H    2.187836   2.785506   3.694403   4.540444   4.146534
    29  H    2.177730   3.518947   4.379600   4.654772   3.703433
    30  H    2.213974   2.941403   3.215462   3.590589   2.910325
                    6          7          8          9         10
     6  C    0.000000
     7  H    2.831328   0.000000
     8  H    3.476457   1.747706   0.000000
     9  H    2.782186   2.695809   3.837732   0.000000
    10  H    3.483937   3.826072   4.311474   1.753432   0.000000
    11  H    2.161861   4.222129   4.965715   2.454123   2.495213
    12  H    2.173669   4.059538   4.149191   3.062607   2.500917
    13  H    1.098298   2.695809   3.837733   2.583198   3.773842
    14  H    1.096553   3.826072   4.311474   3.773842   4.323075
    15  C    4.334005   2.556730   2.797485   2.623679   2.812199
    16  H    5.001559   2.868235   2.610425   3.659698   3.805760
    17  H    5.000700   3.592007   3.797658   2.924287   2.619970
    18  H    4.385035   2.332571   3.172839   2.420260   3.203401
    19  C    3.870466   3.473696   2.738243   3.465849   2.689377
    20  H    4.654796   4.276600   3.719324   3.725697   2.541169
    21  H    4.540413   3.691029   2.492107   4.315774   3.733148
    22  H    3.590593   3.952454   3.179320   3.835642   2.947587
    23  C    2.513120   2.556729   2.797486   4.428995   5.405222
    24  H    2.764461   3.592007   3.797659   5.126850   6.044937
    25  H    3.481779   2.868232   2.610427   5.153608   6.043020
    26  H    2.766180   2.332573   3.172844   4.204760   5.481506
    27  C    2.539202   3.473695   2.738242   4.552592   4.670751
    28  H    3.497452   3.691037   2.492127   5.214133   5.316388
    29  H    2.829868   4.276606   3.719339   5.275339   5.459001
    30  H    2.783599   3.952434   3.179280   4.468257   4.180866
                   11         12         13         14         15
    11  H    0.000000
    12  H    1.745680   0.000000
    13  H    2.454122   3.062607   0.000000
    14  H    2.495213   2.500917   1.753432   0.000000
    15  C    4.661494   4.323325   4.428995   5.405223   0.000000
    16  H    5.602167   5.052934   5.153610   6.043020   1.094973
    17  H    4.879832   4.591527   5.126849   6.044937   1.094750
    18  H    4.763519   4.785958   4.204760   5.481506   1.094204
    19  C    4.166163   2.954114   4.552591   4.670749   2.481585
    20  H    4.487297   3.417801   5.275359   5.459030   2.653733
    21  H    5.161562   3.880881   5.214110   5.316352   2.776090
    22  H    3.851885   2.321310   4.468259   4.180870   3.463735
    23  C    4.661493   4.323325   2.623678   2.812198   4.928893
    24  H    4.879833   4.591527   2.924289   2.619970   5.918980
    25  H    5.602167   5.052935   3.659697   3.805760   5.130403
    26  H    4.763517   4.785957   2.420257   3.203397   4.873915
    27  C    4.166166   2.954116   3.465851   2.689379   4.773367
    28  H    5.161580   3.880909   4.315772   3.733141   4.903261
    29  H    4.487260   3.417760   3.725682   2.541140   5.801462
    30  H    3.851913   2.321335   3.835661   2.947628   4.692606
                   16         17         18         19         20
    16  H    0.000000
    17  H    1.766047   0.000000
    18  H    1.767190   1.767144   0.000000
    19  C    2.729948   2.720869   3.457469   0.000000
    20  H    2.975518   2.429442   3.681149   1.094752   0.000000
    21  H    2.573025   3.139728   3.782538   1.094430   1.764422
    22  H    3.774194   3.707735   4.347114   1.089702   1.756793
    23  C    5.130404   5.918979   4.873912   4.773368   5.801468
    24  H    6.173175   6.864795   5.877113   5.528140   6.555173
    25  H    5.096899   6.173174   5.142916   4.964488   6.031223
    26  H    5.142921   5.877114   4.576636   5.233795   6.185750
    27  C    4.964486   5.528140   5.233792   3.373329   4.406084
    28  H    4.848974   5.710440   5.429126   3.518203   4.583563
    29  H    6.031223   6.555161   6.185745   4.406069   5.399719
    30  H    4.960764   5.263765   5.310758   2.836764   3.750597
                   21         22         23         24         25
    21  H    0.000000
    22  H    1.760266   0.000000
    23  C    4.903227   4.692639   0.000000
    24  H    5.710399   5.263796   1.094750   0.000000
    25  H    4.848941   4.960807   1.094973   1.766046   0.000000
    26  H    5.429102   5.310786   1.094204   1.767144   1.767190
    27  C    3.518153   2.836804   2.481584   2.720868   2.729949
    28  H    3.314174   3.136631   2.776062   3.139688   2.572993
    29  H    4.583507   3.750608   2.653757   2.429465   2.975557
    30  H    3.136529   2.033568   3.463736   3.707750   3.774184
                   26         27         28         29         30
    26  H    0.000000
    27  C    3.457469   0.000000
    28  H    3.782516   1.094431   0.000000
    29  H    3.681167   1.094752   1.764423   0.000000
    30  H    4.347115   1.089701   1.760266   1.756793   0.000000
 Stoichiometry    C10H20
 Framework group  C1[X(C10H20)]
 Deg. of freedom    84
 Full point group                 C1      NOp   1
 RotChk:  IX=0 Diff= 3.60D-16
 Largest Abelian subgroup         C1      NOp   1
 Largest concise Abelian subgroup C1      NOp   1
                         Standard orientation:                         
 ---------------------------------------------------------------------
 Center     Atomic      Atomic             Coordinates (Angstroms)
 Number     Number       Type             X           Y           Z
 ---------------------------------------------------------------------
      1          6           0        1.336962   -0.261051   -0.048618
      2          6           0        0.000000   -0.949566   -0.438094
      3          6           0       -1.336962   -0.261051   -0.048618
      4          6           0       -1.264769    1.238197   -0.422374
      5          6           0       -0.000001    1.939206    0.087668
      6          6           0        1.264769    1.238197   -0.422373
      7          1           0        0.000001   -1.038960   -1.532028
      8          1           0       -0.000000   -1.979582   -0.059036
      9          1           0       -1.291599    1.327244   -1.516727
     10          1           0       -2.161538    1.750906   -0.054455
     11          1           0       -0.000001    2.982605   -0.246187
     12          1           0       -0.000001    1.979502    1.182513
     13          1           0        1.291599    1.327245   -1.516726
     14          1           0        2.161537    1.750907   -0.054453
     15          6           0       -2.464446   -0.926151   -0.860728
     16          1           0       -2.548449   -1.991999   -0.624345
     17          1           0       -3.432397   -0.463210   -0.643393
     18          1           0       -2.288316   -0.837830   -1.937046
     19          6           0       -1.686665   -0.431703    1.443364
     20          1           0       -2.699870   -0.065979    1.638668
     21          1           0       -1.657062   -1.485952    1.735698
     22          1           0       -1.016801    0.110363    2.110370
     23          6           0        2.464447   -0.926148   -0.860727
     24          1           0        3.432398   -0.463209   -0.643389
     25          1           0        2.548450   -1.991997   -0.624347
     26          1           0        2.288320   -0.837824   -1.937045
     27          6           0        1.686664   -0.431705    1.443365
     28          1           0        1.657112   -1.485961    1.735682
     29          1           0        2.699849   -0.065933    1.638681
     30          1           0        1.016767    0.110316    2.110373
 ---------------------------------------------------------------------
 Rotational constants (GHZ):           1.8439717           1.0304478           0.9371811
 Leave Link  202 at Wed Jul 23 16:40:16 2025, MaxMem=   104857600 cpu:               0.1 elap:               0.0
 (Enter /opt/linux/rocky/8/software/gaussian/16c01_avx2/g16/l9999.exe)
 Unable to Open any file for archive entry.
 1\1\GINC-A005\FOpt\RB3LYP\6-311G(d)\C10H20\DJO04747\23-Jul-2025\0\\#P 
 opt freq b3lyp/6-311g(d) geom=connectivity\\Title Card Required\\0,1\C
 ,1.336962,-0.261051,-0.048618\C,0.,-0.949566,-0.438094\C,-1.336962,-0.
 261051,-0.048618\C,-1.264769,1.238197,-0.422374\C,-0.000001,1.939206,0
 .087668\C,1.264769,1.238197,-0.422373\H,0.000001,-1.03896,-1.532028\H,
 0.,-1.979582,-0.059036\H,-1.291599,1.327244,-1.516727\H,-2.161538,1.75
 0906,-0.054455\H,-0.000001,2.982605,-0.246187\H,-0.000001,1.979502,1.1
 82513\H,1.291599,1.327245,-1.516726\H,2.161537,1.750907,-0.054453\C,-2
 .464446,-0.926151,-0.860728\H,-2.548449,-1.991999,-0.624345\H,-3.43239
 7,-0.46321,-0.643393\H,-2.288316,-0.83783,-1.937046\C,-1.686665,-0.431
 703,1.443364\H,-2.69987,-0.065979,1.638668\H,-1.657062,-1.485952,1.735
 698\H,-1.016801,0.110363,2.11037\C,2.464447,-0.926148,-0.860727\H,3.43
 2398,-0.463209,-0.643389\H,2.54845,-1.991997,-0.624347\H,2.28832,-0.83
 7824,-1.937045\C,1.686664,-0.431705,1.443365\H,1.657112,-1.485961,1.73
 5682\H,2.699849,-0.065933,1.638681\H,1.016767,0.110316,2.110373\\Versi
 on=ES64L-G16RevC.01\State=1-A\HF=-393.2097109\RMSD=2.541e-09\RMSF=5.76
 0e-06\Dipole=-0.0000019,0.0498038,-0.0077094\Quadrupole=-0.3581455,0.3
 683306,-0.0101851,0.0000021,-0.0000046,-0.1673048\PG=C01 [X(C10H20)]\\
 @
 The archive entry for this job was punched.


 ...THOSE SCIENCES ARE VAIN AND FULL OF ERRORS WHICH 
 ARE NOT BORN FROM EXPERIMENT, THE MOTHER OF CERTAINTY...

                          -- LEONARDO DA VINCI, 1452-1519
 Leave Link 9999 at Wed Jul 23 16:40:16 2025, MaxMem=   104857600 cpu:               1.5 elap:               0.1
 Job cpu time:       0 days  0 hours  4 minutes 16.5 seconds.
 Elapsed time:       0 days  0 hours  0 minutes  7.6 seconds.
 File lengths (MBytes):  RWF=     38 Int=      0 D2E=      0 Chk=      6 Scr=      1
 Normal termination of Gaussian 16 at Wed Jul 23 16:40:16 2025.
 (Enter /opt/linux/rocky/8/software/gaussian/16c01_avx2/g16/l1.exe)
 Link1:  Proceeding to internal job step number  2.
 ---------------------------------------------------------------------
 #P Geom=AllCheck Guess=TCheck SCRF=Check GenChk RB3LYP/6-311G(d) Freq
 ---------------------------------------------------------------------
 1/10=4,29=7,30=1,38=1,40=1/1,3;
 2/12=2,40=1/2;
 3/5=4,6=6,7=1,11=2,14=-4,25=1,30=1,70=2,71=2,74=-5,116=1,140=1/1,2,3;
 4/5=101/1;
 5/5=2,38=6,98=1/2;
 8/6=4,10=90,11=11/1;
 11/6=1,8=1,9=11,15=111,16=1/1,2,10;
 10/6=1/2;
 6/7=2,8=2,9=2,10=2,28=1/1;
 7/8=1,10=1,25=1/1,2,3,16;
 1/10=4,30=1/3;
 99//99;
 Leave Link    1 at Wed Jul 23 16:40:17 2025, MaxMem=   104857600 cpu:               0.8 elap:               0.0
 (Enter /opt/linux/rocky/8/software/gaussian/16c01_avx2/g16/l101.exe)
 Structure from the checkpoint file:  "1133tetramethylcyclohexane_b3lyp6311gdp.chk"
 -------------------
 Title Card Required
 -------------------
 Charge =  0 Multiplicity = 1
 Redundant internal coordinates found in file.  (old form).
 C,0,1.336962,-0.261051,-0.048618
 C,0,0.,-0.949566,-0.438094
 C,0,-1.336962,-0.261051,-0.048618
 C,0,-1.264769,1.238197,-0.422374
 C,0,-0.000001,1.939206,0.087668
 C,0,1.264769,1.238197,-0.422373
 H,0,0.000001,-1.03896,-1.532028
 H,0,0.,-1.979582,-0.059036
 H,0,-1.291599,1.327244,-1.516727
 H,0,-2.161538,1.750906,-0.054455
 H,0,-0.000001,2.982605,-0.246187
 H,0,-0.000001,1.979502,1.182513
 H,0,1.291599,1.327245,-1.516726
 H,0,2.161537,1.750907,-0.054453
 C,0,-2.464446,-0.926151,-0.860728
 H,0,-2.548449,-1.991999,-0.624345
 H,0,-3.432397,-0.46321,-0.643393
 H,0,-2.288316,-0.83783,-1.937046
 C,0,-1.686665,-0.431703,1.443364
 H,0,-2.69987,-0.065979,1.638668
 H,0,-1.657062,-1.485952,1.735698
 H,0,-1.016801,0.110363,2.11037
 C,0,2.464447,-0.926148,-0.860727
 H,0,3.432398,-0.463209,-0.643389
 H,0,2.54845,-1.991997,-0.624347
 H,0,2.28832,-0.837824,-1.937045
 C,0,1.686664,-0.431705,1.443365
 H,0,1.657112,-1.485961,1.735682
 H,0,2.699849,-0.065933,1.638681
 H,0,1.016767,0.110316,2.110373
 Recover connectivity data from disk.
 ITRead=  0  0  0  0  0  0  0  0  0  0  0  0  0  0  0  0  0  0  0  0
 ITRead=  0  0  0  0  0  0  0  0  0  0
 MicOpt= -1 -1 -1 -1 -1 -1 -1 -1 -1 -1 -1 -1 -1 -1 -1 -1 -1 -1 -1 -1
 MicOpt= -1 -1 -1 -1 -1 -1 -1 -1 -1 -1
 NAtoms=     30 NQM=       30 NQMF=       0 NMMI=      0 NMMIF=      0
                NMic=       0 NMicF=      0.
                    Isotopes and Nuclear Properties:
 (Nuclear quadrupole moments (NQMom) in fm**2, nuclear magnetic moments (NMagM)
  in nuclear magnetons)

  Atom         1           2           3           4           5           6           7           8           9          10
 IAtWgt=          12          12          12          12          12          12           1           1           1           1
 AtmWgt=  12.0000000  12.0000000  12.0000000  12.0000000  12.0000000  12.0000000   1.0078250   1.0078250   1.0078250   1.0078250
 NucSpn=           0           0           0           0           0           0           1           1           1           1
 AtZEff=   3.6000000   3.6000000   3.6000000   3.6000000   3.6000000   3.6000000   1.0000000   1.0000000   1.0000000   1.0000000
 NQMom=    0.0000000   0.0000000   0.0000000   0.0000000   0.0000000   0.0000000   0.0000000   0.0000000   0.0000000   0.0000000
 NMagM=    0.0000000   0.0000000   0.0000000   0.0000000   0.0000000   0.0000000   2.7928460   2.7928460   2.7928460   2.7928460
 AtZNuc=   6.0000000   6.0000000   6.0000000   6.0000000   6.0000000   6.0000000   1.0000000   1.0000000   1.0000000   1.0000000

  Atom        11          12          13          14          15          16          17          18          19          20
 IAtWgt=           1           1           1           1          12           1           1           1          12           1
 AtmWgt=   1.0078250   1.0078250   1.0078250   1.0078250  12.0000000   1.0078250   1.0078250   1.0078250  12.0000000   1.0078250
 NucSpn=           1           1           1           1           0           1           1           1           0           1
 AtZEff=   1.0000000   1.0000000   1.0000000   1.0000000   3.6000000   1.0000000   1.0000000   1.0000000   3.6000000   1.0000000
 NQMom=    0.0000000   0.0000000   0.0000000   0.0000000   0.0000000   0.0000000   0.0000000   0.0000000   0.0000000   0.0000000
 NMagM=    2.7928460   2.7928460   2.7928460   2.7928460   0.0000000   2.7928460   2.7928460   2.7928460   0.0000000   2.7928460
 AtZNuc=   1.0000000   1.0000000   1.0000000   1.0000000   6.0000000   1.0000000   1.0000000   1.0000000   6.0000000   1.0000000

  Atom        21          22          23          24          25          26          27          28          29          30
 IAtWgt=           1           1          12           1           1           1          12           1           1           1
 AtmWgt=   1.0078250   1.0078250  12.0000000   1.0078250   1.0078250   1.0078250  12.0000000   1.0078250   1.0078250   1.0078250
 NucSpn=           1           1           0           1           1           1           0           1           1           1
 AtZEff=   1.0000000   1.0000000   3.6000000   1.0000000   1.0000000   1.0000000   3.6000000   1.0000000   1.0000000   1.0000000
 NQMom=    0.0000000   0.0000000   0.0000000   0.0000000   0.0000000   0.0000000   0.0000000   0.0000000   0.0000000   0.0000000
 NMagM=    2.7928460   2.7928460   0.0000000   2.7928460   2.7928460   2.7928460   0.0000000   2.7928460   2.7928460   2.7928460
 AtZNuc=   1.0000000   1.0000000   6.0000000   1.0000000   1.0000000   1.0000000   6.0000000   1.0000000   1.0000000   1.0000000
 Leave Link  101 at Wed Jul 23 16:40:17 2025, MaxMem=   104857600 cpu:               1.7 elap:               0.1
 (Enter /opt/linux/rocky/8/software/gaussian/16c01_avx2/g16/l103.exe)

 GradGradGradGradGradGradGradGradGradGradGradGradGradGradGradGradGradGrad
 Berny optimization.
 Initialization pass.
                           ----------------------------
                           !    Initial Parameters    !
                           ! (Angstroms and Degrees)  !
 --------------------------                            --------------------------
 ! Name  Definition              Value          Derivative Info.                !
 --------------------------------------------------------------------------------
 ! R1    R(1,2)                  1.5535         calculate D2E/DX2 analytically  !
 ! R2    R(1,6)                  1.5468         calculate D2E/DX2 analytically  !
 ! R3    R(1,23)                 1.5405         calculate D2E/DX2 analytically  !
 ! R4    R(1,27)                 1.5419         calculate D2E/DX2 analytically  !
 ! R5    R(2,3)                  1.5535         calculate D2E/DX2 analytically  !
 ! R6    R(2,7)                  1.0976         calculate D2E/DX2 analytically  !
 ! R7    R(2,8)                  1.0976         calculate D2E/DX2 analytically  !
 ! R8    R(3,4)                  1.5468         calculate D2E/DX2 analytically  !
 ! R9    R(3,15)                 1.5405         calculate D2E/DX2 analytically  !
 ! R10   R(3,19)                 1.5419         calculate D2E/DX2 analytically  !
 ! R11   R(4,5)                  1.5334         calculate D2E/DX2 analytically  !
 ! R12   R(4,9)                  1.0983         calculate D2E/DX2 analytically  !
 ! R13   R(4,10)                 1.0966         calculate D2E/DX2 analytically  !
 ! R14   R(5,6)                  1.5334         calculate D2E/DX2 analytically  !
 ! R15   R(5,11)                 1.0955         calculate D2E/DX2 analytically  !
 ! R16   R(5,12)                 1.0956         calculate D2E/DX2 analytically  !
 ! R17   R(6,13)                 1.0983         calculate D2E/DX2 analytically  !
 ! R18   R(6,14)                 1.0966         calculate D2E/DX2 analytically  !
 ! R19   R(15,16)                1.095          calculate D2E/DX2 analytically  !
 ! R20   R(15,17)                1.0948         calculate D2E/DX2 analytically  !
 ! R21   R(15,18)                1.0942         calculate D2E/DX2 analytically  !
 ! R22   R(19,20)                1.0948         calculate D2E/DX2 analytically  !
 ! R23   R(19,21)                1.0944         calculate D2E/DX2 analytically  !
 ! R24   R(19,22)                1.0897         calculate D2E/DX2 analytically  !
 ! R25   R(23,24)                1.0947         calculate D2E/DX2 analytically  !
 ! R26   R(23,25)                1.095          calculate D2E/DX2 analytically  !
 ! R27   R(23,26)                1.0942         calculate D2E/DX2 analytically  !
 ! R28   R(27,28)                1.0944         calculate D2E/DX2 analytically  !
 ! R29   R(27,29)                1.0948         calculate D2E/DX2 analytically  !
 ! R30   R(27,30)                1.0897         calculate D2E/DX2 analytically  !
 ! A1    A(2,1,6)              109.1982         calculate D2E/DX2 analytically  !
 ! A2    A(2,1,23)             107.8409         calculate D2E/DX2 analytically  !
 ! A3    A(2,1,27)             112.8762         calculate D2E/DX2 analytically  !
 ! A4    A(6,1,23)             108.9804         calculate D2E/DX2 analytically  !
 ! A5    A(6,1,27)             110.5893         calculate D2E/DX2 analytically  !
 ! A6    A(23,1,27)            107.2375         calculate D2E/DX2 analytically  !
 ! A7    A(1,2,3)              118.777          calculate D2E/DX2 analytically  !
 ! A8    A(1,2,7)              106.6175         calculate D2E/DX2 analytically  !
 ! A9    A(1,2,8)              109.2296         calculate D2E/DX2 analytically  !
 ! A10   A(3,2,7)              106.6176         calculate D2E/DX2 analytically  !
 ! A11   A(3,2,8)              109.2296         calculate D2E/DX2 analytically  !
 ! A12   A(7,2,8)              105.5325         calculate D2E/DX2 analytically  !
 ! A13   A(2,3,4)              109.1982         calculate D2E/DX2 analytically  !
 ! A14   A(2,3,15)             107.8408         calculate D2E/DX2 analytically  !
 ! A15   A(2,3,19)             112.8762         calculate D2E/DX2 analytically  !
 ! A16   A(4,3,15)             108.9805         calculate D2E/DX2 analytically  !
 ! A17   A(4,3,19)             110.5893         calculate D2E/DX2 analytically  !
 ! A18   A(15,3,19)            107.2375         calculate D2E/DX2 analytically  !
 ! A19   A(3,4,5)              113.6554         calculate D2E/DX2 analytically  !
 ! A20   A(3,4,9)              108.5544         calculate D2E/DX2 analytically  !
 ! A21   A(3,4,10)             109.5083         calculate D2E/DX2 analytically  !
 ! A22   A(5,4,9)              108.3318         calculate D2E/DX2 analytically  !
 ! A23   A(5,4,10)             110.438          calculate D2E/DX2 analytically  !
 ! A24   A(9,4,10)             106.0473         calculate D2E/DX2 analytically  !
 ! A25   A(4,5,6)              111.1434         calculate D2E/DX2 analytically  !
 ! A26   A(4,5,11)             109.5152         calculate D2E/DX2 analytically  !
 ! A27   A(4,5,12)             110.4396         calculate D2E/DX2 analytically  !
 ! A28   A(6,5,11)             109.5152         calculate D2E/DX2 analytically  !
 ! A29   A(6,5,12)             110.4396         calculate D2E/DX2 analytically  !
 ! A30   A(11,5,12)            105.6352         calculate D2E/DX2 analytically  !
 ! A31   A(1,6,5)              113.6554         calculate D2E/DX2 analytically  !
 ! A32   A(1,6,13)             108.5544         calculate D2E/DX2 analytically  !
 ! A33   A(1,6,14)             109.5084         calculate D2E/DX2 analytically  !
 ! A34   A(5,6,13)             108.3317         calculate D2E/DX2 analytically  !
 ! A35   A(5,6,14)             110.4379         calculate D2E/DX2 analytically  !
 ! A36   A(13,6,14)            106.0473         calculate D2E/DX2 analytically  !
 ! A37   A(3,15,16)            111.2602         calculate D2E/DX2 analytically  !
 ! A38   A(3,15,17)            111.0939         calculate D2E/DX2 analytically  !
 ! A39   A(3,15,18)            111.4629         calculate D2E/DX2 analytically  !
 ! A40   A(16,15,17)           107.5139         calculate D2E/DX2 analytically  !
 ! A41   A(16,15,18)           107.6541         calculate D2E/DX2 analytically  !
 ! A42   A(17,15,18)           107.6661         calculate D2E/DX2 analytically  !
 ! A43   A(3,19,20)            110.2159         calculate D2E/DX2 analytically  !
 ! A44   A(3,19,21)            111.0354         calculate D2E/DX2 analytically  !
 ! A45   A(3,19,22)            113.4414         calculate D2E/DX2 analytically  !
 ! A46   A(20,19,21)           107.4087         calculate D2E/DX2 analytically  !
 ! A47   A(20,19,22)           107.0707         calculate D2E/DX2 analytically  !
 ! A48   A(21,19,22)           107.4009         calculate D2E/DX2 analytically  !
 ! A49   A(1,23,24)            111.0939         calculate D2E/DX2 analytically  !
 ! A50   A(1,23,25)            111.2603         calculate D2E/DX2 analytically  !
 ! A51   A(1,23,26)            111.463          calculate D2E/DX2 analytically  !
 ! A52   A(24,23,25)           107.5138         calculate D2E/DX2 analytically  !
 ! A53   A(24,23,26)           107.666          calculate D2E/DX2 analytically  !
 ! A54   A(25,23,26)           107.6541         calculate D2E/DX2 analytically  !
 ! A55   A(1,27,28)            111.0352         calculate D2E/DX2 analytically  !
 ! A56   A(1,27,29)            110.216          calculate D2E/DX2 analytically  !
 ! A57   A(1,27,30)            113.4414         calculate D2E/DX2 analytically  !
 ! A58   A(28,27,29)           107.4088         calculate D2E/DX2 analytically  !
 ! A59   A(28,27,30)           107.4009         calculate D2E/DX2 analytically  !
 ! A60   A(29,27,30)           107.0709         calculate D2E/DX2 analytically  !
 ! D1    D(6,1,2,3)            -46.7203         calculate D2E/DX2 analytically  !
 ! D2    D(6,1,2,7)             73.5722         calculate D2E/DX2 analytically  !
 ! D3    D(6,1,2,8)           -172.8451         calculate D2E/DX2 analytically  !
 ! D4    D(23,1,2,3)          -165.006          calculate D2E/DX2 analytically  !
 ! D5    D(23,1,2,7)           -44.7135         calculate D2E/DX2 analytically  !
 ! D6    D(23,1,2,8)            68.8692         calculate D2E/DX2 analytically  !
 ! D7    D(27,1,2,3)            76.7208         calculate D2E/DX2 analytically  !
 ! D8    D(27,1,2,7)          -162.9867         calculate D2E/DX2 analytically  !
 ! D9    D(27,1,2,8)           -49.404          calculate D2E/DX2 analytically  !
 ! D10   D(2,1,6,5)             50.0197         calculate D2E/DX2 analytically  !
 ! D11   D(2,1,6,13)           -70.5925         calculate D2E/DX2 analytically  !
 ! D12   D(2,1,6,14)           174.0502         calculate D2E/DX2 analytically  !
 ! D13   D(23,1,6,5)           167.5898         calculate D2E/DX2 analytically  !
 ! D14   D(23,1,6,13)           46.9776         calculate D2E/DX2 analytically  !
 ! D15   D(23,1,6,14)          -68.3797         calculate D2E/DX2 analytically  !
 ! D16   D(27,1,6,5)           -74.7672         calculate D2E/DX2 analytically  !
 ! D17   D(27,1,6,13)          164.6206         calculate D2E/DX2 analytically  !
 ! D18   D(27,1,6,14)           49.2632         calculate D2E/DX2 analytically  !
 ! D19   D(2,1,23,24)          178.6834         calculate D2E/DX2 analytically  !
 ! D20   D(2,1,23,25)          -61.5682         calculate D2E/DX2 analytically  !
 ! D21   D(2,1,23,26)           58.6065         calculate D2E/DX2 analytically  !
 ! D22   D(6,1,23,24)           60.2581         calculate D2E/DX2 analytically  !
 ! D23   D(6,1,23,25)         -179.9935         calculate D2E/DX2 analytically  !
 ! D24   D(6,1,23,26)          -59.8188         calculate D2E/DX2 analytically  !
 ! D25   D(27,1,23,24)         -59.4836         calculate D2E/DX2 analytically  !
 ! D26   D(27,1,23,25)          60.2648         calculate D2E/DX2 analytically  !
 ! D27   D(27,1,23,26)        -179.5605         calculate D2E/DX2 analytically  !
 ! D28   D(2,1,27,28)           52.5628         calculate D2E/DX2 analytically  !
 ! D29   D(2,1,27,29)          171.4579         calculate D2E/DX2 analytically  !
 ! D30   D(2,1,27,30)          -68.5001         calculate D2E/DX2 analytically  !
 ! D31   D(6,1,27,28)          175.2304         calculate D2E/DX2 analytically  !
 ! D32   D(6,1,27,29)          -65.8745         calculate D2E/DX2 analytically  !
 ! D33   D(6,1,27,30)           54.1675         calculate D2E/DX2 analytically  !
 ! D34   D(23,1,27,28)         -66.0624         calculate D2E/DX2 analytically  !
 ! D35   D(23,1,27,29)          52.8326         calculate D2E/DX2 analytically  !
 ! D36   D(23,1,27,30)         172.8747         calculate D2E/DX2 analytically  !
 ! D37   D(1,2,3,4)             46.7204         calculate D2E/DX2 analytically  !
 ! D38   D(1,2,3,15)           165.006          calculate D2E/DX2 analytically  !
 ! D39   D(1,2,3,19)           -76.7208         calculate D2E/DX2 analytically  !
 ! D40   D(7,2,3,4)            -73.5721         calculate D2E/DX2 analytically  !
 ! D41   D(7,2,3,15)            44.7136         calculate D2E/DX2 analytically  !
 ! D42   D(7,2,3,19)           162.9868         calculate D2E/DX2 analytically  !
 ! D43   D(8,2,3,4)            172.8452         calculate D2E/DX2 analytically  !
 ! D44   D(8,2,3,15)           -68.8692         calculate D2E/DX2 analytically  !
 ! D45   D(8,2,3,19)            49.404          calculate D2E/DX2 analytically  !
 ! D46   D(2,3,4,5)            -50.0198         calculate D2E/DX2 analytically  !
 ! D47   D(2,3,4,9)             70.5925         calculate D2E/DX2 analytically  !
 ! D48   D(2,3,4,10)          -174.0503         calculate D2E/DX2 analytically  !
 ! D49   D(15,3,4,5)          -167.5898         calculate D2E/DX2 analytically  !
 ! D50   D(15,3,4,9)           -46.9775         calculate D2E/DX2 analytically  !
 ! D51   D(15,3,4,10)           68.3797         calculate D2E/DX2 analytically  !
 ! D52   D(19,3,4,5)            74.7672         calculate D2E/DX2 analytically  !
 ! D53   D(19,3,4,9)          -164.6205         calculate D2E/DX2 analytically  !
 ! D54   D(19,3,4,10)          -49.2633         calculate D2E/DX2 analytically  !
 ! D55   D(2,3,15,16)           61.5684         calculate D2E/DX2 analytically  !
 ! D56   D(2,3,15,17)         -178.6832         calculate D2E/DX2 analytically  !
 ! D57   D(2,3,15,18)          -58.6063         calculate D2E/DX2 analytically  !
 ! D58   D(4,3,15,16)          179.9936         calculate D2E/DX2 analytically  !
 ! D59   D(4,3,15,17)          -60.2579         calculate D2E/DX2 analytically  !
 ! D60   D(4,3,15,18)           59.8189         calculate D2E/DX2 analytically  !
 ! D61   D(19,3,15,16)         -60.2646         calculate D2E/DX2 analytically  !
 ! D62   D(19,3,15,17)          59.4838         calculate D2E/DX2 analytically  !
 ! D63   D(19,3,15,18)         179.5606         calculate D2E/DX2 analytically  !
 ! D64   D(2,3,19,20)         -171.4549         calculate D2E/DX2 analytically  !
 ! D65   D(2,3,19,21)          -52.5598         calculate D2E/DX2 analytically  !
 ! D66   D(2,3,19,22)           68.5032         calculate D2E/DX2 analytically  !
 ! D67   D(4,3,19,20)           65.8775         calculate D2E/DX2 analytically  !
 ! D68   D(4,3,19,21)         -175.2274         calculate D2E/DX2 analytically  !
 ! D69   D(4,3,19,22)          -54.1644         calculate D2E/DX2 analytically  !
 ! D70   D(15,3,19,20)         -52.8297         calculate D2E/DX2 analytically  !
 ! D71   D(15,3,19,21)          66.0654         calculate D2E/DX2 analytically  !
 ! D72   D(15,3,19,22)        -172.8716         calculate D2E/DX2 analytically  !
 ! D73   D(3,4,5,6)             56.7055         calculate D2E/DX2 analytically  !
 ! D74   D(3,4,5,11)           177.841          calculate D2E/DX2 analytically  !
 ! D75   D(3,4,5,12)           -66.2314         calculate D2E/DX2 analytically  !
 ! D76   D(9,4,5,6)            -64.032          calculate D2E/DX2 analytically  !
 ! D77   D(9,4,5,11)            57.1036         calculate D2E/DX2 analytically  !
 ! D78   D(9,4,5,12)           173.0312         calculate D2E/DX2 analytically  !
 ! D79   D(10,4,5,6)          -179.7692         calculate D2E/DX2 analytically  !
 ! D80   D(10,4,5,11)          -58.6337         calculate D2E/DX2 analytically  !
 ! D81   D(10,4,5,12)           57.294          calculate D2E/DX2 analytically  !
 ! D82   D(4,5,6,1)            -56.7054         calculate D2E/DX2 analytically  !
 ! D83   D(4,5,6,13)            64.032          calculate D2E/DX2 analytically  !
 ! D84   D(4,5,6,14)           179.7692         calculate D2E/DX2 analytically  !
 ! D85   D(11,5,6,1)          -177.841          calculate D2E/DX2 analytically  !
 ! D86   D(11,5,6,13)          -57.1036         calculate D2E/DX2 analytically  !
 ! D87   D(11,5,6,14)           58.6336         calculate D2E/DX2 analytically  !
 ! D88   D(12,5,6,1)            66.2314         calculate D2E/DX2 analytically  !
 ! D89   D(12,5,6,13)         -173.0312         calculate D2E/DX2 analytically  !
 ! D90   D(12,5,6,14)          -57.294          calculate D2E/DX2 analytically  !
 --------------------------------------------------------------------------------
 Trust Radius=3.00D-01 FncErr=1.00D-07 GrdErr=1.00D-07 EigMax=2.50D+02 EigMin=1.00D-04
 Number of steps in this run=      2 maximum allowed number of steps=      2.
 GradGradGradGradGradGradGradGradGradGradGradGradGradGradGradGradGradGrad

 Leave Link  103 at Wed Jul 23 16:40:17 2025, MaxMem=   104857600 cpu:               0.3 elap:               0.0
 (Enter /opt/linux/rocky/8/software/gaussian/16c01_avx2/g16/l202.exe)
                          Input orientation:                          
 ---------------------------------------------------------------------
 Center     Atomic      Atomic             Coordinates (Angstroms)
 Number     Number       Type             X           Y           Z
 ---------------------------------------------------------------------
      1          6           0        1.336962   -0.261051   -0.048618
      2          6           0        0.000000   -0.949566   -0.438094
      3          6           0       -1.336962   -0.261051   -0.048618
      4          6           0       -1.264769    1.238197   -0.422374
      5          6           0       -0.000001    1.939206    0.087668
      6          6           0        1.264769    1.238197   -0.422373
      7          1           0        0.000001   -1.038960   -1.532028
      8          1           0        0.000000   -1.979582   -0.059036
      9          1           0       -1.291599    1.327244   -1.516727
     10          1           0       -2.161538    1.750906   -0.054455
     11          1           0       -0.000001    2.982605   -0.246187
     12          1           0       -0.000001    1.979502    1.182513
     13          1           0        1.291599    1.327245   -1.516726
     14          1           0        2.161537    1.750907   -0.054453
     15          6           0       -2.464446   -0.926151   -0.860728
     16          1           0       -2.548449   -1.991999   -0.624345
     17          1           0       -3.432397   -0.463210   -0.643393
     18          1           0       -2.288316   -0.837830   -1.937046
     19          6           0       -1.686665   -0.431703    1.443364
     20          1           0       -2.699870   -0.065979    1.638668
     21          1           0       -1.657062   -1.485952    1.735698
     22          1           0       -1.016801    0.110363    2.110370
     23          6           0        2.464447   -0.926148   -0.860727
     24          1           0        3.432398   -0.463209   -0.643389
     25          1           0        2.548450   -1.991997   -0.624347
     26          1           0        2.288320   -0.837824   -1.937045
     27          6           0        1.686664   -0.431705    1.443365
     28          1           0        1.657112   -1.485961    1.735682
     29          1           0        2.699849   -0.065933    1.638681
     30          1           0        1.016767    0.110316    2.110373
 ---------------------------------------------------------------------
                    Distance matrix (angstroms):
                    1          2          3          4          5
     1  C    0.000000
     2  C    1.553452   0.000000
     3  C    2.673924   1.553452   0.000000
     4  C    3.025961   2.527092   1.546819   0.000000
     5  C    2.578212   2.936227   2.578211   1.533361   0.000000
     6  C    1.546819   2.527092   3.025961   2.529538   1.533362
     7  H    2.143155   1.097580   2.143156   2.831328   3.390116
     8  H    2.177366   1.097551   2.177366   3.476458   3.921533
     9  H    3.404021   2.831173   2.163350   1.098298   2.148675
    10  H    4.035778   3.480226   2.174381   1.096553   2.174373
    11  H    3.513945   3.936851   3.513944   2.161860   1.095509
    12  H    2.885001   3.347507   2.885000   2.173668   1.095586
    13  H    2.163350   2.831173   3.404021   2.782185   2.148676
    14  H    2.174381   3.480227   4.035778   3.483936   2.174374
    15  C    3.943676   2.500532   1.540487   2.513122   3.896564
    16  H    4.292326   2.759701   2.189827   3.481780   4.738768
    17  H    4.810552   3.472757   2.187572   2.764461   4.252928
    18  H    4.128132   2.737833   2.191782   2.766183   4.128896
    19  C    3.376011   2.579323   1.541890   2.539201   3.209978
    20  H    4.379612   3.518944   2.177729   2.829891   3.703466
    21  H    3.694367   2.785487   2.187837   3.497450   4.146512
    22  H    3.215490   2.941429   2.213974   2.783575   2.910305
    23  C    1.540486   2.500533   3.943677   4.334004   3.896564
    24  H    2.187572   3.472758   4.810552   5.000701   4.252929
    25  H    2.189827   2.759701   4.292326   5.001558   4.738768
    26  H    2.191781   2.737837   4.128134   4.385035   4.128895
    27  C    1.541891   2.579322   3.376011   3.870467   3.209980
    28  H    2.187836   2.785506   3.694403   4.540444   4.146534
    29  H    2.177730   3.518947   4.379600   4.654772   3.703433
    30  H    2.213974   2.941403   3.215462   3.590589   2.910325
                    6          7          8          9         10
     6  C    0.000000
     7  H    2.831328   0.000000
     8  H    3.476457   1.747706   0.000000
     9  H    2.782186   2.695809   3.837732   0.000000
    10  H    3.483937   3.826072   4.311474   1.753432   0.000000
    11  H    2.161861   4.222129   4.965715   2.454123   2.495213
    12  H    2.173669   4.059538   4.149191   3.062607   2.500917
    13  H    1.098298   2.695809   3.837733   2.583198   3.773842
    14  H    1.096553   3.826072   4.311474   3.773842   4.323075
    15  C    4.334005   2.556730   2.797485   2.623679   2.812199
    16  H    5.001559   2.868235   2.610425   3.659698   3.805760
    17  H    5.000700   3.592007   3.797658   2.924287   2.619970
    18  H    4.385035   2.332571   3.172839   2.420260   3.203401
    19  C    3.870466   3.473696   2.738243   3.465849   2.689377
    20  H    4.654796   4.276600   3.719324   3.725697   2.541169
    21  H    4.540413   3.691029   2.492107   4.315774   3.733148
    22  H    3.590593   3.952454   3.179320   3.835642   2.947587
    23  C    2.513120   2.556729   2.797486   4.428995   5.405222
    24  H    2.764461   3.592007   3.797659   5.126850   6.044937
    25  H    3.481779   2.868232   2.610427   5.153608   6.043020
    26  H    2.766180   2.332573   3.172844   4.204760   5.481506
    27  C    2.539202   3.473695   2.738242   4.552592   4.670751
    28  H    3.497452   3.691037   2.492127   5.214133   5.316388
    29  H    2.829868   4.276606   3.719339   5.275339   5.459001
    30  H    2.783599   3.952434   3.179280   4.468257   4.180866
                   11         12         13         14         15
    11  H    0.000000
    12  H    1.745680   0.000000
    13  H    2.454122   3.062607   0.000000
    14  H    2.495213   2.500917   1.753432   0.000000
    15  C    4.661494   4.323325   4.428995   5.405223   0.000000
    16  H    5.602167   5.052934   5.153610   6.043020   1.094973
    17  H    4.879832   4.591527   5.126849   6.044937   1.094750
    18  H    4.763519   4.785958   4.204760   5.481506   1.094204
    19  C    4.166163   2.954114   4.552591   4.670749   2.481585
    20  H    4.487297   3.417801   5.275359   5.459030   2.653733
    21  H    5.161562   3.880881   5.214110   5.316352   2.776090
    22  H    3.851885   2.321310   4.468259   4.180870   3.463735
    23  C    4.661493   4.323325   2.623678   2.812198   4.928893
    24  H    4.879833   4.591527   2.924289   2.619970   5.918980
    25  H    5.602167   5.052935   3.659697   3.805760   5.130403
    26  H    4.763517   4.785957   2.420257   3.203397   4.873915
    27  C    4.166166   2.954116   3.465851   2.689379   4.773367
    28  H    5.161580   3.880909   4.315772   3.733141   4.903261
    29  H    4.487260   3.417760   3.725682   2.541140   5.801462
    30  H    3.851913   2.321335   3.835661   2.947628   4.692606
                   16         17         18         19         20
    16  H    0.000000
    17  H    1.766047   0.000000
    18  H    1.767190   1.767144   0.000000
    19  C    2.729948   2.720869   3.457469   0.000000
    20  H    2.975518   2.429442   3.681149   1.094752   0.000000
    21  H    2.573025   3.139728   3.782538   1.094430   1.764422
    22  H    3.774194   3.707735   4.347114   1.089702   1.756793
    23  C    5.130404   5.918979   4.873912   4.773368   5.801468
    24  H    6.173175   6.864795   5.877113   5.528140   6.555173
    25  H    5.096899   6.173174   5.142916   4.964488   6.031223
    26  H    5.142921   5.877114   4.576636   5.233795   6.185750
    27  C    4.964486   5.528140   5.233792   3.373329   4.406084
    28  H    4.848974   5.710440   5.429126   3.518203   4.583563
    29  H    6.031223   6.555161   6.185745   4.406069   5.399719
    30  H    4.960764   5.263765   5.310758   2.836764   3.750597
                   21         22         23         24         25
    21  H    0.000000
    22  H    1.760266   0.000000
    23  C    4.903227   4.692639   0.000000
    24  H    5.710399   5.263796   1.094750   0.000000
    25  H    4.848941   4.960807   1.094973   1.766046   0.000000
    26  H    5.429102   5.310786   1.094204   1.767144   1.767190
    27  C    3.518153   2.836804   2.481584   2.720868   2.729949
    28  H    3.314174   3.136631   2.776062   3.139688   2.572993
    29  H    4.583507   3.750608   2.653757   2.429465   2.975557
    30  H    3.136529   2.033568   3.463736   3.707750   3.774184
                   26         27         28         29         30
    26  H    0.000000
    27  C    3.457469   0.000000
    28  H    3.782516   1.094431   0.000000
    29  H    3.681167   1.094752   1.764423   0.000000
    30  H    4.347115   1.089701   1.760266   1.756793   0.000000
 Stoichiometry    C10H20
 Framework group  C1[X(C10H20)]
 Deg. of freedom    84
 Full point group                 C1      NOp   1
 RotChk:  IX=0 Diff= 8.63D-16
 Largest Abelian subgroup         C1      NOp   1
 Largest concise Abelian subgroup C1      NOp   1
                         Standard orientation:                         
 ---------------------------------------------------------------------
 Center     Atomic      Atomic             Coordinates (Angstroms)
 Number     Number       Type             X           Y           Z
 ---------------------------------------------------------------------
      1          6           0        1.336962   -0.261051   -0.048618
      2          6           0        0.000000   -0.949566   -0.438094
      3          6           0       -1.336962   -0.261051   -0.048618
      4          6           0       -1.264769    1.238197   -0.422374
      5          6           0       -0.000001    1.939206    0.087668
      6          6           0        1.264769    1.238197   -0.422373
      7          1           0        0.000001   -1.038960   -1.532028
      8          1           0       -0.000000   -1.979582   -0.059036
      9          1           0       -1.291599    1.327244   -1.516727
     10          1           0       -2.161538    1.750906   -0.054455
     11          1           0       -0.000001    2.982605   -0.246187
     12          1           0       -0.000001    1.979502    1.182513
     13          1           0        1.291599    1.327245   -1.516726
     14          1           0        2.161537    1.750907   -0.054453
     15          6           0       -2.464446   -0.926151   -0.860728
     16          1           0       -2.548449   -1.991999   -0.624345
     17          1           0       -3.432397   -0.463210   -0.643393
     18          1           0       -2.288316   -0.837830   -1.937046
     19          6           0       -1.686665   -0.431703    1.443364
     20          1           0       -2.699870   -0.065979    1.638668
     21          1           0       -1.657062   -1.485952    1.735698
     22          1           0       -1.016801    0.110363    2.110370
     23          6           0        2.464447   -0.926148   -0.860727
     24          1           0        3.432398   -0.463209   -0.643389
     25          1           0        2.548450   -1.991997   -0.624347
     26          1           0        2.288320   -0.837824   -1.937045
     27          6           0        1.686664   -0.431705    1.443365
     28          1           0        1.657112   -1.485961    1.735682
     29          1           0        2.699849   -0.065933    1.638681
     30          1           0        1.016767    0.110316    2.110373
 ---------------------------------------------------------------------
 Rotational constants (GHZ):           1.8439717           1.0304478           0.9371811
 Leave Link  202 at Wed Jul 23 16:40:17 2025, MaxMem=   104857600 cpu:               0.1 elap:               0.0
 (Enter /opt/linux/rocky/8/software/gaussian/16c01_avx2/g16/l301.exe)
 Standard basis: 6-311G(d) (5D, 7F)
 Ernie: Thresh=  0.10000D-02 Tol=  0.10000D-05 Strict=F.
 There are   250 symmetry adapted cartesian basis functions of A   symmetry.
 There are   240 symmetry adapted basis functions of A   symmetry.
   240 basis functions,   420 primitive gaussians,   250 cartesian basis functions
    40 alpha electrons       40 beta electrons
       nuclear repulsion energy       604.7692323635 Hartrees.
 IExCor=  402 DFT=T Ex+Corr=B3LYP ExCW=0 ScaHFX=  0.200000
 ScaDFX=  0.800000  0.720000  1.000000  0.810000 ScalE2=  1.000000  1.000000
 IRadAn=      5 IRanWt=     -1 IRanGd=            0 ICorTp=0 IEmpDi=  4
 NAtoms=   30 NActive=   30 NUniq=   30 SFac= 1.00D+00 NAtFMM=   60 NAOKFM=F Big=F
 Integral buffers will be    131072 words long.
 Raffenetti 2 integral format.
 Two-electron integral symmetry is turned on.
 Leave Link  301 at Wed Jul 23 16:40:17 2025, MaxMem=   104857600 cpu:               0.7 elap:               0.0
 (Enter /opt/linux/rocky/8/software/gaussian/16c01_avx2/g16/l302.exe)
 NPDir=0 NMtPBC=     1 NCelOv=     1 NCel=       1 NClECP=     1 NCelD=      1
         NCelK=      1 NCelE2=     1 NClLst=     1 CellRange=     0.0.
 One-electron integrals computed using PRISM.
 One-electron integral symmetry used in STVInt
 PrsmSu:  requested number of processors reduced to:  29 ShMem   1 Linda.
 NBasis=   240 RedAO= T EigKep=  1.44D-03  NBF=   240
 NBsUse=   240 1.00D-06 EigRej= -1.00D+00 NBFU=   240
 Precomputing XC quadrature grid using
 IXCGrd= 4 IRadAn=           5 IRanWt=          -1 IRanGd=           0 AccXCQ= 0.00D+00.
 Generated NRdTot=       0 NPtTot=           0 NUsed=           0 NTot=          32
 NSgBfM=   250   250   250   250   250 MxSgAt=    30 MxSgA2=    30.
 Leave Link  302 at Wed Jul 23 16:40:17 2025, MaxMem=   104857600 cpu:               5.3 elap:               0.2
 (Enter /opt/linux/rocky/8/software/gaussian/16c01_avx2/g16/l303.exe)
 DipDrv:  MaxL=1.
 Leave Link  303 at Wed Jul 23 16:40:17 2025, MaxMem=   104857600 cpu:               0.6 elap:               0.0
 (Enter /opt/linux/rocky/8/software/gaussian/16c01_avx2/g16/l401.exe)
 Initial guess from the checkpoint file:  "1133tetramethylcyclohexane_b3lyp6311gdp.chk"
 B after Tr=    -0.000000   -0.000000    0.000000
         Rot=    1.000000   -0.000000    0.000000    0.000000 Ang=   0.00 deg.
 Guess basis will be translated and rotated to current coordinates.
 JPrj=2 DoOrth=T DoCkMO=T.
 Leave Link  401 at Wed Jul 23 16:40:18 2025, MaxMem=   104857600 cpu:               3.5 elap:               0.1
 (Enter /opt/linux/rocky/8/software/gaussian/16c01_avx2/g16/l502.exe)
 Integral symmetry usage will be decided dynamically.
 Closed shell SCF:
 Using DIIS extrapolation, IDIIS=  1040.
 NGot=   104857600 LenX=   104719964 LenY=   104657023
 Requested convergence on RMS density matrix=1.00D-08 within 128 cycles.
 Requested convergence on MAX density matrix=1.00D-06.
 Requested convergence on             energy=1.00D-06.
 No special actions if energy rises.
 Fock matrices will be formed incrementally for  20 cycles.

 Cycle   1  Pass 1  IDiag  1:
 FoFJK:  IHMeth= 1 ICntrl=       0 DoSepK=F KAlg= 0 I1Cent=           0 FoldK=F
 IRaf= 960000000 NMat=       1 IRICut=       1 DoRegI=T DoRafI=F ISym2E= 0 IDoP0=0 IntGTp=1.
 FoFCou: FMM=F IPFlag=           0 FMFlag=      100000 FMFlg1=           0
         NFxFlg=           0 DoJE=F BraDBF=F KetDBF=F FulRan=T
         wScrn=  0.000000 ICntrl=         0 IOpCl=  0 I1Cent=           0 NGrid=           0
         NMat0=    1 NMatS0=      1 NMatT0=    0 NMatD0=    1 NMtDS0=    0 NMtDT0=    0
 Symmetry not used in FoFCou.
 E= -393.209710852260    
 DIIS: error= 1.18D-08 at cycle   1 NSaved=   1.
 NSaved= 1 IEnMin= 1 EnMin= -393.209710852260     IErMin= 1 ErrMin= 1.18D-08
 ErrMax= 1.18D-08  0.00D+00 EMaxC= 1.00D-01 BMatC= 3.64D-14 BMatP= 3.64D-14
 IDIUse=1 WtCom= 1.00D+00 WtEn= 0.00D+00
 Coeff-Com:  0.100D+01
 Coeff:      0.100D+01
 Gap=     0.323 Goal=   None    Shift=    0.000
 RMSDP=1.48D-09 MaxDP=5.90D-08              OVMax= 7.07D-08

 SCF Done:  E(RB3LYP) =  -393.209710852     A.U. after    1 cycles
            NFock=  1  Conv=0.15D-08     -V/T= 2.0048
 KE= 3.913416503051D+02 PE=-2.119418613626D+03 EE= 7.300980201051D+02
 Leave Link  502 at Wed Jul 23 16:40:18 2025, MaxMem=   104857600 cpu:              20.7 elap:               0.6
 (Enter /opt/linux/rocky/8/software/gaussian/16c01_avx2/g16/l801.exe)
 DoSCS=F DFT=T ScalE2(SS,OS)=  1.000000  1.000000
 Range of M.O.s used for correlation:     1   240
 NBasis=   240 NAE=    40 NBE=    40 NFC=     0 NFV=     0
 NROrb=    240 NOA=    40 NOB=    40 NVA=   200 NVB=   200
 Leave Link  801 at Wed Jul 23 16:40:19 2025, MaxMem=   104857600 cpu:               0.4 elap:               0.0
 (Enter /opt/linux/rocky/8/software/gaussian/16c01_avx2/g16/l1101.exe)
 Using compressed storage, NAtomX=    30.
 Will process     31 centers per pass.
 PrsmSu:  requested number of processors reduced to:  28 ShMem   1 Linda.
 PrsmSu:  requested number of processors reduced to:  20 ShMem   1 Linda.
 Leave Link 1101 at Wed Jul 23 16:40:19 2025, MaxMem=   104857600 cpu:               5.1 elap:               0.2
 (Enter /opt/linux/rocky/8/software/gaussian/16c01_avx2/g16/l1102.exe)
 Symmetrizing basis deriv contribution to polar:
 IMax=3 JMax=2 DiffMx= 0.00D+00
 Leave Link 1102 at Wed Jul 23 16:40:20 2025, MaxMem=   104857600 cpu:               0.6 elap:               0.0
 (Enter /opt/linux/rocky/8/software/gaussian/16c01_avx2/g16/l1110.exe)
 Forming Gx(P) for the SCF density, NAtomX=    30.
 Integral derivatives from FoFJK, PRISM(SPDF).
 Do as many integral derivatives as possible in FoFJK.
 G2DrvN: MDV=     104854374.
 G2DrvN: will do     6 centers at a time, making    6 passes.
 G2DrvN:  IPasSy=1 do centers    0 through    5.
 Calling FoFCou, ICntrl=  3107 FMM=F I1Cent=   0 AccDes= 0.00D+00.
 FoFJK:  IHMeth= 1 ICntrl=    3107 DoSepK=F KAlg= 0 I1Cent=           0 FoldK=F
 IRaf=         0 NMat=       1 IRICut=       1 DoRegI=T DoRafI=F ISym2E= 0 IDoP0=0 IntGTp=1.
 FoFCou: FMM=F IPFlag=           0 FMFlag=      100000 FMFlg1=           0
         NFxFlg=           0 DoJE=F BraDBF=F KetDBF=F FulRan=T
         wScrn=  0.000000 ICntrl=      3107 IOpCl=  0 I1Cent=           0 NGrid=           0
         NMat0=    1 NMatS0=      1 NMatT0=    0 NMatD0=    1 NMtDS0=    0 NMtDT0=    0
 Symmetry not used in FoFCou.
 G2DrvN:  IPasSy=1 do centers    6 through   11.
 Calling FoFCou, ICntrl=  3107 FMM=F I1Cent=   0 AccDes= 0.00D+00.
 G2DrvN:  IPasSy=1 do centers   12 through   17.
 Calling FoFCou, ICntrl=  3107 FMM=F I1Cent=   0 AccDes= 0.00D+00.
 G2DrvN:  IPasSy=1 do centers   18 through   23.
 Calling FoFCou, ICntrl=  3107 FMM=F I1Cent=   0 AccDes= 0.00D+00.
 G2DrvN:  IPasSy=1 do centers   24 through   29.
 Calling FoFCou, ICntrl=  3107 FMM=F I1Cent=   0 AccDes= 0.00D+00.
 G2DrvN:  IPasSy=1 do centers   30 through   30.
 Calling FoFCou, ICntrl=  3107 FMM=F I1Cent=   0 AccDes= 0.00D+00.
 End of G2Drv F.D. properties file   721 does not exist.
 End of G2Drv F.D. properties file   722 does not exist.
 End of G2Drv F.D. properties file   788 does not exist.
 Leave Link 1110 at Wed Jul 23 16:40:42 2025, MaxMem=   104857600 cpu:             791.5 elap:              22.2
 (Enter /opt/linux/rocky/8/software/gaussian/16c01_avx2/g16/l1002.exe)
 Minotr:  Closed shell wavefunction.
          IDoAtm=111111111111111111111111111111
          Direct CPHF calculation.
          Differentiating once with respect to electric field.
                with respect to dipole field.
          Differentiating once with respect to nuclear coordinates.
          Requested convergence is 1.0D-08 RMS, and 1.0D-07 maximum.
          Secondary convergence is 1.0D-12 RMS, and 1.0D-12 maximum.
          NewPWx=T KeepS1=F KeepF1=F KeepIn=T MapXYZ=F SortEE=F KeepMc=T.
         9025 words used for storage of precomputed grid.
 Two-electron integrals replicated using symmetry.
          MDV=     104857600 using IRadAn=       1.
          Solving linear equations simultaneously, MaxMat=     360.
 FoF2E skips out because all densities are zero.
 CalDSu exits because no D1Ps are significant.
 FoFJK:  IHMeth= 1 ICntrl=       0 DoSepK=F KAlg= 0 I1Cent=           0 FoldK=F
 IRaf= 950000000 NMat=      18 IRICut=      45 DoRegI=T DoRafI=T ISym2E= 2 IDoP0=0 IntGTp=1.
 FoFCou: FMM=F IPFlag=           0 FMFlag=      100000 FMFlg1=           0
         NFxFlg=           0 DoJE=F BraDBF=F KetDBF=F FulRan=T
         wScrn=  0.000000 ICntrl=         0 IOpCl=  0 I1Cent=           0 NGrid=           0
         NMat0=   18 NMatS0=     18 NMatT0=    0 NMatD0=   18 NMtDS0=    0 NMtDT0=    0
 Integrals replicated using symmetry in FoFCou.
 Raff kept on since  91.24% of shell-pairs survive, threshold=   0.20 IRatSp=91.
          There are    93 degrees of freedom in the 1st order CPHF.  IDoFFX=6 NUNeed=     3.
     90 vectors produced by pass  0 Test12= 8.60D-15 1.08D-09 XBig12= 7.23D+01 2.57D+00.
 AX will form    18 AO Fock derivatives at one time.
     90 vectors produced by pass  1 Test12= 8.60D-15 1.08D-09 XBig12= 4.59D+00 2.87D-01.
     90 vectors produced by pass  2 Test12= 8.60D-15 1.08D-09 XBig12= 1.54D-02 1.96D-02.
     90 vectors produced by pass  3 Test12= 8.60D-15 1.08D-09 XBig12= 2.05D-05 1.09D-03.
     90 vectors produced by pass  4 Test12= 8.60D-15 1.08D-09 XBig12= 2.15D-08 2.15D-05.
     41 vectors produced by pass  5 Test12= 8.60D-15 1.08D-09 XBig12= 1.93D-11 5.36D-07.
      3 vectors produced by pass  6 Test12= 8.60D-15 1.08D-09 XBig12= 2.08D-14 1.50D-08.
 InvSVY:  IOpt=1 It=  1 EMax= 1.24D-14
 Solved reduced A of dimension   494 with    93 vectors.
 FullF1:  Do perturbations      1 to       3.
 Isotropic polarizability for W=    0.000000      110.90 Bohr**3.
 End of Minotr F.D. properties file   721 does not exist.
 End of Minotr F.D. properties file   722 does not exist.
 End of Minotr F.D. properties file   788 does not exist.
 Leave Link 1002 at Wed Jul 23 16:41:21 2025, MaxMem=   104857600 cpu:            1370.0 elap:              38.4
 (Enter /opt/linux/rocky/8/software/gaussian/16c01_avx2/g16/l601.exe)
 Copying SCF densities to generalized density rwf, IOpCl= 0 IROHF=0.

 **********************************************************************

            Population analysis using the SCF Density.

 **********************************************************************

 Orbital symmetries:
       Occupied  (A) (A) (A) (A) (A) (A) (A) (A) (A) (A) (A) (A)
                 (A) (A) (A) (A) (A) (A) (A) (A) (A) (A) (A) (A)
                 (A) (A) (A) (A) (A) (A) (A) (A) (A) (A) (A) (A)
                 (A) (A) (A) (A)
       Virtual   (A) (A) (A) (A) (A) (A) (A) (A) (A) (A) (A) (A)
                 (A) (A) (A) (A) (A) (A) (A) (A) (A) (A) (A) (A)
                 (A) (A) (A) (A) (A) (A) (A) (A) (A) (A) (A) (A)
                 (A) (A) (A) (A) (A) (A) (A) (A) (A) (A) (A) (A)
                 (A) (A) (A) (A) (A) (A) (A) (A) (A) (A) (A) (A)
                 (A) (A) (A) (A) (A) (A) (A) (A) (A) (A) (A) (A)
                 (A) (A) (A) (A) (A) (A) (A) (A) (A) (A) (A) (A)
                 (A) (A) (A) (A) (A) (A) (A) (A) (A) (A) (A) (A)
                 (A) (A) (A) (A) (A) (A) (A) (A) (A) (A) (A) (A)
                 (A) (A) (A) (A) (A) (A) (A) (A) (A) (A) (A) (A)
                 (A) (A) (A) (A) (A) (A) (A) (A) (A) (A) (A) (A)
                 (A) (A) (A) (A) (A) (A) (A) (A) (A) (A) (A) (A)
                 (A) (A) (A) (A) (A) (A) (A) (A) (A) (A) (A) (A)
                 (A) (A) (A) (A) (A) (A) (A) (A) (A) (A) (A) (A)
                 (A) (A) (A) (A) (A) (A) (A) (A) (A) (A) (A) (A)
                 (A) (A) (A) (A) (A) (A) (A) (A) (A) (A) (A) (A)
                 (A) (A) (A) (A) (A) (A) (A) (A)
 The electronic state is 1-A.
 Alpha  occ. eigenvalues --  -10.17840 -10.17838 -10.15994 -10.15875 -10.15872
 Alpha  occ. eigenvalues --  -10.15805 -10.15239 -10.15239 -10.15192 -10.15192
 Alpha  occ. eigenvalues --   -0.84626  -0.79586  -0.75821  -0.69039  -0.67825
 Alpha  occ. eigenvalues --   -0.67610  -0.67205  -0.59915  -0.55139  -0.51660
 Alpha  occ. eigenvalues --   -0.47353  -0.45407  -0.45116  -0.44074  -0.43388
 Alpha  occ. eigenvalues --   -0.41532  -0.41072  -0.39378  -0.38215  -0.38027
 Alpha  occ. eigenvalues --   -0.36519  -0.36428  -0.35801  -0.34256  -0.33309
 Alpha  occ. eigenvalues --   -0.33183  -0.32342  -0.30766  -0.29218  -0.29067
 Alpha virt. eigenvalues --    0.03219   0.05966   0.06390   0.06842   0.08014
 Alpha virt. eigenvalues --    0.08383   0.09234   0.10299   0.10889   0.11530
 Alpha virt. eigenvalues --    0.11884   0.12547   0.13112   0.14846   0.15491
 Alpha virt. eigenvalues --    0.15517   0.15821   0.17292   0.17979   0.18508
 Alpha virt. eigenvalues --    0.18912   0.19429   0.21245   0.22350   0.22788
 Alpha virt. eigenvalues --    0.23491   0.23737   0.25738   0.26397   0.26608
 Alpha virt. eigenvalues --    0.29344   0.30762   0.31071   0.34199   0.34531
 Alpha virt. eigenvalues --    0.35527   0.37380   0.38006   0.40174   0.40274
 Alpha virt. eigenvalues --    0.45413   0.46876   0.47147   0.48139   0.49109
 Alpha virt. eigenvalues --    0.49987   0.50033   0.51249   0.53104   0.53800
 Alpha virt. eigenvalues --    0.54838   0.56621   0.56919   0.57443   0.58129
 Alpha virt. eigenvalues --    0.58783   0.59336   0.60249   0.61219   0.61436
 Alpha virt. eigenvalues --    0.61909   0.62167   0.62868   0.63760   0.63970
 Alpha virt. eigenvalues --    0.65412   0.65875   0.66112   0.66181   0.67578
 Alpha virt. eigenvalues --    0.67793   0.68614   0.69822   0.69959   0.71558
 Alpha virt. eigenvalues --    0.71781   0.73880   0.77445   0.78340   0.86649
 Alpha virt. eigenvalues --    0.88359   0.97656   0.98394   1.01937   1.02782
 Alpha virt. eigenvalues --    1.06216   1.10853   1.10992   1.16020   1.17144
 Alpha virt. eigenvalues --    1.20402   1.21911   1.27547   1.27621   1.35011
 Alpha virt. eigenvalues --    1.38175   1.42914   1.46577   1.48373   1.50548
 Alpha virt. eigenvalues --    1.50842   1.52328   1.52353   1.53708   1.53984
 Alpha virt. eigenvalues --    1.54870   1.55293   1.57597   1.58214   1.60410
 Alpha virt. eigenvalues --    1.61362   1.61781   1.62403   1.62443   1.63820
 Alpha virt. eigenvalues --    1.64711   1.66502   1.68478   1.68746   1.70269
 Alpha virt. eigenvalues --    1.71526   1.73475   1.78759   1.79297   1.81721
 Alpha virt. eigenvalues --    1.82395   1.87266   1.93397   1.94513   2.00712
 Alpha virt. eigenvalues --    2.02128   2.03800   2.06572   2.10523   2.12179
 Alpha virt. eigenvalues --    2.15623   2.17490   2.22556   2.22596   2.27251
 Alpha virt. eigenvalues --    2.30401   2.34230   2.37947   2.39599   2.41000
 Alpha virt. eigenvalues --    2.42842   2.44634   2.48326   2.49633   2.50194
 Alpha virt. eigenvalues --    2.51816   2.52392   2.54536   2.55230   2.56414
 Alpha virt. eigenvalues --    2.60701   2.61334   2.65182   2.67364   2.74226
 Alpha virt. eigenvalues --    2.83643   2.91098   2.93403   2.99002   2.99275
 Alpha virt. eigenvalues --    3.02057   3.03971   3.06992   3.15323   3.19663
 Alpha virt. eigenvalues --    3.20426   3.22605   3.22960   3.24780   3.25086
 Alpha virt. eigenvalues --    3.28763   3.31100   3.33100   3.36085   3.38381
 Alpha virt. eigenvalues --    3.38954   3.45516   3.74799   3.93886   3.94910
 Alpha virt. eigenvalues --    4.03367   4.03778   4.13890   4.14780   4.23532
 Alpha virt. eigenvalues --   23.33315  23.48530  23.57305  23.61886  23.62871
 Alpha virt. eigenvalues --   23.70765  23.74530  23.76275  23.82224  23.84561
          Condensed to atoms (all electrons):
               1          2          3          4          5          6
     1  C    5.077760   0.343992  -0.033014  -0.006274  -0.055532   0.357769
     2  C    0.343992   5.460740   0.343993  -0.088129  -0.005680  -0.088129
     3  C   -0.033014   0.343993   5.077760   0.357769  -0.055532  -0.006274
     4  C   -0.006274  -0.088129   0.357769   5.346760   0.323844  -0.070312
     5  C   -0.055532  -0.005680  -0.055532   0.323844   5.219825   0.323844
     6  C    0.357769  -0.088129  -0.006274  -0.070312   0.323844   5.346760
     7  H   -0.045697   0.395668  -0.045697  -0.004693   0.000916  -0.004693
     8  H   -0.034071   0.382124  -0.034071   0.008781  -0.000879   0.008781
     9  H    0.000439  -0.005790  -0.044055   0.393161  -0.045154  -0.005196
    10  H   -0.000484   0.009159  -0.036910   0.395878  -0.038038   0.007875
    11  H    0.007484  -0.000957   0.007484  -0.039827   0.407932  -0.039827
    12  H   -0.006488  -0.000072  -0.006488  -0.047448   0.402427  -0.047448
    13  H   -0.044055  -0.005790   0.000439  -0.005196  -0.045154   0.393162
    14  H   -0.036909   0.009159  -0.000483   0.007875  -0.038038   0.395878
    15  C    0.006760  -0.096275   0.387176  -0.091491   0.007994  -0.000928
    16  H    0.000049  -0.008143  -0.034505   0.010076  -0.000434   0.000024
    17  H   -0.000378   0.010485  -0.034077  -0.007565  -0.000014   0.000032
    18  H    0.000067  -0.008974  -0.031330  -0.008415  -0.000039   0.000159
    19  C    0.000256  -0.084514   0.351682  -0.095773  -0.001607   0.000238
    20  H   -0.000412   0.009283  -0.034351  -0.007056   0.000167   0.000017
    21  H    0.000333  -0.008856  -0.034427   0.009468  -0.000423   0.000016
    22  H    0.001139  -0.003859  -0.031262  -0.006575   0.001246  -0.000255
    23  C    0.387176  -0.096275   0.006760  -0.000928   0.007994  -0.091492
    24  H   -0.034077   0.010485  -0.000378   0.000032  -0.000014  -0.007565
    25  H   -0.034505  -0.008143   0.000049   0.000024  -0.000434   0.010076
    26  H   -0.031330  -0.008974   0.000067   0.000159  -0.000039  -0.008415
    27  C    0.351684  -0.084515   0.000256   0.000238  -0.001607  -0.095773
    28  H   -0.034427  -0.008856   0.000333   0.000016  -0.000423   0.009468
    29  H   -0.034350   0.009283  -0.000412   0.000017   0.000167  -0.007056
    30  H   -0.031261  -0.003859   0.001138  -0.000254   0.001246  -0.006574
               7          8          9         10         11         12
     1  C   -0.045697  -0.034071   0.000439  -0.000484   0.007484  -0.006488
     2  C    0.395668   0.382124  -0.005790   0.009159  -0.000957  -0.000072
     3  C   -0.045697  -0.034071  -0.044055  -0.036910   0.007484  -0.006488
     4  C   -0.004693   0.008781   0.393161   0.395878  -0.039827  -0.047448
     5  C    0.000916  -0.000879  -0.045154  -0.038038   0.407932   0.402427
     6  C   -0.004693   0.008781  -0.005196   0.007875  -0.039827  -0.047448
     7  H    0.529356  -0.033111   0.003135  -0.000340  -0.000123   0.000165
     8  H   -0.033111   0.517894  -0.000383  -0.000393   0.000113  -0.000269
     9  H    0.003135  -0.000383   0.530237  -0.034242  -0.006691   0.008791
    10  H   -0.000340  -0.000393  -0.034242   0.512873  -0.004235  -0.005557
    11  H   -0.000123   0.000113  -0.006691  -0.004235   0.510492  -0.036333
    12  H    0.000165  -0.000269   0.008791  -0.005557  -0.036333   0.529324
    13  H    0.003135  -0.000383   0.005457  -0.000191  -0.006691   0.008791
    14  H   -0.000340  -0.000393  -0.000191  -0.000349  -0.004235  -0.005557
    15  C   -0.011330  -0.003699  -0.009114  -0.003936  -0.000339  -0.000276
    16  H   -0.000167   0.003885   0.000166  -0.000369   0.000025   0.000017
    17  H    0.000357  -0.000349  -0.000221   0.003881  -0.000023   0.000003
    18  H    0.004864  -0.000105   0.004634  -0.000219  -0.000020  -0.000001
    19  C    0.009534  -0.009579   0.009919  -0.009430  -0.000205   0.002718
    20  H   -0.000439  -0.000013  -0.000110   0.004164  -0.000074   0.000308
    21  H    0.000109   0.004514  -0.000412  -0.000027   0.000035  -0.000116
    22  H   -0.000379  -0.000006  -0.000147  -0.000126  -0.000025   0.000417
    23  C   -0.011330  -0.003699  -0.000325   0.000081  -0.000339  -0.000276
    24  H    0.000357  -0.000349   0.000005  -0.000003  -0.000023   0.000003
    25  H   -0.000167   0.003885   0.000010  -0.000003   0.000025   0.000017
    26  H    0.004864  -0.000105   0.000007  -0.000004  -0.000020  -0.000001
    27  C    0.009534  -0.009579   0.000165  -0.000118  -0.000205   0.002718
    28  H    0.000109   0.004514   0.000006  -0.000003   0.000035  -0.000116
    29  H   -0.000439  -0.000013   0.000008  -0.000002  -0.000074   0.000309
    30  H   -0.000379  -0.000006  -0.000042   0.000032  -0.000025   0.000416
              13         14         15         16         17         18
     1  C   -0.044055  -0.036909   0.006760   0.000049  -0.000378   0.000067
     2  C   -0.005790   0.009159  -0.096275  -0.008143   0.010485  -0.008974
     3  C    0.000439  -0.000483   0.387176  -0.034505  -0.034077  -0.031330
     4  C   -0.005196   0.007875  -0.091491   0.010076  -0.007565  -0.008415
     5  C   -0.045154  -0.038038   0.007994  -0.000434  -0.000014  -0.000039
     6  C    0.393162   0.395878  -0.000928   0.000024   0.000032   0.000159
     7  H    0.003135  -0.000340  -0.011330  -0.000167   0.000357   0.004864
     8  H   -0.000383  -0.000393  -0.003699   0.003885  -0.000349  -0.000105
     9  H    0.005457  -0.000191  -0.009114   0.000166  -0.000221   0.004634
    10  H   -0.000191  -0.000349  -0.003936  -0.000369   0.003881  -0.000219
    11  H   -0.006691  -0.004235  -0.000339   0.000025  -0.000023  -0.000020
    12  H    0.008791  -0.005557  -0.000276   0.000017   0.000003  -0.000001
    13  H    0.530237  -0.034242  -0.000325   0.000010   0.000005   0.000007
    14  H   -0.034242   0.512873   0.000081  -0.000003  -0.000003  -0.000004
    15  C   -0.000325   0.000081   5.363130   0.385087   0.384217   0.382280
    16  H    0.000010  -0.000003   0.385087   0.505319  -0.030936  -0.030034
    17  H    0.000005  -0.000003   0.384217  -0.030936   0.505108  -0.029403
    18  H    0.000007  -0.000004   0.382280  -0.030034  -0.029403   0.505025
    19  C    0.000165  -0.000118  -0.101096  -0.006905  -0.007781   0.009940
    20  H    0.000008  -0.000002  -0.010101  -0.000396   0.004229   0.000160
    21  H    0.000006  -0.000003  -0.005870   0.003587  -0.000303  -0.000177
    22  H   -0.000042   0.000032   0.008848  -0.000125  -0.000069  -0.000438
    23  C   -0.009114  -0.003936  -0.000384  -0.000033   0.000019  -0.000046
    24  H   -0.000221   0.003881   0.000019  -0.000000  -0.000001   0.000001
    25  H    0.000166  -0.000369  -0.000033   0.000005  -0.000000   0.000004
    26  H    0.004634  -0.000219  -0.000046   0.000004   0.000001  -0.000026
    27  C    0.009919  -0.009430  -0.000488   0.000007   0.000020   0.000005
    28  H   -0.000412  -0.000027  -0.000064  -0.000008   0.000003   0.000002
    29  H   -0.000110   0.004165   0.000029  -0.000000  -0.000001  -0.000000
    30  H   -0.000147  -0.000126  -0.000024   0.000009   0.000007  -0.000010
              19         20         21         22         23         24
     1  C    0.000256  -0.000412   0.000333   0.001139   0.387176  -0.034077
     2  C   -0.084514   0.009283  -0.008856  -0.003859  -0.096275   0.010485
     3  C    0.351682  -0.034351  -0.034427  -0.031262   0.006760  -0.000378
     4  C   -0.095773  -0.007056   0.009468  -0.006575  -0.000928   0.000032
     5  C   -0.001607   0.000167  -0.000423   0.001246   0.007994  -0.000014
     6  C    0.000238   0.000017   0.000016  -0.000255  -0.091492  -0.007565
     7  H    0.009534  -0.000439   0.000109  -0.000379  -0.011330   0.000357
     8  H   -0.009579  -0.000013   0.004514  -0.000006  -0.003699  -0.000349
     9  H    0.009919  -0.000110  -0.000412  -0.000147  -0.000325   0.000005
    10  H   -0.009430   0.004164  -0.000027  -0.000126   0.000081  -0.000003
    11  H   -0.000205  -0.000074   0.000035  -0.000025  -0.000339  -0.000023
    12  H    0.002718   0.000308  -0.000116   0.000417  -0.000276   0.000003
    13  H    0.000165   0.000008   0.000006  -0.000042  -0.009114  -0.000221
    14  H   -0.000118  -0.000002  -0.000003   0.000032  -0.003936   0.003881
    15  C   -0.101096  -0.010101  -0.005870   0.008848  -0.000384   0.000019
    16  H   -0.006905  -0.000396   0.003587  -0.000125  -0.000033  -0.000000
    17  H   -0.007781   0.004229  -0.000303  -0.000069   0.000019  -0.000001
    18  H    0.009940   0.000160  -0.000177  -0.000438  -0.000046   0.000001
    19  C    5.387318   0.385492   0.385662   0.383337  -0.000488   0.000020
    20  H    0.385492   0.506965  -0.030280  -0.031365   0.000029  -0.000001
    21  H    0.385662  -0.030280   0.503780  -0.030319  -0.000064   0.000003
    22  H    0.383337  -0.031365  -0.030319   0.501583  -0.000024   0.000007
    23  C   -0.000488   0.000029  -0.000064  -0.000024   5.363131   0.384217
    24  H    0.000020  -0.000001   0.000003   0.000007   0.384217   0.505108
    25  H    0.000007  -0.000000  -0.000008   0.000009   0.385087  -0.030936
    26  H    0.000005  -0.000000   0.000002  -0.000010   0.382280  -0.029403
    27  C   -0.007951   0.000380   0.000189  -0.004966  -0.101097  -0.007781
    28  H    0.000189  -0.000034   0.000180  -0.000130  -0.005871  -0.000303
    29  H    0.000380  -0.000020  -0.000034   0.000429  -0.010100   0.004229
    30  H   -0.004965   0.000429  -0.000130   0.005079   0.008848  -0.000069
              25         26         27         28         29         30
     1  C   -0.034505  -0.031330   0.351684  -0.034427  -0.034350  -0.031261
     2  C   -0.008143  -0.008974  -0.084515  -0.008856   0.009283  -0.003859
     3  C    0.000049   0.000067   0.000256   0.000333  -0.000412   0.001138
     4  C    0.000024   0.000159   0.000238   0.000016   0.000017  -0.000254
     5  C   -0.000434  -0.000039  -0.001607  -0.000423   0.000167   0.001246
     6  C    0.010076  -0.008415  -0.095773   0.009468  -0.007056  -0.006574
     7  H   -0.000167   0.004864   0.009534   0.000109  -0.000439  -0.000379
     8  H    0.003885  -0.000105  -0.009579   0.004514  -0.000013  -0.000006
     9  H    0.000010   0.000007   0.000165   0.000006   0.000008  -0.000042
    10  H   -0.000003  -0.000004  -0.000118  -0.000003  -0.000002   0.000032
    11  H    0.000025  -0.000020  -0.000205   0.000035  -0.000074  -0.000025
    12  H    0.000017  -0.000001   0.002718  -0.000116   0.000309   0.000416
    13  H    0.000166   0.004634   0.009919  -0.000412  -0.000110  -0.000147
    14  H   -0.000369  -0.000219  -0.009430  -0.000027   0.004165  -0.000126
    15  C   -0.000033  -0.000046  -0.000488  -0.000064   0.000029  -0.000024
    16  H    0.000005   0.000004   0.000007  -0.000008  -0.000000   0.000009
    17  H   -0.000000   0.000001   0.000020   0.000003  -0.000001   0.000007
    18  H    0.000004  -0.000026   0.000005   0.000002  -0.000000  -0.000010
    19  C    0.000007   0.000005  -0.007951   0.000189   0.000380  -0.004965
    20  H   -0.000000  -0.000000   0.000380  -0.000034  -0.000020   0.000429
    21  H   -0.000008   0.000002   0.000189   0.000180  -0.000034  -0.000130
    22  H    0.000009  -0.000010  -0.004966  -0.000130   0.000429   0.005079
    23  C    0.385087   0.382280  -0.101097  -0.005871  -0.010100   0.008848
    24  H   -0.030936  -0.029403  -0.007781  -0.000303   0.004229  -0.000069
    25  H    0.505319  -0.030034  -0.006905   0.003587  -0.000396  -0.000125
    26  H   -0.030034   0.505025   0.009940  -0.000177   0.000160  -0.000438
    27  C   -0.006905   0.009940   5.387316   0.385662   0.385492   0.383336
    28  H    0.003587  -0.000177   0.385662   0.503781  -0.030280  -0.030319
    29  H   -0.000396   0.000160   0.385492  -0.030280   0.506965  -0.031365
    30  H   -0.000125  -0.000438   0.383336  -0.030319  -0.031365   0.501582
 Mulliken charges:
               1
     1  C   -0.071644
     2  C   -0.368581
     3  C   -0.071642
     4  C   -0.374162
     5  C   -0.408556
     6  C   -0.374162
     7  H    0.197219
     8  H    0.196965
     9  H    0.195930
    10  H    0.201037
    11  H    0.206670
    12  H    0.200022
    13  H    0.195930
    14  H    0.201036
    15  C   -0.589802
    16  H    0.203792
    17  H    0.202757
    18  H    0.202092
    19  C   -0.596450
    20  H    0.203022
    21  H    0.203564
    22  H    0.207993
    23  C   -0.589802
    24  H    0.202757
    25  H    0.203791
    26  H    0.202092
    27  C   -0.596447
    28  H    0.203563
    29  H    0.203022
    30  H    0.207994
 Sum of Mulliken charges =  -0.00000
 Mulliken charges with hydrogens summed into heavy atoms:
               1
     1  C   -0.071644
     2  C    0.025602
     3  C   -0.071642
     4  C    0.022805
     5  C   -0.001864
     6  C    0.022805
    15  C    0.018838
    19  C    0.018130
    23  C    0.018839
    27  C    0.018131
 APT charges:
               1
     1  C    0.080974
     2  C    0.065209
     3  C    0.080974
     4  C    0.088672
     5  C    0.093370
     6  C    0.088672
     7  H   -0.047222
     8  H   -0.049646
     9  H   -0.047285
    10  H   -0.051830
    11  H   -0.060226
    12  H   -0.037276
    13  H   -0.047286
    14  H   -0.051830
    15  C    0.067075
    16  H   -0.029639
    17  H   -0.034798
    18  H   -0.026847
    19  C    0.042573
    20  H   -0.031774
    21  H   -0.024113
    22  H   -0.015113
    23  C    0.067075
    24  H   -0.034798
    25  H   -0.029640
    26  H   -0.026847
    27  C    0.042573
    28  H   -0.024113
    29  H   -0.031774
    30  H   -0.015112
 Sum of APT charges =   0.00000
 APT charges with hydrogens summed into heavy atoms:
               1
     1  C    0.080974
     2  C   -0.031659
     3  C    0.080974
     4  C   -0.010444
     5  C   -0.004132
     6  C   -0.010444
    15  C   -0.024209
    19  C   -0.028426
    23  C   -0.024209
    27  C   -0.028426
 Electronic spatial extent (au):  <R**2>=           1602.3576
 Charge=              0.0000 electrons
 Dipole moment (field-independent basis, Debye):
    X=             -0.0000    Y=              0.1266    Z=             -0.0196  Tot=              0.1281
 Quadrupole moment (field-independent basis, Debye-Ang):
   XX=            -68.8562   YY=            -67.8791   ZZ=            -68.3882
   XY=              0.0000   XZ=             -0.0000   YZ=             -0.2250
 Traceless Quadrupole moment (field-independent basis, Debye-Ang):
   XX=             -0.4817   YY=              0.4954   ZZ=             -0.0137
   XY=              0.0000   XZ=             -0.0000   YZ=             -0.2250
 Octapole moment (field-independent basis, Debye-Ang**2):
  XXX=             -0.0001  YYY=             -1.5519  ZZZ=             -3.9042  XYY=              0.0001
  XXY=              3.7440  XXZ=              2.6493  XZZ=             -0.0000  YZZ=              1.8252
  YYZ=              1.6210  XYZ=              0.0000
 Hexadecapole moment (field-independent basis, Debye-Ang**3):
 XXXX=          -1245.8940 YYYY=           -579.6050 ZZZZ=           -457.6032 XXXY=              0.0001
 XXXZ=             -0.0001 YYYX=             -0.0001 YYYZ=             -7.6864 ZZZX=             -0.0001
 ZZZY=              2.2668 XXYY=           -309.9298 XXZZ=           -295.0693 YYZZ=           -176.8253
 XXYZ=              0.2646 YYXZ=              0.0001 ZZXY=              0.0000
 N-N= 6.047692323635D+02 E-N=-2.119418613030D+03  KE= 3.913416503051D+02
  Exact polarizability:     120.855       0.000     107.863       0.000      -0.202     103.967
 Approx polarizability:     154.819      -0.000     153.899       0.000      -0.327     154.270
 No NMR shielding tensors so no spin-rotation constants.
 Leave Link  601 at Wed Jul 23 16:41:23 2025, MaxMem=   104857600 cpu:              30.8 elap:               1.2
 (Enter /opt/linux/rocky/8/software/gaussian/16c01_avx2/g16/l701.exe)
 ... and contract with generalized density number  0.
 Compute integral second derivatives.
 PrsmSu:  requested number of processors reduced to:  29 ShMem   1 Linda.
 PrsmSu:  requested number of processors reduced to:  29 ShMem   1 Linda.
 Leave Link  701 at Wed Jul 23 16:41:24 2025, MaxMem=   104857600 cpu:              22.3 elap:               1.1
 (Enter /opt/linux/rocky/8/software/gaussian/16c01_avx2/g16/l702.exe)
 L702 exits ... SP integral derivatives will be done elsewhere.
 Leave Link  702 at Wed Jul 23 16:41:24 2025, MaxMem=   104857600 cpu:               0.3 elap:               0.0
 (Enter /opt/linux/rocky/8/software/gaussian/16c01_avx2/g16/l703.exe)
 Integral derivatives from FoFJK, PRISM(SPDF).
 Compute integral second derivatives, UseDBF=F ICtDFT=           0.
 Calling FoFJK, ICntrl=    100127 FMM=F ISym2X=0 I1Cent= 0 IOpClX= 0 NMat=1 NMatS=1 NMatT=0.
 FoFJK:  IHMeth= 1 ICntrl=  100127 DoSepK=F KAlg= 0 I1Cent=           0 FoldK=F
 IRaf=         0 NMat=       1 IRICut=       1 DoRegI=T DoRafI=F ISym2E= 0 IDoP0=0 IntGTp=1.
 FoFCou: FMM=F IPFlag=           0 FMFlag=      100000 FMFlg1=         800
         NFxFlg=           0 DoJE=F BraDBF=F KetDBF=F FulRan=T
         wScrn=  0.000000 ICntrl=    100127 IOpCl=  0 I1Cent=           0 NGrid=           0
         NMat0=    1 NMatS0=      1 NMatT0=    0 NMatD0=    1 NMtDS0=    0 NMtDT0=    0
 Symmetry not used in FoFCou.
 CoulSu:  requested number of processors reduced to:  30 ShMem   1 Linda.
 Leave Link  703 at Wed Jul 23 16:41:47 2025, MaxMem=   104857600 cpu:             760.2 elap:              22.4
 (Enter /opt/linux/rocky/8/software/gaussian/16c01_avx2/g16/l716.exe)
 Dipole        =-1.86342480D-06 4.98047063D-02-7.71004078D-03
 Polarizability= 1.20855397D+02 1.92613728D-06 1.07862644D+02
                 2.23551714D-05-2.01841851D-01 1.03967077D+02
 Full mass-weighted force constant matrix:
 Low frequencies ---   -3.8161   -0.0004   -0.0003    0.0004    6.5950   12.2664
 Low frequencies ---  127.3991  144.5761  192.3582
 Diagonal vibrational polarizability:
        1.6892791       1.4538182       1.5102423
 Harmonic frequencies (cm**-1), IR intensities (KM/Mole), Raman scattering
 activities (A**4/AMU), depolarization ratios for plane and unpolarized
 incident light, reduced masses (AMU), force constants (mDyne/A),
 and normal coordinates:
                      1                      2                      3
                      A                      A                      A
 Frequencies --    127.3987               144.5747               192.3579
 Red. masses --      2.4667                 2.1114                 1.0588
 Frc consts  --      0.0236                 0.0260                 0.0231
 IR Inten    --      0.0061                 0.0089                 0.2128
  Atom  AN      X      Y      Z        X      Y      Z        X      Y      Z
     1   6    -0.00   0.01  -0.02    -0.02   0.00  -0.01     0.00  -0.01  -0.01
     2   6     0.00  -0.00   0.00    -0.00   0.05  -0.14     0.00  -0.00   0.00
     3   6    -0.00  -0.01   0.02     0.02   0.00  -0.01     0.00   0.01   0.01
     4   6    -0.01   0.03   0.15    -0.02   0.01  -0.00    -0.00   0.01   0.03
     5   6     0.06  -0.00   0.00     0.00   0.03  -0.06     0.02  -0.00   0.00
     6   6    -0.01  -0.03  -0.15     0.02   0.01  -0.00    -0.00  -0.01  -0.03
     7   1     0.00  -0.00   0.00    -0.00   0.23  -0.16    -0.01  -0.00   0.00
     8   1     0.01  -0.00   0.00    -0.00  -0.01  -0.31    -0.00  -0.00   0.00
     9   1    -0.17   0.12   0.16    -0.08   0.01   0.00    -0.04   0.03   0.03
    10   1     0.04   0.01   0.31    -0.00  -0.00   0.05     0.01   0.01   0.07
    11   1     0.04  -0.00   0.00     0.00   0.01  -0.12     0.02  -0.00   0.00
    12   1     0.20  -0.00   0.00     0.00   0.10  -0.06     0.05  -0.00   0.00
    13   1    -0.17  -0.12  -0.16     0.08   0.01   0.00    -0.04  -0.03  -0.03
    14   1     0.04  -0.01  -0.31     0.00  -0.00   0.05     0.01  -0.01  -0.07
    15   6     0.01   0.08  -0.07    -0.04  -0.01   0.08     0.01   0.00  -0.00
    16   1    -0.01   0.06  -0.18    -0.04   0.00   0.12    -0.05   0.02   0.08
    17   1     0.01   0.07  -0.05    -0.02   0.01   0.15     0.03   0.07  -0.09
    18   1     0.04   0.19  -0.06    -0.12  -0.04   0.07     0.08  -0.09   0.00
    19   6    -0.03  -0.17  -0.00     0.16  -0.04   0.02    -0.02   0.02   0.01
    20   1    -0.02  -0.18   0.02     0.09  -0.26   0.07    -0.16  -0.32  -0.09
    21   1    -0.04  -0.20  -0.12     0.41  -0.02   0.05     0.34   0.06   0.13
    22   1    -0.02  -0.25   0.06     0.07   0.13  -0.04    -0.26   0.34  -0.00
    23   6     0.01  -0.08   0.07     0.04  -0.01   0.08     0.01  -0.00   0.00
    24   1     0.01  -0.07   0.05     0.02   0.01   0.15     0.03  -0.07   0.09
    25   1    -0.01  -0.06   0.18     0.04   0.00   0.12    -0.05  -0.02  -0.08
    26   1     0.04  -0.19   0.06     0.12  -0.04   0.07     0.08   0.09  -0.00
    27   6    -0.03   0.17   0.00    -0.16  -0.04   0.02    -0.02  -0.02  -0.01
    28   1    -0.04   0.20   0.12    -0.41  -0.02   0.05     0.34  -0.06  -0.13
    29   1    -0.02   0.18  -0.02    -0.09  -0.26   0.07    -0.16   0.32   0.09
    30   1    -0.02   0.25  -0.06    -0.07   0.13  -0.04    -0.26  -0.34   0.00
                      4                      5                      6
                      A                      A                      A
 Frequencies --    244.5341               252.9624               260.4955
 Red. masses --      1.5336                 1.1508                 1.2631
 Frc consts  --      0.0540                 0.0434                 0.0505
 IR Inten    --      0.0052                 0.0224                 0.0069
  Atom  AN      X      Y      Z        X      Y      Z        X      Y      Z
     1   6     0.00  -0.02  -0.01    -0.00  -0.00  -0.01    -0.00  -0.02  -0.02
     2   6    -0.00  -0.06  -0.01     0.00  -0.01  -0.03    -0.01   0.00  -0.00
     3   6    -0.00  -0.02  -0.01     0.00  -0.00  -0.01    -0.00   0.02   0.02
     4   6     0.02  -0.03  -0.02     0.01  -0.01  -0.02    -0.01   0.02   0.03
     5   6     0.00  -0.03  -0.00    -0.00  -0.00  -0.01     0.02  -0.00   0.00
     6   6    -0.02  -0.03  -0.02    -0.01  -0.01  -0.02    -0.01  -0.02  -0.03
     7   1    -0.00  -0.09  -0.00     0.00  -0.00  -0.03    -0.03   0.00  -0.00
     8   1    -0.00  -0.05   0.02     0.00  -0.01  -0.04    -0.02   0.00  -0.00
     9   1     0.04  -0.04  -0.02     0.02  -0.02  -0.02    -0.04   0.05   0.04
    10   1     0.01  -0.03  -0.04     0.00  -0.00  -0.04     0.01   0.03   0.08
    11   1     0.00  -0.02   0.00    -0.00  -0.00  -0.01     0.03   0.00   0.00
    12   1     0.00  -0.04  -0.00    -0.00  -0.01  -0.01     0.06  -0.00   0.00
    13   1    -0.04  -0.04  -0.02    -0.02  -0.02  -0.02    -0.04  -0.05  -0.04
    14   1    -0.01  -0.03  -0.04    -0.00  -0.00  -0.04     0.01  -0.03  -0.08
    15   6    -0.10   0.10   0.03    -0.05   0.02   0.05     0.05  -0.03  -0.00
    16   1    -0.41   0.16   0.21     0.10  -0.03  -0.13     0.34  -0.11  -0.26
    17   1     0.02   0.40  -0.12    -0.06  -0.13   0.28    -0.04  -0.33   0.22
    18   1    -0.00  -0.14   0.02    -0.23   0.23   0.03    -0.10   0.27  -0.00
    19   6    -0.00  -0.01  -0.00     0.02  -0.00  -0.00    -0.05   0.06   0.01
    20   1     0.03   0.07   0.01     0.13   0.26   0.06    -0.06   0.05  -0.04
    21   1    -0.09  -0.02  -0.03    -0.26  -0.03  -0.08    -0.04   0.07   0.07
    22   1     0.05  -0.09   0.00     0.19  -0.24   0.02    -0.08   0.10   0.02
    23   6     0.10   0.10   0.03     0.05   0.02   0.05     0.05   0.03   0.00
    24   1    -0.02   0.40  -0.12     0.06  -0.13   0.28    -0.04   0.33  -0.22
    25   1     0.41   0.16   0.21    -0.10  -0.03  -0.13     0.34   0.11   0.26
    26   1     0.00  -0.14   0.02     0.23   0.23   0.03    -0.10  -0.27   0.00
    27   6     0.00  -0.01  -0.00    -0.02  -0.00  -0.00    -0.05  -0.06  -0.01
    28   1     0.09  -0.02  -0.03     0.26  -0.03  -0.08    -0.04  -0.07  -0.07
    29   1    -0.03   0.07   0.01    -0.13   0.26   0.06    -0.06  -0.05   0.04
    30   1    -0.05  -0.09   0.00    -0.19  -0.24   0.02    -0.08  -0.10  -0.02
                      7                      8                      9
                      A                      A                      A
 Frequencies --    283.0037               287.1031               305.2904
 Red. masses --      1.6970                 2.1996                 1.4401
 Frc consts  --      0.0801                 0.1068                 0.0791
 IR Inten    --      0.0059                 0.0102                 0.0097
  Atom  AN      X      Y      Z        X      Y      Z        X      Y      Z
     1   6    -0.02  -0.01   0.05    -0.00  -0.00  -0.06    -0.01  -0.03   0.01
     2   6    -0.02  -0.00   0.00    -0.00  -0.01  -0.06     0.00  -0.09   0.06
     3   6    -0.02   0.01  -0.05     0.00  -0.00  -0.06     0.01  -0.03   0.01
     4   6    -0.02  -0.00  -0.06     0.04  -0.00  -0.02     0.03  -0.03  -0.02
     5   6    -0.05   0.00  -0.00    -0.00  -0.11   0.21     0.00  -0.02   0.00
     6   6    -0.02   0.00   0.06    -0.04  -0.00  -0.02    -0.03  -0.03  -0.02
     7   1     0.04  -0.00   0.00     0.00  -0.02  -0.06    -0.00  -0.25   0.08
     8   1    -0.05  -0.00   0.00     0.00  -0.01  -0.06     0.00  -0.04   0.22
     9   1     0.04  -0.02  -0.07     0.19   0.06  -0.02     0.08  -0.06  -0.02
    10   1    -0.04  -0.00  -0.12    -0.01  -0.01  -0.11     0.01  -0.04  -0.07
    11   1    -0.03  -0.00  -0.00    -0.00  -0.01   0.53    -0.00  -0.02  -0.01
    12   1    -0.11   0.00  -0.00    -0.00  -0.44   0.22     0.00  -0.00   0.00
    13   1     0.04   0.02   0.07    -0.19   0.06  -0.02    -0.08  -0.06  -0.02
    14   1    -0.04   0.00   0.12     0.01  -0.01  -0.11    -0.01  -0.04  -0.07
    15   6    -0.06   0.06  -0.04    -0.02  -0.05   0.02    -0.02   0.08  -0.04
    16   1     0.05   0.01  -0.25     0.00  -0.04   0.09     0.03   0.03  -0.28
    17   1    -0.07  -0.05   0.18    -0.02  -0.05   0.04    -0.02   0.00   0.15
    18   1    -0.20   0.30  -0.04    -0.08  -0.11   0.01    -0.11   0.34  -0.03
    19   6     0.11  -0.03  -0.03     0.04   0.11  -0.04     0.02   0.01   0.02
    20   1     0.06  -0.23   0.07     0.03   0.11  -0.07    -0.06  -0.19  -0.01
    21   1     0.35  -0.03  -0.02     0.07   0.14   0.07     0.25   0.05   0.11
    22   1     0.08   0.10  -0.10     0.02   0.20  -0.10    -0.09   0.22  -0.03
    23   6    -0.06  -0.06   0.04     0.02  -0.05   0.02     0.02   0.08  -0.04
    24   1    -0.07   0.05  -0.18     0.02  -0.05   0.04     0.02   0.00   0.15
    25   1     0.05  -0.01   0.25    -0.00  -0.04   0.09    -0.03   0.03  -0.28
    26   1    -0.20  -0.30   0.04     0.08  -0.11   0.01     0.11   0.34  -0.03
    27   6     0.11   0.03   0.03    -0.04   0.11  -0.04    -0.02   0.01   0.02
    28   1     0.35   0.03   0.02    -0.07   0.14   0.07    -0.25   0.05   0.11
    29   1     0.06   0.23  -0.07    -0.03   0.11  -0.07     0.06  -0.19  -0.01
    30   1     0.08  -0.10   0.10    -0.02   0.20  -0.10     0.09   0.22  -0.03
                     10                     11                     12
                      A                      A                      A
 Frequencies --    313.4874               347.3753               394.7852
 Red. masses --      2.2380                 2.2980                 2.4284
 Frc consts  --      0.1296                 0.1634                 0.2230
 IR Inten    --      0.0629                 0.0144                 0.0426
  Atom  AN      X      Y      Z        X      Y      Z        X      Y      Z
     1   6     0.00   0.03  -0.04    -0.08  -0.01   0.01    -0.04  -0.05   0.09
     2   6    -0.00   0.00   0.00     0.00  -0.07   0.04    -0.05   0.00   0.00
     3   6     0.00  -0.03   0.04     0.08  -0.01   0.01    -0.04   0.05  -0.09
     4   6     0.12  -0.06  -0.06     0.05  -0.00  -0.00     0.03   0.10  -0.00
     5   6     0.07   0.00  -0.00    -0.00   0.05   0.03     0.12   0.00   0.00
     6   6     0.12   0.06   0.06    -0.05  -0.00  -0.00     0.03  -0.10   0.00
     7   1    -0.06   0.00   0.00     0.00  -0.20   0.05     0.05   0.00   0.00
     8   1     0.07   0.00   0.00     0.00  -0.02   0.16    -0.14   0.00   0.00
     9   1     0.28  -0.20  -0.07     0.11  -0.02  -0.00    -0.03   0.20   0.01
    10   1     0.09   0.02  -0.25     0.00  -0.05  -0.06     0.10   0.14   0.11
    11   1     0.02   0.00  -0.00    -0.00   0.04  -0.00     0.20   0.00   0.00
    12   1     0.02   0.00  -0.00    -0.00   0.07   0.03     0.13  -0.00   0.00
    13   1     0.28   0.20   0.07    -0.11  -0.02  -0.00    -0.03  -0.20  -0.01
    14   1     0.09  -0.02   0.25    -0.00  -0.05  -0.06     0.10  -0.14  -0.11
    15   6    -0.04   0.00   0.07     0.12   0.02  -0.05    -0.06  -0.12   0.04
    16   1     0.01  -0.02  -0.00     0.05   0.03  -0.01     0.09  -0.09   0.23
    17   1    -0.04  -0.05   0.21     0.12   0.07  -0.19    -0.09  -0.20   0.08
    18   1    -0.16   0.10   0.06     0.27  -0.04  -0.03    -0.18  -0.28   0.01
    19   6    -0.10  -0.10   0.02     0.16   0.00   0.02     0.02  -0.04  -0.11
    20   1    -0.15  -0.21  -0.06     0.25   0.20   0.14     0.01  -0.11  -0.02
    21   1    -0.04  -0.11  -0.03    -0.01  -0.01  -0.03     0.08  -0.07  -0.20
    22   1    -0.22  -0.07   0.13     0.32  -0.15  -0.02     0.03  -0.08  -0.09
    23   6    -0.04  -0.00  -0.07    -0.12   0.02  -0.05    -0.06   0.12  -0.04
    24   1    -0.04   0.05  -0.21    -0.12   0.07  -0.19    -0.09   0.20  -0.08
    25   1     0.01   0.02   0.00    -0.05   0.03  -0.01     0.09   0.09  -0.23
    26   1    -0.16  -0.10  -0.06    -0.27  -0.04  -0.03    -0.18   0.28  -0.01
    27   6    -0.10   0.10  -0.02    -0.16   0.00   0.02     0.02   0.04   0.11
    28   1    -0.04   0.11   0.03     0.01  -0.01  -0.03     0.08   0.07   0.20
    29   1    -0.15   0.21   0.06    -0.25   0.20   0.14     0.01   0.11   0.02
    30   1    -0.22   0.07  -0.13    -0.32  -0.15  -0.02     0.03   0.08   0.09
                     13                     14                     15
                      A                      A                      A
 Frequencies --    404.5805               427.2376               461.9733
 Red. masses --      1.8027                 1.7392                 2.0970
 Frc consts  --      0.1739                 0.1870                 0.2637
 IR Inten    --      0.0276                 0.1412                 0.1031
  Atom  AN      X      Y      Z        X      Y      Z        X      Y      Z
     1   6     0.01  -0.06  -0.01     0.00  -0.02   0.07     0.09   0.06   0.07
     2   6     0.00  -0.05  -0.06     0.00   0.09  -0.08     0.13   0.00   0.00
     3   6    -0.01  -0.06  -0.01    -0.00  -0.02   0.07     0.09  -0.06  -0.07
     4   6    -0.05  -0.04   0.10     0.03  -0.07  -0.04    -0.01  -0.05   0.04
     5   6     0.00  -0.03  -0.03    -0.00  -0.07  -0.01    -0.03  -0.00  -0.00
     6   6     0.05  -0.04   0.10    -0.03  -0.07  -0.04    -0.01   0.05  -0.04
     7   1     0.00   0.04  -0.06    -0.00   0.52  -0.11     0.19   0.00   0.00
     8   1     0.00  -0.08  -0.14     0.00  -0.07  -0.49     0.18   0.00   0.00
     9   1    -0.28   0.10   0.12     0.14  -0.20  -0.05    -0.14   0.08   0.06
    10   1     0.02  -0.09   0.35    -0.00  -0.01  -0.19    -0.01  -0.16   0.20
    11   1     0.00  -0.08  -0.19    -0.00  -0.06   0.01    -0.10  -0.00   0.00
    12   1     0.00   0.16  -0.04    -0.00  -0.10  -0.01     0.02  -0.00  -0.00
    13   1     0.28   0.10   0.12    -0.14  -0.20  -0.05    -0.14  -0.08  -0.06
    14   1    -0.02  -0.09   0.35     0.00  -0.01  -0.19    -0.01   0.16  -0.20
    15   6    -0.02  -0.00  -0.06     0.04   0.04  -0.03    -0.06   0.03   0.06
    16   1    -0.07  -0.01  -0.12    -0.01   0.02  -0.13    -0.14   0.03   0.04
    17   1    -0.01   0.03  -0.07     0.04   0.06  -0.08     0.04   0.13   0.28
    18   1     0.01   0.05  -0.05     0.14   0.13  -0.00    -0.27   0.07   0.02
    19   6     0.02   0.09   0.01    -0.02   0.02   0.08    -0.02   0.04  -0.11
    20   1     0.06   0.23  -0.03    -0.02   0.06   0.05    -0.03   0.09  -0.27
    21   1    -0.08   0.14   0.18    -0.07   0.03   0.12    -0.10   0.06   0.00
    22   1     0.08   0.14  -0.10    -0.02   0.02   0.08    -0.10   0.09  -0.07
    23   6     0.02  -0.00  -0.06    -0.04   0.04  -0.03    -0.06  -0.03  -0.06
    24   1     0.01   0.03  -0.07    -0.04   0.06  -0.08     0.04  -0.13  -0.28
    25   1     0.07  -0.01  -0.12     0.01   0.02  -0.13    -0.14  -0.03  -0.04
    26   1    -0.01   0.05  -0.05    -0.14   0.13  -0.00    -0.27  -0.07  -0.02
    27   6    -0.02   0.09   0.01     0.02   0.02   0.08    -0.02  -0.04   0.11
    28   1     0.08   0.14   0.18     0.07   0.03   0.12    -0.10  -0.06  -0.00
    29   1    -0.06   0.23  -0.03     0.02   0.06   0.05    -0.03  -0.09   0.27
    30   1    -0.08   0.14  -0.10     0.02   0.02   0.08    -0.10  -0.09   0.07
                     16                     17                     18
                      A                      A                      A
 Frequencies --    469.7471               490.0334               568.3393
 Red. masses --      3.1498                 2.4109                 2.2225
 Frc consts  --      0.4095                 0.3411                 0.4230
 IR Inten    --      0.0032                 0.0475                 0.4279
  Atom  AN      X      Y      Z        X      Y      Z        X      Y      Z
     1   6    -0.08   0.13   0.02    -0.10  -0.05  -0.01     0.10  -0.02   0.00
     2   6    -0.05  -0.00  -0.00     0.00  -0.10  -0.11    -0.00   0.02   0.02
     3   6    -0.08  -0.13  -0.02     0.10  -0.05  -0.01    -0.10  -0.02   0.00
     4   6     0.10  -0.11   0.08     0.10  -0.01   0.05     0.03   0.02   0.02
     5   6     0.13   0.00   0.00    -0.00   0.17   0.05     0.00   0.13   0.08
     6   6     0.10   0.11  -0.08    -0.10  -0.01   0.05    -0.03   0.02   0.02
     7   1    -0.02   0.00  -0.00     0.00   0.06  -0.12    -0.00   0.06   0.01
     8   1     0.12  -0.00  -0.00     0.00  -0.15  -0.24    -0.00   0.00  -0.03
     9   1     0.07  -0.06   0.08     0.22  -0.03   0.05     0.29  -0.07   0.01
    10   1     0.14  -0.05   0.11    -0.00  -0.11  -0.07    -0.05   0.08  -0.25
    11   1    -0.07   0.00  -0.00    -0.00   0.08  -0.26     0.00   0.05  -0.20
    12   1     0.25   0.00   0.00    -0.00   0.45   0.04     0.00   0.41   0.07
    13   1     0.07   0.06  -0.08    -0.22  -0.03   0.05    -0.29  -0.07   0.01
    14   1     0.14   0.05  -0.11     0.00  -0.11  -0.07     0.05   0.08  -0.25
    15   6    -0.12  -0.09  -0.11     0.04  -0.00   0.06    -0.12  -0.08  -0.09
    16   1    -0.16  -0.10  -0.18     0.05   0.01   0.09    -0.10  -0.08  -0.08
    17   1    -0.12  -0.07  -0.15     0.07   0.01   0.13    -0.15  -0.11  -0.15
    18   1    -0.05  -0.04  -0.10    -0.05  -0.03   0.04    -0.06  -0.09  -0.08
    19   6     0.03   0.04   0.03    -0.06   0.01  -0.05     0.01  -0.00   0.05
    20   1     0.08   0.14   0.09    -0.10   0.01  -0.27     0.05   0.03   0.20
    21   1     0.04   0.10   0.25    -0.11   0.03   0.04     0.05   0.01   0.09
    22   1     0.15   0.16  -0.19    -0.19   0.08   0.02     0.13   0.01  -0.08
    23   6    -0.12   0.09   0.11    -0.04  -0.00   0.06     0.12  -0.08  -0.09
    24   1    -0.12   0.07   0.15    -0.07   0.01   0.13     0.15  -0.11  -0.15
    25   1    -0.16   0.10   0.18    -0.05   0.01   0.09     0.10  -0.08  -0.08
    26   1    -0.05   0.04   0.10     0.05  -0.03   0.04     0.06  -0.09  -0.08
    27   6     0.03  -0.04  -0.03     0.06   0.01  -0.05    -0.01  -0.00   0.05
    28   1     0.04  -0.10  -0.25     0.11   0.03   0.04    -0.05   0.01   0.09
    29   1     0.08  -0.14  -0.09     0.10   0.01  -0.27    -0.05   0.03   0.20
    30   1     0.15  -0.16   0.19     0.19   0.08   0.02    -0.13   0.01  -0.08
                     19                     20                     21
                      A                      A                      A
 Frequencies --    710.3811               757.0336               836.6192
 Red. masses --      2.6421                 2.9571                 2.0839
 Frc consts  --      0.7856                 0.9985                 0.8594
 IR Inten    --      0.7188                 0.0880                 0.0392
  Atom  AN      X      Y      Z        X      Y      Z        X      Y      Z
     1   6     0.02   0.04  -0.01     0.04   0.04   0.02    -0.03  -0.08   0.04
     2   6     0.00   0.19   0.11     0.19  -0.00  -0.00    -0.00   0.05   0.20
     3   6    -0.02   0.04  -0.01     0.04  -0.04  -0.02     0.03  -0.08   0.04
     4   6     0.02  -0.12   0.08    -0.04   0.14  -0.10    -0.02   0.01  -0.03
     5   6     0.00  -0.12   0.03     0.04   0.00  -0.00    -0.00   0.12  -0.00
     6   6    -0.02  -0.12   0.08    -0.04  -0.14   0.10     0.02   0.01  -0.03
     7   1     0.00   0.11   0.11     0.23   0.00  -0.00    -0.00   0.51   0.15
     8   1     0.00   0.21   0.16     0.31  -0.00  -0.00    -0.00  -0.13  -0.27
     9   1     0.19  -0.16   0.07    -0.14   0.21  -0.09    -0.11  -0.01  -0.03
    10   1     0.00  -0.03  -0.08     0.01   0.11   0.05    -0.07  -0.11   0.03
    11   1     0.00  -0.28  -0.46     0.35   0.00   0.00    -0.00   0.22   0.31
    12   1    -0.00   0.39   0.01    -0.13  -0.00  -0.00     0.00  -0.19   0.01
    13   1    -0.19  -0.16   0.07    -0.14  -0.21   0.09     0.11  -0.01  -0.03
    14   1    -0.00  -0.03  -0.08     0.01  -0.11  -0.05     0.07  -0.11   0.03
    15   6     0.01   0.02   0.02    -0.08  -0.05  -0.06    -0.01  -0.04  -0.01
    16   1     0.03   0.03   0.07    -0.21  -0.06  -0.12    -0.21  -0.05  -0.12
    17   1     0.03   0.03   0.06    -0.01   0.05   0.01     0.10   0.13   0.10
    18   1    -0.03  -0.01   0.01    -0.14   0.00  -0.07    -0.06   0.08  -0.00
    19   6     0.03   0.02  -0.13    -0.02  -0.02   0.15     0.02  -0.01  -0.09
    20   1     0.04   0.01  -0.07    -0.03   0.00   0.09     0.04   0.04  -0.08
    21   1     0.07   0.01  -0.17    -0.07  -0.01   0.19     0.02   0.02  -0.00
    22   1     0.07   0.01  -0.17    -0.05  -0.02   0.19     0.05   0.04  -0.16
    23   6    -0.01   0.02   0.02    -0.08   0.05   0.06     0.01  -0.04  -0.01
    24   1    -0.03   0.03   0.06    -0.01  -0.05  -0.01    -0.10   0.13   0.10
    25   1    -0.03   0.03   0.07    -0.21   0.06   0.12     0.21  -0.05  -0.12
    26   1     0.03  -0.01   0.01    -0.14  -0.00   0.07     0.06   0.08  -0.00
    27   6    -0.03   0.02  -0.13    -0.02   0.02  -0.15    -0.02  -0.01  -0.09
    28   1    -0.07   0.01  -0.17    -0.07   0.01  -0.19    -0.02   0.02  -0.00
    29   1    -0.04   0.01  -0.07    -0.03  -0.00  -0.09    -0.04   0.04  -0.08
    30   1    -0.07   0.01  -0.17    -0.05   0.02  -0.19    -0.05   0.04  -0.16
                     22                     23                     24
                      A                      A                      A
 Frequencies --    871.7767               881.5334               901.0319
 Red. masses --      1.4974                 2.1621                 2.2211
 Frc consts  --      0.6705                 0.9899                 1.0624
 IR Inten    --      2.6139                 0.3881                 0.2471
  Atom  AN      X      Y      Z        X      Y      Z        X      Y      Z
     1   6    -0.00   0.00  -0.02     0.01  -0.04  -0.01    -0.11  -0.00  -0.04
     2   6     0.09   0.00  -0.00     0.00   0.05  -0.09    -0.00   0.19  -0.00
     3   6    -0.00  -0.00   0.02    -0.01  -0.04  -0.01     0.11  -0.00  -0.04
     4   6    -0.06   0.06   0.10    -0.19  -0.01  -0.01     0.06  -0.03  -0.01
     5   6    -0.01   0.00   0.00    -0.00   0.06   0.08     0.00   0.01  -0.01
     6   6    -0.06  -0.06  -0.10     0.19  -0.01  -0.01    -0.06  -0.03  -0.01
     7   1     0.09  -0.00  -0.00     0.00  -0.32  -0.05    -0.00  -0.17   0.03
     8   1     0.09   0.00   0.00     0.00   0.17   0.26     0.00   0.31   0.32
     9   1     0.39  -0.15   0.06     0.05  -0.17  -0.03    -0.02   0.04   0.00
    10   1    -0.21   0.14  -0.39    -0.32  -0.04  -0.29     0.06  -0.11   0.09
    11   1     0.06   0.00  -0.00    -0.00   0.05   0.03     0.00   0.02   0.03
    12   1     0.32   0.00   0.00    -0.00   0.12   0.07    -0.00  -0.06  -0.01
    13   1     0.39   0.15  -0.06    -0.05  -0.17  -0.03     0.02   0.04   0.00
    14   1    -0.21  -0.14   0.39     0.32  -0.04  -0.29    -0.06  -0.11   0.09
    15   6    -0.02  -0.01  -0.01     0.04   0.00   0.03    -0.03  -0.06  -0.07
    16   1    -0.04  -0.01   0.00    -0.10  -0.00  -0.06    -0.19  -0.04  -0.05
    17   1    -0.01   0.00   0.01     0.10   0.12   0.04     0.08   0.10   0.11
    18   1    -0.04  -0.02  -0.01     0.06   0.10   0.04    -0.23  -0.05  -0.10
    19   6     0.01  -0.01  -0.03     0.01  -0.02   0.00     0.03  -0.02   0.09
    20   1     0.02   0.05  -0.06     0.01   0.07  -0.12    -0.01   0.03  -0.20
    21   1    -0.02   0.02   0.07    -0.08   0.02   0.15    -0.13  -0.01   0.13
    22   1     0.01   0.05  -0.08    -0.03   0.07  -0.04    -0.15   0.00   0.26
    23   6    -0.02   0.01   0.01    -0.04   0.00   0.03     0.03  -0.06  -0.07
    24   1    -0.01  -0.00  -0.01    -0.10   0.12   0.04    -0.08   0.10   0.11
    25   1    -0.04   0.01  -0.00     0.10  -0.00  -0.06     0.19  -0.04  -0.05
    26   1    -0.04   0.02   0.01    -0.06   0.10   0.04     0.23  -0.05  -0.10
    27   6     0.01   0.01   0.03    -0.01  -0.02   0.00    -0.03  -0.02   0.09
    28   1    -0.02  -0.02  -0.07     0.08   0.02   0.15     0.13  -0.01   0.13
    29   1     0.02  -0.05   0.06    -0.01   0.07  -0.12     0.01   0.03  -0.20
    30   1     0.01  -0.05   0.08     0.03   0.07  -0.04     0.15   0.00   0.26
                     25                     26                     27
                      A                      A                      A
 Frequencies --    915.7952               943.6356               950.4871
 Red. masses --      2.1303                 1.5622                 1.4902
 Frc consts  --      1.0527                 0.8196                 0.7932
 IR Inten    --      0.1517                 1.0418                 0.9240
  Atom  AN      X      Y      Z        X      Y      Z        X      Y      Z
     1   6     0.05  -0.12   0.04     0.05  -0.01  -0.07     0.02  -0.03  -0.07
     2   6     0.08   0.00   0.00    -0.04   0.00   0.00     0.00   0.02   0.02
     3   6     0.05   0.12  -0.04     0.05   0.01   0.07    -0.02  -0.03  -0.07
     4   6     0.04  -0.06   0.06    -0.01   0.01  -0.00     0.01   0.02  -0.02
     5   6    -0.08   0.00  -0.00     0.01  -0.00   0.00    -0.00  -0.02   0.01
     6   6     0.04   0.06  -0.06    -0.01  -0.01   0.00    -0.01   0.02  -0.02
     7   1     0.15  -0.00   0.00    -0.12   0.00   0.00     0.00   0.05   0.02
     8   1    -0.07   0.00   0.00    -0.05  -0.00  -0.00     0.00   0.00  -0.03
     9   1     0.10  -0.02   0.06    -0.03  -0.04  -0.01     0.01   0.11  -0.01
    10   1    -0.02  -0.11   0.00    -0.01   0.01   0.00     0.03   0.01   0.02
    11   1    -0.32   0.00   0.00     0.08  -0.00  -0.00    -0.00  -0.04  -0.06
    12   1     0.03  -0.00  -0.00    -0.03   0.00   0.00     0.00   0.07   0.01
    13   1     0.10   0.02  -0.06    -0.03   0.04   0.01    -0.01   0.11  -0.01
    14   1    -0.02   0.11  -0.00    -0.01  -0.01  -0.00    -0.03   0.01   0.02
    15   6    -0.07   0.01  -0.07    -0.07  -0.06   0.01     0.08   0.03  -0.02
    16   1     0.15   0.04   0.14    -0.17  -0.10  -0.24     0.03   0.07   0.17
    17   1    -0.15  -0.17  -0.06    -0.08  -0.01  -0.18     0.17   0.10   0.25
    18   1    -0.18  -0.20  -0.11     0.19   0.14   0.07    -0.24  -0.10  -0.08
    19   6     0.01   0.05   0.07     0.07   0.03  -0.04    -0.06  -0.04   0.04
    20   1    -0.05  -0.10   0.07    -0.01  -0.04  -0.33     0.02   0.06   0.28
    21   1     0.02  -0.03  -0.21    -0.07  -0.02  -0.21     0.05   0.02   0.25
    22   1    -0.08  -0.12   0.30    -0.16  -0.06   0.27     0.15   0.07  -0.27
    23   6    -0.07  -0.01   0.07    -0.07   0.06  -0.01    -0.08   0.03  -0.02
    24   1    -0.15   0.17   0.06    -0.08   0.01   0.18    -0.17   0.10   0.25
    25   1     0.15  -0.04  -0.14    -0.17   0.10   0.24    -0.03   0.07   0.17
    26   1    -0.18   0.20   0.11     0.19  -0.14  -0.07     0.24  -0.10  -0.08
    27   6     0.01  -0.05  -0.07     0.07  -0.03   0.04     0.06  -0.04   0.04
    28   1     0.02   0.03   0.21    -0.07   0.02   0.21    -0.05   0.02   0.25
    29   1    -0.05   0.10  -0.07    -0.01   0.04   0.33    -0.02   0.06   0.28
    30   1    -0.08   0.12  -0.30    -0.16   0.06  -0.27    -0.15   0.07  -0.27
                     28                     29                     30
                      A                      A                      A
 Frequencies --    978.7799               978.8118               984.6955
 Red. masses --      1.6456                 1.7742                 1.5072
 Frc consts  --      0.9288                 1.0015                 0.8611
 IR Inten    --      1.0244                 1.3648                 4.2143
  Atom  AN      X      Y      Z        X      Y      Z        X      Y      Z
     1   6     0.03  -0.04   0.04    -0.07  -0.01  -0.05     0.01   0.02   0.01
     2   6    -0.00   0.04  -0.04     0.17   0.00  -0.00     0.00   0.03  -0.02
     3   6    -0.03  -0.04   0.04    -0.07   0.01   0.05    -0.01   0.02   0.01
     4   6     0.06   0.07   0.05     0.00  -0.02  -0.01     0.01  -0.09   0.04
     5   6    -0.00  -0.04  -0.09     0.01  -0.00  -0.00     0.00   0.12  -0.05
     6   6    -0.06   0.07   0.05     0.00   0.02   0.01    -0.01  -0.09   0.04
     7   1    -0.00  -0.15  -0.02     0.10  -0.00  -0.00     0.00  -0.07  -0.01
     8   1    -0.00   0.11   0.15     0.45   0.00   0.00     0.00   0.07   0.08
     9   1     0.08  -0.11   0.03    -0.08  -0.03  -0.01    -0.11  -0.26   0.02
    10   1     0.17   0.32  -0.04     0.07   0.06   0.06    -0.06  -0.20   0.02
    11   1     0.00   0.02   0.10    -0.03   0.00   0.00    -0.00   0.23   0.34
    12   1     0.00  -0.19  -0.08    -0.05  -0.00  -0.00    -0.00  -0.30  -0.03
    13   1    -0.08  -0.11   0.03    -0.08   0.02   0.01     0.11  -0.26   0.02
    14   1    -0.17   0.32  -0.04     0.07  -0.06  -0.06     0.06  -0.20   0.02
    15   6    -0.00  -0.01   0.03    -0.03   0.02   0.05    -0.02   0.06  -0.02
    16   1    -0.03  -0.03  -0.06     0.07  -0.01  -0.07     0.26   0.08   0.19
    17   1    -0.01   0.00  -0.05    -0.14  -0.10  -0.18    -0.14  -0.17  -0.05
    18   1     0.11   0.06   0.05     0.24   0.09   0.10    -0.05  -0.16  -0.04
    19   6     0.02  -0.06  -0.05    -0.04   0.05  -0.05    -0.01  -0.01  -0.01
    20   1     0.06   0.14  -0.20    -0.03  -0.09   0.25     0.02   0.04   0.04
    21   1    -0.09   0.03   0.31     0.15  -0.01  -0.26     0.01   0.02   0.09
    22   1     0.01   0.15  -0.21     0.12  -0.07  -0.12     0.04   0.04  -0.11
    23   6     0.00  -0.01   0.03    -0.03  -0.02  -0.05     0.02   0.06  -0.02
    24   1     0.01   0.00  -0.05    -0.14   0.10   0.18     0.14  -0.17  -0.05
    25   1     0.03  -0.03  -0.06     0.07   0.01   0.07    -0.26   0.08   0.19
    26   1    -0.11   0.06   0.05     0.24  -0.09  -0.10     0.05  -0.16  -0.04
    27   6    -0.02  -0.06  -0.05    -0.04  -0.05   0.05     0.01  -0.01  -0.01
    28   1     0.09   0.03   0.31     0.15   0.01   0.26    -0.01   0.02   0.09
    29   1    -0.06   0.14  -0.20    -0.03   0.09  -0.25    -0.02   0.04   0.04
    30   1    -0.01   0.15  -0.21     0.12   0.07   0.12    -0.04   0.04  -0.11
                     31                     32                     33
                      A                      A                      A
 Frequencies --   1024.1470              1040.0136              1068.4401
 Red. masses --      1.2799                 1.7087                 1.9173
 Frc consts  --      0.7910                 1.0889                 1.2895
 IR Inten    --      0.0041                 0.7705                 0.1735
  Atom  AN      X      Y      Z        X      Y      Z        X      Y      Z
     1   6    -0.01   0.00  -0.01     0.05  -0.03  -0.02     0.00  -0.00   0.02
     2   6     0.02  -0.00   0.00    -0.00   0.08  -0.08    -0.00  -0.00  -0.00
     3   6    -0.01  -0.00   0.01    -0.05  -0.03  -0.02     0.00   0.00  -0.02
     4   6     0.01   0.01  -0.01     0.07  -0.05  -0.03    -0.11  -0.09  -0.04
     5   6    -0.02  -0.00  -0.00    -0.00   0.08   0.02     0.19   0.00  -0.00
     6   6     0.01  -0.01   0.01    -0.07  -0.05  -0.03    -0.11   0.09   0.04
     7   1     0.11   0.00  -0.00     0.00  -0.21  -0.05     0.05  -0.00  -0.00
     8   1     0.07  -0.00  -0.00    -0.00   0.18   0.19    -0.04   0.00   0.00
     9   1    -0.07  -0.06  -0.01    -0.10   0.11  -0.01    -0.14  -0.18  -0.05
    10   1     0.04   0.04   0.03     0.09  -0.15   0.17    -0.21  -0.25  -0.06
    11   1     0.03  -0.00  -0.00    -0.00   0.10   0.08     0.56   0.00   0.00
    12   1    -0.17  -0.00  -0.00    -0.00  -0.02   0.02     0.40  -0.00  -0.00
    13   1    -0.07   0.06   0.01     0.10   0.11  -0.01    -0.14   0.18   0.05
    14   1     0.04  -0.04  -0.03    -0.09  -0.15   0.17    -0.21   0.25   0.06
    15   6    -0.04   0.07   0.01     0.01  -0.03   0.07    -0.00   0.04  -0.01
    16   1     0.28   0.06   0.11    -0.14  -0.08  -0.20     0.12   0.05   0.08
    17   1    -0.22  -0.22  -0.17     0.04   0.10  -0.08    -0.05  -0.07  -0.02
    18   1     0.12  -0.10   0.03     0.24   0.22   0.13    -0.01  -0.06  -0.02
    19   6     0.04  -0.06  -0.00    -0.05   0.02  -0.01     0.01   0.02   0.02
    20   1     0.05   0.12  -0.26    -0.03  -0.05   0.25    -0.01  -0.03  -0.01
    21   1    -0.13   0.02   0.28     0.11  -0.00  -0.11    -0.01  -0.01  -0.07
    22   1    -0.07   0.12  -0.04     0.10  -0.05  -0.11    -0.03  -0.03   0.09
    23   6    -0.04  -0.07  -0.01    -0.01  -0.03   0.07    -0.00  -0.04   0.01
    24   1    -0.22   0.22   0.17    -0.04   0.10  -0.08    -0.05   0.07   0.02
    25   1     0.28  -0.06  -0.11     0.14  -0.08  -0.20     0.12  -0.05  -0.08
    26   1     0.12   0.10  -0.03    -0.24   0.22   0.13    -0.01   0.06   0.02
    27   6     0.04   0.06   0.00     0.05   0.02  -0.01     0.01  -0.02  -0.02
    28   1    -0.13  -0.02  -0.28    -0.11  -0.00  -0.11    -0.01   0.01   0.07
    29   1     0.05  -0.12   0.26     0.03  -0.05   0.25    -0.01   0.03   0.01
    30   1    -0.07  -0.12   0.04    -0.10  -0.05  -0.11    -0.03   0.03  -0.09
                     34                     35                     36
                      A                      A                      A
 Frequencies --   1075.8828              1088.1814              1143.8285
 Red. masses --      1.5723                 1.6222                 1.4479
 Frc consts  --      1.0723                 1.1317                 1.1161
 IR Inten    --      1.0528                 0.0209                 1.2353
  Atom  AN      X      Y      Z        X      Y      Z        X      Y      Z
     1   6    -0.01   0.02   0.03     0.05  -0.03  -0.12     0.06   0.06  -0.03
     2   6     0.00  -0.04  -0.06     0.02  -0.00  -0.00    -0.08  -0.00  -0.00
     3   6     0.01   0.02   0.03     0.05   0.03   0.12     0.06  -0.06   0.03
     4   6    -0.01   0.01   0.09     0.00   0.01   0.00     0.04   0.05  -0.00
     5   6    -0.00   0.01  -0.09     0.01   0.00  -0.00    -0.07  -0.00  -0.00
     6   6     0.01   0.01   0.09     0.00  -0.01  -0.00     0.04  -0.05   0.00
     7   1     0.00  -0.11  -0.05    -0.32  -0.00  -0.00    -0.35   0.00  -0.00
     8   1    -0.00  -0.01   0.03     0.07   0.00   0.00     0.33  -0.00  -0.00
     9   1     0.09  -0.26   0.06    -0.20  -0.32  -0.01     0.14   0.26   0.01
    10   1     0.00   0.17  -0.11     0.06   0.09   0.04    -0.20  -0.36  -0.01
    11   1    -0.00   0.09   0.16     0.23   0.00   0.00     0.23  -0.00   0.00
    12   1    -0.00  -0.22  -0.07    -0.34  -0.00  -0.00     0.10  -0.00  -0.00
    13   1    -0.09  -0.26   0.06    -0.20   0.32   0.01     0.14  -0.26  -0.01
    14   1    -0.00   0.17  -0.11     0.06  -0.09  -0.04    -0.20   0.36   0.01
    15   6     0.04  -0.05  -0.04    -0.01  -0.01  -0.08    -0.02   0.03  -0.01
    16   1    -0.20  -0.03  -0.02    -0.02   0.03   0.11     0.12   0.02   0.05
    17   1     0.18   0.15   0.17     0.03  -0.02   0.12    -0.09  -0.10  -0.05
    18   1    -0.20   0.01  -0.07    -0.27  -0.15  -0.13     0.02  -0.08  -0.01
    19   6    -0.02   0.06  -0.01    -0.01  -0.00  -0.05    -0.02   0.02  -0.01
    20   1    -0.04  -0.09   0.19     0.02   0.03   0.04    -0.02  -0.04   0.10
    21   1     0.12  -0.00  -0.25     0.06   0.01  -0.00     0.07   0.00  -0.07
    22   1     0.06  -0.09   0.03     0.07   0.02  -0.16     0.06  -0.04  -0.04
    23   6    -0.04  -0.05  -0.04    -0.01   0.01   0.08    -0.02  -0.03   0.01
    24   1    -0.18   0.15   0.17     0.03   0.02  -0.12    -0.09   0.10   0.05
    25   1     0.20  -0.03  -0.02    -0.02  -0.03  -0.11     0.12  -0.02  -0.05
    26   1     0.20   0.01  -0.07    -0.27   0.15   0.13     0.02   0.08   0.01
    27   6     0.02   0.06  -0.01    -0.01   0.00   0.05    -0.02  -0.02   0.01
    28   1    -0.12  -0.00  -0.25     0.06  -0.01   0.00     0.07  -0.00   0.07
    29   1     0.04  -0.09   0.19     0.02  -0.03  -0.04    -0.02   0.04  -0.10
    30   1    -0.06  -0.09   0.03     0.07  -0.02   0.16     0.06   0.04   0.04
                     37                     38                     39
                      A                      A                      A
 Frequencies --   1176.4672              1218.4184              1233.6839
 Red. masses --      1.6355                 2.6238                 1.3931
 Frc consts  --      1.3337                 2.2949                 1.2492
 IR Inten    --      4.6284                 1.1747                 0.5544
  Atom  AN      X      Y      Z        X      Y      Z        X      Y      Z
     1   6    -0.10   0.09  -0.01     0.20  -0.08  -0.07     0.01  -0.05  -0.06
     2   6    -0.02  -0.00   0.00    -0.00   0.01   0.03     0.03   0.00   0.00
     3   6    -0.10  -0.09   0.01    -0.20  -0.08  -0.07     0.01   0.05   0.06
     4   6    -0.01   0.01  -0.00     0.02  -0.05   0.01    -0.04  -0.03  -0.07
     5   6     0.00   0.00  -0.00    -0.00   0.08  -0.01     0.04   0.00  -0.00
     6   6    -0.01  -0.01   0.00    -0.02  -0.05   0.01    -0.04   0.03   0.07
     7   1    -0.07   0.00   0.00     0.00   0.02   0.03    -0.32   0.00   0.00
     8   1     0.50  -0.00  -0.00    -0.00  -0.03  -0.05     0.12  -0.00  -0.00
     9   1     0.02   0.04  -0.00    -0.01   0.04   0.01     0.02   0.28  -0.05
    10   1     0.09   0.21  -0.01     0.15   0.17   0.03     0.04   0.04   0.03
    11   1    -0.10   0.00   0.00     0.00   0.11   0.10    -0.54   0.00   0.00
    12   1    -0.01  -0.00  -0.00    -0.00  -0.06   0.00     0.57  -0.00  -0.00
    13   1     0.02  -0.04   0.00     0.01   0.04   0.01     0.02  -0.28   0.05
    14   1     0.09  -0.21   0.01    -0.15   0.17   0.03     0.04  -0.04  -0.03
    15   6     0.05   0.04  -0.04     0.07   0.03  -0.00    -0.00  -0.00  -0.02
    16   1     0.10   0.08   0.18     0.06   0.06   0.14    -0.03   0.01   0.02
    17   1     0.08   0.00   0.16     0.13   0.08   0.16    -0.01  -0.01   0.00
    18   1    -0.14  -0.11  -0.07    -0.05   0.01  -0.02    -0.07  -0.02  -0.03
    19   6     0.06   0.05   0.01     0.09   0.03   0.03     0.01  -0.04  -0.01
    20   1    -0.03  -0.09  -0.19    -0.02  -0.09  -0.29     0.03   0.07  -0.06
    21   1    -0.07  -0.02  -0.19    -0.18  -0.03  -0.14    -0.03  -0.01   0.08
    22   1    -0.11  -0.06   0.26    -0.17  -0.02   0.32    -0.01   0.07  -0.09
    23   6     0.05  -0.04   0.04    -0.07   0.03  -0.00    -0.00   0.00   0.02
    24   1     0.08  -0.00  -0.16    -0.13   0.08   0.16    -0.01   0.01  -0.00
    25   1     0.10  -0.08  -0.18    -0.06   0.06   0.14    -0.03  -0.01  -0.02
    26   1    -0.14   0.11   0.07     0.05   0.01  -0.02    -0.07   0.02   0.03
    27   6     0.06  -0.05  -0.01    -0.09   0.03   0.03     0.01   0.04   0.01
    28   1    -0.07   0.02   0.19     0.18  -0.03  -0.14    -0.03   0.01  -0.08
    29   1    -0.03   0.09   0.19     0.02  -0.09  -0.29     0.03  -0.07   0.06
    30   1    -0.11   0.06  -0.26     0.17  -0.02   0.32    -0.01  -0.07   0.09
                     40                     41                     42
                      A                      A                      A
 Frequencies --   1239.0671              1274.7033              1289.5987
 Red. masses --      2.4729                 2.9787                 1.8417
 Frc consts  --      2.2369                 2.8517                 1.8046
 IR Inten    --      3.5084                 2.9747                 1.7428
  Atom  AN      X      Y      Z        X      Y      Z        X      Y      Z
     1   6     0.04   0.04   0.18     0.05   0.23  -0.08    -0.12  -0.12  -0.01
     2   6     0.00  -0.03  -0.09     0.00  -0.11   0.04     0.03   0.00  -0.00
     3   6    -0.04   0.04   0.18    -0.05   0.23  -0.08    -0.12   0.12   0.01
     4   6     0.02  -0.02  -0.11     0.02  -0.06   0.02     0.06  -0.00   0.01
     5   6     0.00   0.02   0.14    -0.00   0.03   0.01    -0.03  -0.00   0.00
     6   6    -0.02  -0.02  -0.11    -0.02  -0.06   0.02     0.06   0.00  -0.01
     7   1    -0.00  -0.14  -0.07     0.00   0.16   0.01     0.06   0.00  -0.00
     8   1     0.00   0.04   0.10    -0.00  -0.17  -0.16     0.41  -0.00  -0.00
     9   1    -0.34  -0.14  -0.10    -0.09  -0.16   0.01    -0.02   0.02   0.02
    10   1     0.21   0.12   0.19    -0.01  -0.11   0.02    -0.18  -0.43   0.03
    11   1    -0.00  -0.05  -0.09     0.00   0.02   0.02     0.24  -0.00  -0.00
    12   1     0.00   0.26   0.13    -0.00  -0.05   0.01    -0.07  -0.00   0.00
    13   1     0.34  -0.14  -0.10     0.09  -0.16   0.01    -0.02  -0.02  -0.02
    14   1    -0.21   0.12   0.19     0.01  -0.11   0.02    -0.18   0.43  -0.03
    15   6     0.03  -0.01  -0.06     0.02  -0.08   0.03     0.03  -0.04  -0.00
    16   1    -0.09   0.03   0.09    -0.22  -0.08  -0.14    -0.14  -0.02  -0.00
    17   1     0.07   0.00   0.13     0.13   0.18  -0.03     0.11   0.11   0.05
    18   1    -0.22  -0.08  -0.10    -0.01   0.21   0.04    -0.08   0.12  -0.01
    19   6     0.01  -0.01  -0.04     0.02  -0.08   0.01     0.04  -0.04  -0.00
    20   1     0.02   0.05  -0.09     0.07   0.14  -0.09     0.04   0.07  -0.12
    21   1    -0.00  -0.00  -0.02    -0.11   0.00   0.26    -0.11  -0.01   0.08
    22   1     0.01   0.05  -0.08    -0.09   0.15  -0.04    -0.09   0.11   0.00
    23   6    -0.03  -0.01  -0.06    -0.02  -0.08   0.03     0.03   0.04   0.00
    24   1    -0.07   0.00   0.13    -0.13   0.18  -0.03     0.11  -0.11  -0.05
    25   1     0.09   0.03   0.09     0.22  -0.08  -0.14    -0.14   0.02   0.00
    26   1     0.22  -0.08  -0.10     0.01   0.21   0.04    -0.08  -0.12   0.01
    27   6    -0.01  -0.01  -0.04    -0.02  -0.08   0.01     0.04   0.04   0.00
    28   1     0.00  -0.00  -0.02     0.11   0.00   0.26    -0.11   0.01  -0.08
    29   1    -0.02   0.05  -0.09    -0.07   0.14  -0.09     0.04  -0.07   0.12
    30   1    -0.01   0.05  -0.08     0.09   0.15  -0.04    -0.09  -0.11  -0.00
                     43                     44                     45
                      A                      A                      A
 Frequencies --   1340.2021              1344.4795              1369.6112
 Red. masses --      1.4027                 1.5119                 1.2964
 Frc consts  --      1.4844                 1.6102                 1.4328
 IR Inten    --      0.8258                 1.9006                 0.0507
  Atom  AN      X      Y      Z        X      Y      Z        X      Y      Z
     1   6    -0.06  -0.02  -0.09     0.06  -0.04   0.08     0.00   0.02  -0.05
     2   6     0.00   0.01   0.04    -0.10   0.00   0.00    -0.07  -0.00  -0.00
     3   6     0.06  -0.02  -0.09     0.06   0.04  -0.08     0.00  -0.02   0.05
     4   6    -0.02  -0.02  -0.01    -0.02   0.04   0.02     0.04   0.06  -0.03
     5   6    -0.00   0.03   0.07     0.09   0.00   0.00    -0.05   0.00  -0.00
     6   6     0.02  -0.02  -0.01    -0.02  -0.04  -0.02     0.04  -0.06   0.03
     7   1     0.00   0.04   0.03    -0.10   0.00   0.00     0.69   0.00   0.00
     8   1    -0.00  -0.03  -0.06     0.67  -0.00  -0.00    -0.01  -0.00   0.00
     9   1    -0.22  -0.39  -0.03    -0.12  -0.28  -0.01    -0.20  -0.21  -0.04
    10   1     0.24   0.41   0.04    -0.07  -0.00  -0.06    -0.03  -0.10   0.02
    11   1     0.00   0.01   0.01    -0.46   0.00   0.00    -0.19   0.00  -0.00
    12   1     0.00   0.12   0.08    -0.15   0.00   0.00     0.46  -0.00  -0.00
    13   1     0.22  -0.39  -0.03    -0.12   0.28   0.01    -0.20   0.21   0.04
    14   1    -0.24   0.41   0.04    -0.07   0.00   0.06    -0.03   0.10  -0.02
    15   6    -0.02   0.01   0.02    -0.01  -0.01   0.02     0.00   0.01  -0.01
    16   1     0.09  -0.02  -0.07     0.03  -0.03  -0.07    -0.04   0.01  -0.00
    17   1    -0.03   0.02  -0.06     0.01   0.06  -0.06    -0.01  -0.04   0.05
    18   1     0.08  -0.02   0.03     0.04   0.03   0.02    -0.01  -0.05  -0.02
    19   6    -0.02   0.01   0.01    -0.01  -0.01   0.01    -0.01   0.01   0.00
    20   1    -0.02  -0.03   0.07     0.01   0.03   0.07    -0.02  -0.01  -0.05
    21   1     0.04   0.01   0.02     0.03   0.01   0.06     0.04  -0.02  -0.09
    22   1     0.02  -0.06   0.04    -0.01  -0.01   0.02     0.06  -0.00  -0.06
    23   6     0.02   0.01   0.02    -0.01   0.01  -0.02     0.00  -0.01   0.01
    24   1     0.03   0.02  -0.06     0.01  -0.06   0.06    -0.01   0.04  -0.05
    25   1    -0.09  -0.02  -0.07     0.03   0.03   0.07    -0.04  -0.01   0.00
    26   1    -0.08  -0.02   0.03     0.04  -0.03  -0.02    -0.01   0.05   0.02
    27   6     0.02   0.01   0.01    -0.01   0.01  -0.01    -0.01  -0.01  -0.00
    28   1    -0.04   0.01   0.02     0.03  -0.01  -0.06     0.04   0.02   0.09
    29   1     0.02  -0.03   0.07     0.01  -0.03  -0.07    -0.02   0.01   0.05
    30   1    -0.02  -0.06   0.04    -0.01   0.01  -0.02     0.06   0.00   0.06
                     46                     47                     48
                      A                      A                      A
 Frequencies --   1382.4095              1386.5220              1397.9853
 Red. masses --      1.5394                 1.4602                 1.3493
 Frc consts  --      1.7333                 1.6540                 1.5537
 IR Inten    --      1.1366                 0.0554                 2.8624
  Atom  AN      X      Y      Z        X      Y      Z        X      Y      Z
     1   6    -0.04   0.03   0.02     0.04  -0.04   0.03     0.03  -0.02  -0.05
     2   6    -0.00  -0.02  -0.01    -0.06   0.00   0.00    -0.08  -0.00  -0.00
     3   6     0.04   0.03   0.02     0.04   0.04  -0.03     0.03   0.02   0.05
     4   6    -0.06  -0.12  -0.00    -0.00  -0.06   0.00    -0.05  -0.04   0.00
     5   6    -0.00   0.06  -0.02    -0.13  -0.00   0.00     0.08   0.00   0.00
     6   6     0.06  -0.12  -0.00    -0.00   0.06  -0.00    -0.05   0.04  -0.00
     7   1    -0.00   0.05  -0.01     0.02  -0.00   0.00     0.53   0.00   0.00
     8   1     0.00   0.00   0.03     0.40  -0.00  -0.00     0.17   0.00   0.00
     9   1     0.24   0.45   0.03     0.00  -0.01   0.01     0.24   0.28   0.03
    10   1     0.21   0.37  -0.00     0.23   0.30   0.05    -0.01   0.02   0.01
    11   1     0.00   0.10   0.08     0.52  -0.00  -0.00    -0.01   0.00   0.00
    12   1     0.00  -0.09  -0.02     0.40   0.00   0.00    -0.43   0.00   0.00
    13   1    -0.24   0.45   0.03     0.00   0.01  -0.01     0.24  -0.28  -0.03
    14   1    -0.21   0.37  -0.00     0.23  -0.30  -0.05    -0.01  -0.02  -0.01
    15   6    -0.02  -0.00  -0.01    -0.02  -0.02   0.00    -0.01  -0.01  -0.02
    16   1     0.04   0.00   0.04     0.07  -0.02  -0.00     0.01   0.01   0.07
    17   1     0.00   0.02   0.01     0.04   0.11  -0.01     0.02   0.01   0.07
    18   1     0.02   0.02  -0.00     0.05   0.06   0.02     0.03   0.03  -0.00
    19   6    -0.01  -0.01   0.01    -0.01  -0.01   0.02    -0.02  -0.01   0.02
    20   1     0.01   0.08  -0.05     0.01   0.07  -0.03    -0.01   0.08  -0.15
    21   1     0.06  -0.02  -0.04     0.05  -0.02  -0.03     0.10  -0.03  -0.11
    22   1     0.03   0.04  -0.08     0.02   0.04  -0.05     0.10   0.03  -0.14
    23   6     0.02  -0.00  -0.01    -0.02   0.02  -0.00    -0.01   0.01   0.02
    24   1    -0.00   0.02   0.01     0.04  -0.11   0.01     0.02  -0.01  -0.07
    25   1    -0.04   0.00   0.04     0.07   0.02   0.00     0.01  -0.01  -0.07
    26   1    -0.02   0.02  -0.00     0.05  -0.06  -0.02     0.03  -0.03   0.00
    27   6     0.01  -0.01   0.01    -0.01   0.01  -0.02    -0.02   0.01  -0.02
    28   1    -0.06  -0.02  -0.04     0.05   0.02   0.03     0.10   0.03   0.11
    29   1    -0.01   0.08  -0.05     0.01  -0.07   0.03    -0.01  -0.08   0.15
    30   1    -0.03   0.04  -0.08     0.02  -0.04   0.05     0.10  -0.03   0.14
                     49                     50                     51
                      A                      A                      A
 Frequencies --   1412.3446              1416.5993              1437.9085
 Red. masses --      1.2531                 1.2324                 1.2168
 Frc consts  --      1.4727                 1.4571                 1.4823
 IR Inten    --      0.3702                16.5881                 6.4974
  Atom  AN      X      Y      Z        X      Y      Z        X      Y      Z
     1   6    -0.00   0.00   0.03    -0.00   0.00   0.02     0.00  -0.00   0.00
     2   6     0.01  -0.00  -0.00     0.00  -0.00  -0.01     0.00  -0.01  -0.01
     3   6    -0.00  -0.00  -0.03     0.00   0.00   0.02    -0.00  -0.00   0.00
     4   6     0.00  -0.00   0.01    -0.00   0.00  -0.00    -0.01  -0.02  -0.00
     5   6    -0.00   0.00   0.00    -0.00   0.00   0.00     0.00   0.02  -0.00
     6   6     0.00   0.00  -0.01     0.00   0.00  -0.00     0.01  -0.02  -0.00
     7   1    -0.15   0.00  -0.00    -0.00   0.01  -0.01    -0.00   0.12  -0.01
     8   1     0.02   0.00   0.00    -0.00   0.01   0.03    -0.00   0.05   0.12
     9   1    -0.02  -0.03   0.01     0.01   0.02  -0.00     0.06   0.07   0.00
    10   1     0.00   0.02  -0.02    -0.01  -0.01   0.00     0.04   0.05   0.02
    11   1     0.03   0.00  -0.00    -0.00  -0.02  -0.05    -0.00   0.00  -0.05
    12   1    -0.02  -0.00   0.00     0.00  -0.03   0.00     0.00  -0.07   0.00
    13   1    -0.02   0.03  -0.01    -0.01   0.02  -0.00    -0.06   0.07   0.00
    14   1     0.00  -0.02   0.02     0.01  -0.01   0.00    -0.04   0.05   0.02
    15   6     0.05   0.03   0.04    -0.06  -0.03  -0.04     0.04   0.03   0.03
    16   1    -0.21  -0.02  -0.21     0.24   0.01   0.22    -0.18  -0.00  -0.15
    17   1    -0.12  -0.18  -0.22     0.13   0.21   0.21    -0.09  -0.16  -0.14
    18   1    -0.26  -0.14  -0.03     0.27   0.16   0.04    -0.19  -0.12  -0.03
    19   6    -0.01  -0.01   0.07     0.01   0.01  -0.06     0.02   0.01  -0.07
    20   1    -0.04   0.06  -0.26     0.02  -0.08   0.22     0.02  -0.15   0.28
    21   1     0.06  -0.08  -0.24    -0.07   0.07   0.23    -0.13   0.10   0.30
    22   1     0.14   0.10  -0.19    -0.11  -0.09   0.17    -0.14  -0.12   0.21
    23   6     0.05  -0.03  -0.04     0.06  -0.03  -0.04    -0.04   0.03   0.03
    24   1    -0.12   0.18   0.22    -0.13   0.21   0.21     0.09  -0.16  -0.14
    25   1    -0.21   0.02   0.21    -0.24   0.01   0.22     0.18  -0.00  -0.15
    26   1    -0.26   0.14   0.03    -0.27   0.16   0.04     0.19  -0.12  -0.03
    27   6    -0.01   0.01  -0.07    -0.01   0.01  -0.06    -0.02   0.01  -0.07
    28   1     0.06   0.08   0.24     0.07   0.07   0.23     0.13   0.10   0.30
    29   1    -0.04  -0.06   0.26    -0.02  -0.08   0.22    -0.02  -0.15   0.28
    30   1     0.14  -0.10   0.19     0.11  -0.09   0.17     0.14  -0.12   0.21
                     52                     53                     54
                      A                      A                      A
 Frequencies --   1439.7076              1490.8146              1493.3390
 Red. masses --      1.2412                 1.0813                 1.0756
 Frc consts  --      1.5158                 1.4159                 1.4132
 IR Inten    --      8.1530                 2.1494                 1.1840
  Atom  AN      X      Y      Z        X      Y      Z        X      Y      Z
     1   6     0.01  -0.01  -0.02     0.00  -0.00  -0.00     0.00   0.00   0.00
     2   6    -0.05  -0.00  -0.00     0.00  -0.06  -0.04    -0.01   0.00   0.00
     3   6     0.01   0.01   0.02    -0.00  -0.00  -0.00     0.00  -0.00  -0.00
     4   6    -0.02  -0.02  -0.01     0.02  -0.00   0.01     0.03  -0.03   0.03
     5   6    -0.01   0.00   0.00     0.00  -0.01  -0.00     0.00  -0.00  -0.00
     6   6    -0.02   0.02   0.01    -0.02  -0.00   0.01     0.03   0.03  -0.03
     7   1     0.26   0.00  -0.00     0.00   0.59  -0.07     0.01  -0.00   0.00
     8   1     0.15   0.00   0.00    -0.00   0.18   0.56     0.01  -0.00  -0.00
     9   1     0.13   0.06   0.00    -0.14   0.05   0.01    -0.34   0.21   0.04
    10   1     0.06   0.05   0.08    -0.04   0.01  -0.13    -0.08   0.09  -0.39
    11   1     0.10  -0.00  -0.00     0.00   0.01   0.06     0.02   0.00   0.00
    12   1    -0.02  -0.00   0.00    -0.00   0.06  -0.00    -0.02   0.00  -0.00
    13   1     0.13  -0.06  -0.00     0.14   0.05   0.01    -0.34  -0.21  -0.04
    14   1     0.06  -0.05  -0.08     0.04   0.01  -0.13    -0.08  -0.09   0.39
    15   6     0.05   0.03   0.03    -0.01   0.00   0.01     0.01   0.01  -0.01
    16   1    -0.23  -0.00  -0.16     0.12  -0.04  -0.12    -0.13   0.02   0.02
    17   1    -0.10  -0.19  -0.14     0.05   0.11   0.03    -0.03  -0.12   0.10
    18   1    -0.22  -0.13  -0.04     0.02  -0.12  -0.00     0.08  -0.02   0.01
    19   6     0.01   0.01  -0.06     0.01   0.00   0.01    -0.01  -0.01  -0.01
    20   1     0.04  -0.06   0.25    -0.03  -0.09  -0.02     0.08   0.21   0.02
    21   1    -0.05   0.08   0.25    -0.11  -0.02  -0.06     0.21   0.00   0.00
    22   1    -0.13  -0.10   0.18     0.05   0.06  -0.08    -0.10  -0.04   0.11
    23   6     0.05  -0.03  -0.03     0.01   0.00   0.01     0.01  -0.01   0.01
    24   1    -0.10   0.19   0.14    -0.05   0.11   0.03    -0.03   0.12  -0.10
    25   1    -0.23   0.00   0.16    -0.12  -0.04  -0.12    -0.13  -0.02  -0.02
    26   1    -0.22   0.13   0.04    -0.02  -0.12  -0.00     0.08   0.02  -0.01
    27   6     0.01  -0.01   0.06    -0.01   0.00   0.01    -0.01   0.01   0.01
    28   1    -0.05  -0.08  -0.25     0.11  -0.02  -0.06     0.21  -0.00  -0.00
    29   1     0.04   0.06  -0.25     0.03  -0.09  -0.02     0.08  -0.21  -0.02
    30   1    -0.13   0.10  -0.18    -0.05   0.06  -0.08    -0.10   0.04  -0.11
                     55                     56                     57
                      A                      A                      A
 Frequencies --   1499.6661              1501.8593              1508.8608
 Red. masses --      1.0706                 1.0438                 1.0669
 Frc consts  --      1.4186                 1.3871                 1.4311
 IR Inten    --      0.6185                 0.8205                 1.6016
  Atom  AN      X      Y      Z        X      Y      Z        X      Y      Z
     1   6    -0.00   0.01   0.01     0.00  -0.00  -0.00     0.01  -0.01  -0.02
     2   6    -0.00   0.00   0.00    -0.00   0.00   0.00    -0.01   0.00   0.00
     3   6     0.00   0.01   0.01     0.00   0.00   0.00     0.01   0.01   0.02
     4   6    -0.03   0.01  -0.02    -0.00  -0.00   0.00     0.02  -0.02   0.02
     5   6    -0.00  -0.02  -0.03     0.00   0.00   0.00     0.01  -0.00  -0.00
     6   6     0.03   0.01  -0.02    -0.00   0.00  -0.00     0.02   0.02  -0.02
     7   1     0.00  -0.03   0.00     0.02  -0.00   0.00     0.08  -0.00   0.00
     8   1    -0.00  -0.01  -0.03     0.00  -0.00  -0.00     0.03  -0.00  -0.00
     9   1     0.31  -0.13  -0.03     0.01   0.02   0.01    -0.21   0.17   0.03
    10   1     0.08  -0.07   0.31    -0.00   0.01  -0.01    -0.06   0.06  -0.25
    11   1     0.00   0.09   0.30     0.01  -0.00  -0.00     0.01   0.00   0.00
    12   1    -0.00   0.30  -0.03    -0.04  -0.00   0.00    -0.03   0.00  -0.00
    13   1    -0.31  -0.13  -0.03     0.01  -0.02  -0.01    -0.21  -0.17  -0.03
    14   1    -0.08  -0.07   0.31    -0.00  -0.01   0.01    -0.06  -0.06   0.25
    15   6    -0.01  -0.01   0.01    -0.02   0.02   0.00    -0.01  -0.01   0.01
    16   1     0.15  -0.03  -0.04     0.02  -0.05  -0.25     0.16  -0.04  -0.09
    17   1     0.04   0.14  -0.12     0.04   0.02   0.22     0.04   0.16  -0.13
    18   1    -0.10   0.00  -0.01     0.16  -0.31   0.00    -0.13  -0.04  -0.02
    19   6     0.02   0.01   0.01     0.02  -0.02   0.00     0.02   0.02  -0.00
    20   1    -0.05  -0.18   0.04     0.06   0.02   0.20    -0.12  -0.33  -0.01
    21   1    -0.23  -0.01  -0.03    -0.22  -0.07  -0.19    -0.27   0.03   0.09
    22   1     0.04   0.09  -0.10    -0.17   0.30  -0.07     0.15  -0.03  -0.12
    23   6     0.01  -0.01   0.01    -0.02  -0.02  -0.00    -0.01   0.01  -0.01
    24   1    -0.04   0.14  -0.12     0.04  -0.02  -0.22     0.04  -0.16   0.13
    25   1    -0.15  -0.03  -0.04     0.02   0.05   0.25     0.16   0.04   0.09
    26   1     0.10   0.00  -0.01     0.16   0.31  -0.00    -0.13   0.04   0.02
    27   6    -0.02   0.01   0.01     0.02   0.02  -0.00     0.02  -0.02   0.00
    28   1     0.23  -0.01  -0.03    -0.22   0.07   0.19    -0.27  -0.03  -0.09
    29   1     0.05  -0.18   0.04     0.06  -0.02  -0.20    -0.12   0.33   0.01
    30   1    -0.04   0.09  -0.10    -0.17  -0.30   0.07     0.15   0.03   0.12
                     58                     59                     60
                      A                      A                      A
 Frequencies --   1510.0628              1516.1823              1521.0504
 Red. masses --      1.0479                 1.0637                 1.0581
 Frc consts  --      1.4078                 1.4407                 1.4424
 IR Inten    --      3.3519                10.2707                 9.3658
  Atom  AN      X      Y      Z        X      Y      Z        X      Y      Z
     1   6    -0.00   0.01  -0.00    -0.01  -0.00  -0.01    -0.02   0.01  -0.02
     2   6     0.00   0.01   0.01    -0.00  -0.01  -0.00     0.01  -0.00  -0.00
     3   6     0.00   0.01  -0.00     0.01  -0.00  -0.01    -0.02  -0.01   0.02
     4   6    -0.00  -0.01   0.00     0.01  -0.01   0.00     0.00   0.00  -0.00
     5   6    -0.00  -0.01  -0.01    -0.00  -0.04  -0.03     0.00  -0.00  -0.00
     6   6     0.00  -0.01   0.00    -0.01  -0.01   0.00     0.00  -0.00   0.00
     7   1    -0.00  -0.13   0.01    -0.00   0.11  -0.01     0.04   0.00  -0.00
     8   1    -0.00  -0.04  -0.12     0.00   0.03   0.09    -0.06   0.00   0.00
     9   1     0.01   0.01   0.00    -0.08   0.03   0.01     0.03   0.01  -0.00
    10   1     0.01  -0.00   0.01    -0.00   0.03  -0.08    -0.01  -0.04   0.03
    11   1    -0.00   0.04   0.15     0.00   0.12   0.43    -0.01   0.00   0.00
    12   1     0.00   0.14  -0.01     0.00   0.46  -0.03    -0.00   0.00  -0.00
    13   1    -0.01   0.01   0.00     0.08   0.03   0.01     0.03  -0.01   0.00
    14   1    -0.01  -0.00   0.01     0.00   0.03  -0.08    -0.01   0.04  -0.03
    15   6    -0.01   0.03  -0.01     0.02  -0.01  -0.02    -0.01   0.00   0.03
    16   1    -0.11  -0.02  -0.22    -0.24   0.08   0.26     0.30  -0.08  -0.26
    17   1     0.02  -0.10   0.34    -0.09  -0.24   0.04     0.10   0.29  -0.10
    18   1     0.27  -0.32   0.01     0.08   0.23   0.02    -0.15  -0.22  -0.03
    19   6     0.01  -0.01  -0.00    -0.00   0.00   0.00    -0.02  -0.01  -0.01
    20   1     0.05   0.05   0.15    -0.02  -0.05   0.01     0.06   0.20  -0.07
    21   1    -0.11  -0.04  -0.10    -0.03   0.01   0.02     0.27   0.02   0.04
    22   1    -0.14   0.18  -0.01     0.02  -0.02  -0.00    -0.04  -0.12   0.12
    23   6     0.01   0.03  -0.01    -0.02  -0.01  -0.02    -0.01  -0.00  -0.03
    24   1    -0.02  -0.10   0.34     0.09  -0.24   0.04     0.10  -0.29   0.10
    25   1     0.11  -0.02  -0.22     0.24   0.08   0.26     0.30   0.08   0.26
    26   1    -0.27  -0.32   0.01    -0.08   0.23   0.02    -0.15   0.22   0.03
    27   6    -0.01  -0.01  -0.00     0.00   0.00   0.00    -0.02   0.01   0.01
    28   1     0.11  -0.04  -0.10     0.03   0.01   0.02     0.27  -0.02  -0.04
    29   1    -0.05   0.05   0.15     0.02  -0.05   0.01     0.06  -0.20   0.07
    30   1     0.14   0.18  -0.01    -0.02  -0.02  -0.00    -0.04   0.12  -0.12
                     61                     62                     63
                      A                      A                      A
 Frequencies --   1521.8518              1528.0037              1530.9402
 Red. masses --      1.0820                 1.0574                 1.0614
 Frc consts  --      1.4765                 1.4546                 1.4657
 IR Inten    --     10.1945                 5.9507                 6.7064
  Atom  AN      X      Y      Z        X      Y      Z        X      Y      Z
     1   6     0.01  -0.00  -0.02     0.01   0.03  -0.01    -0.02   0.01  -0.00
     2   6    -0.00  -0.03  -0.01    -0.01   0.00   0.00     0.00   0.01   0.01
     3   6    -0.01  -0.00  -0.02     0.01  -0.03   0.01     0.02   0.01  -0.00
     4   6    -0.03   0.02  -0.02     0.00   0.00   0.00     0.00  -0.00   0.00
     5   6     0.00   0.03   0.01     0.00   0.00   0.00    -0.00   0.03   0.02
     6   6     0.03   0.02  -0.02     0.00  -0.00  -0.00    -0.00  -0.00   0.00
     7   1     0.00   0.30  -0.04     0.08  -0.00   0.00    -0.00  -0.09   0.01
     8   1     0.00   0.09   0.27    -0.06  -0.00  -0.00     0.00  -0.02  -0.08
     9   1     0.27  -0.18  -0.04    -0.04   0.02   0.00    -0.06   0.01   0.01
    10   1     0.07  -0.06   0.31    -0.01   0.02  -0.04    -0.00   0.04  -0.05
    11   1    -0.00  -0.05  -0.21    -0.03  -0.00  -0.00     0.00  -0.09  -0.30
    12   1    -0.00  -0.22   0.01    -0.02  -0.00   0.00     0.00  -0.32   0.03
    13   1    -0.27  -0.18  -0.04    -0.04  -0.02  -0.00     0.06   0.01   0.01
    14   1    -0.07  -0.06   0.31    -0.01  -0.02   0.04     0.00   0.04  -0.05
    15   6     0.01   0.01  -0.02     0.01  -0.02   0.01     0.00  -0.00  -0.01
    16   1    -0.17   0.04   0.09     0.12   0.02   0.17    -0.12   0.03   0.10
    17   1    -0.04  -0.17   0.16    -0.01   0.09  -0.30    -0.04  -0.12   0.05
    18   1     0.16   0.03   0.02    -0.24   0.25  -0.02     0.07   0.09   0.01
    19   6    -0.01  -0.00   0.01     0.01  -0.02  -0.00     0.02   0.01   0.02
    20   1     0.01   0.09  -0.08     0.10   0.14   0.21    -0.10  -0.32   0.02
    21   1     0.12  -0.00  -0.01    -0.07  -0.07  -0.20    -0.36  -0.02  -0.04
    22   1     0.02  -0.04   0.02    -0.21   0.25   0.01     0.13   0.12  -0.21
    23   6    -0.01   0.01  -0.02     0.01   0.02  -0.01    -0.00  -0.00  -0.01
    24   1     0.04  -0.17   0.16    -0.01  -0.09   0.30     0.04  -0.12   0.05
    25   1     0.17   0.04   0.09     0.12  -0.02  -0.17     0.12   0.03   0.10
    26   1    -0.16   0.03   0.02    -0.24  -0.25   0.02    -0.07   0.09   0.01
    27   6     0.01  -0.00   0.01     0.01   0.02   0.00    -0.02   0.01   0.02
    28   1    -0.12  -0.00  -0.01    -0.07   0.07   0.20     0.36  -0.02  -0.04
    29   1    -0.01   0.09  -0.08     0.10  -0.14  -0.21     0.10  -0.32   0.02
    30   1    -0.02  -0.04   0.02    -0.21  -0.25  -0.01    -0.13   0.12  -0.21
                     64                     65                     66
                      A                      A                      A
 Frequencies --   1543.0306              2997.8516              2999.6014
 Red. masses --      1.0541                 1.0614                 1.0627
 Frc consts  --      1.4787                 5.6200                 5.6336
 IR Inten    --     13.6724                26.8958                14.7799
  Atom  AN      X      Y      Z        X      Y      Z        X      Y      Z
     1   6    -0.01  -0.03  -0.00     0.00  -0.00  -0.00    -0.00   0.00   0.00
     2   6    -0.00   0.00  -0.00     0.00  -0.04  -0.03     0.00   0.00   0.00
     3   6     0.01  -0.03  -0.00    -0.00  -0.00  -0.00    -0.00  -0.00  -0.00
     4   6    -0.00   0.01  -0.00     0.01  -0.01   0.03    -0.02   0.02  -0.04
     5   6     0.00   0.01   0.01     0.00   0.01  -0.01     0.00  -0.00   0.00
     6   6     0.00   0.01  -0.00    -0.01  -0.01   0.03    -0.02  -0.02   0.04
     7   1     0.00   0.08  -0.01    -0.00   0.03   0.60    -0.00  -0.00  -0.00
     8   1    -0.00   0.03   0.08    -0.00   0.43  -0.18    -0.00  -0.00   0.00
     9   1    -0.01  -0.03  -0.00    -0.01   0.03  -0.39     0.01  -0.04   0.62
    10   1     0.01   0.02   0.00    -0.17   0.09   0.08     0.25  -0.14  -0.12
    11   1    -0.00  -0.03  -0.09    -0.00  -0.10   0.03    -0.01   0.00  -0.00
    12   1    -0.00  -0.09   0.01     0.00   0.01   0.08     0.00  -0.00  -0.00
    13   1     0.01  -0.03  -0.00     0.01   0.03  -0.39     0.01   0.04  -0.62
    14   1    -0.01   0.02   0.00     0.17   0.09   0.08     0.25   0.14   0.12
    15   6     0.01  -0.01   0.00     0.00   0.00   0.00     0.00   0.00   0.00
    16   1     0.02   0.02   0.14    -0.00  -0.04   0.01    -0.00  -0.04   0.01
    17   1    -0.03  -0.00  -0.15    -0.01   0.01   0.01    -0.05   0.02   0.01
    18   1    -0.10   0.17  -0.00     0.01   0.00  -0.03     0.01   0.01  -0.07
    19   6     0.01  -0.03  -0.00     0.00   0.00  -0.00     0.00   0.00  -0.00
    20   1     0.13   0.20   0.27    -0.01   0.00   0.00    -0.03   0.01   0.01
    21   1    -0.08  -0.08  -0.24     0.00  -0.02   0.00     0.00  -0.03   0.01
    22   1    -0.30   0.33   0.03     0.00   0.00   0.00     0.01   0.01   0.01
    23   6    -0.01  -0.01   0.00    -0.00   0.00   0.00     0.00  -0.00  -0.00
    24   1     0.03  -0.00  -0.15     0.01   0.01   0.01    -0.05  -0.02  -0.01
    25   1    -0.02   0.02   0.14     0.00  -0.04   0.01    -0.00   0.04  -0.01
    26   1     0.10   0.17  -0.00    -0.01   0.00  -0.03     0.01  -0.01   0.07
    27   6    -0.01  -0.03  -0.00    -0.00   0.00  -0.00     0.00  -0.00   0.00
    28   1     0.08  -0.08  -0.24    -0.00  -0.02   0.00     0.00   0.03  -0.01
    29   1    -0.13   0.20   0.27     0.01   0.00   0.00    -0.03  -0.01  -0.01
    30   1     0.30   0.33   0.03    -0.00   0.00   0.00     0.01  -0.01  -0.01
                     67                     68                     69
                      A                      A                      A
 Frequencies --   3003.2654              3016.5788              3018.0065
 Red. masses --      1.0598                 1.0358                 1.0384
 Frc consts  --      5.6321                 5.5531                 5.5724
 IR Inten    --     33.1802                31.6290                59.6895
  Atom  AN      X      Y      Z        X      Y      Z        X      Y      Z
     1   6     0.00  -0.00  -0.00     0.00  -0.00  -0.00    -0.00   0.00   0.00
     2   6     0.00  -0.03  -0.02     0.00  -0.00  -0.00    -0.00  -0.01  -0.01
     3   6    -0.00  -0.00  -0.00     0.00   0.00   0.00     0.00   0.00   0.00
     4   6    -0.02   0.01  -0.03    -0.00   0.00  -0.00    -0.00   0.00  -0.01
     5   6     0.00  -0.01   0.01     0.00  -0.00   0.00    -0.00  -0.00   0.01
     6   6     0.02   0.01  -0.03    -0.00  -0.00   0.00     0.00   0.00  -0.01
     7   1    -0.00   0.03   0.44    -0.00   0.00   0.00    -0.00   0.01   0.13
     8   1    -0.00   0.36  -0.15    -0.00   0.00  -0.00     0.00   0.14  -0.06
     9   1     0.01  -0.03   0.44     0.00  -0.01   0.07     0.00  -0.01   0.10
    10   1     0.19  -0.11  -0.09     0.02  -0.01  -0.01     0.02  -0.01  -0.01
    11   1    -0.00   0.14  -0.05    -0.00   0.00  -0.00     0.00   0.02  -0.01
    12   1     0.00  -0.01  -0.10     0.00  -0.00  -0.00     0.00  -0.00  -0.08
    13   1    -0.01  -0.03   0.44     0.00   0.01  -0.07    -0.00  -0.01   0.10
    14   1    -0.19  -0.11  -0.09     0.02   0.01   0.01    -0.02  -0.01  -0.01
    15   6     0.01   0.00   0.01    -0.03  -0.02  -0.02    -0.02  -0.01  -0.01
    16   1    -0.01  -0.12   0.03     0.02   0.39  -0.09     0.02   0.37  -0.09
    17   1    -0.10   0.05   0.03     0.34  -0.17  -0.09     0.33  -0.17  -0.08
    18   1     0.03   0.02  -0.14    -0.07  -0.03   0.36    -0.06  -0.03   0.33
    19   6     0.00   0.00  -0.00     0.01   0.00  -0.01     0.01   0.00  -0.01
    20   1    -0.05   0.02   0.01    -0.13   0.05   0.02    -0.17   0.06   0.03
    21   1     0.00  -0.05   0.01     0.01  -0.12   0.03     0.01  -0.16   0.04
    22   1     0.02   0.01   0.02     0.05   0.04   0.04     0.05   0.04   0.04
    23   6    -0.01   0.00   0.01    -0.03   0.02   0.02     0.02  -0.01  -0.01
    24   1     0.10   0.05   0.03     0.34   0.17   0.09    -0.33  -0.17  -0.08
    25   1     0.01  -0.12   0.03     0.02  -0.39   0.09    -0.02   0.37  -0.09
    26   1    -0.03   0.02  -0.14    -0.07   0.03  -0.36     0.06  -0.03   0.33
    27   6    -0.00   0.00  -0.00     0.01  -0.00   0.01    -0.01   0.00  -0.01
    28   1    -0.00  -0.05   0.01     0.01   0.12  -0.03    -0.01  -0.16   0.04
    29   1     0.05   0.02   0.01    -0.13  -0.05  -0.02     0.17   0.06   0.03
    30   1    -0.02   0.01   0.02     0.05  -0.04  -0.04    -0.05   0.04   0.04
                     70                     71                     72
                      A                      A                      A
 Frequencies --   3022.0521              3028.6669              3032.0718
 Red. masses --      1.0696                 1.0415                 1.0510
 Frc consts  --      5.7552                 5.6288                 5.6929
 IR Inten    --     12.0080                36.8661                14.8414
  Atom  AN      X      Y      Z        X      Y      Z        X      Y      Z
     1   6     0.00   0.00   0.00    -0.00   0.00   0.00     0.00   0.00  -0.00
     2   6     0.00   0.00  -0.00     0.00  -0.00   0.00     0.00   0.01  -0.03
     3   6    -0.00   0.00   0.00    -0.00  -0.00  -0.00    -0.00   0.00  -0.00
     4   6    -0.02   0.01   0.02     0.00  -0.00  -0.01     0.00  -0.00  -0.01
     5   6    -0.00  -0.04  -0.04     0.00   0.00  -0.00     0.00  -0.01   0.01
     6   6     0.02   0.01   0.02     0.00   0.00   0.01    -0.00  -0.00  -0.01
     7   1    -0.00   0.00   0.03    -0.00  -0.00  -0.00    -0.00   0.03   0.30
     8   1     0.00  -0.01   0.00    -0.00   0.00  -0.00    -0.00  -0.11   0.04
     9   1    -0.01   0.02  -0.16     0.00  -0.01   0.10     0.00  -0.01   0.13
    10   1     0.26  -0.15  -0.11    -0.04   0.02   0.01    -0.06   0.03   0.02
    11   1     0.00   0.48  -0.18    -0.00  -0.00   0.00    -0.00   0.09  -0.03
    12   1    -0.00   0.00   0.68     0.00   0.00   0.00     0.00  -0.00  -0.04
    13   1     0.01   0.02  -0.16     0.00   0.01  -0.10    -0.00  -0.01   0.13
    14   1    -0.26  -0.15  -0.11    -0.04  -0.02  -0.01     0.06   0.03   0.02
    15   6    -0.00  -0.00  -0.00    -0.01  -0.00  -0.00    -0.01  -0.01  -0.00
    16   1     0.00   0.04  -0.01     0.01   0.11  -0.03     0.01   0.13  -0.03
    17   1     0.02  -0.01  -0.00     0.09  -0.05  -0.02     0.11  -0.05  -0.02
    18   1    -0.01  -0.00   0.04    -0.02  -0.01   0.11    -0.02  -0.01   0.09
    19   6     0.00  -0.00   0.00    -0.02  -0.01   0.03    -0.02  -0.01   0.02
    20   1     0.00   0.00  -0.00     0.43  -0.16  -0.07     0.40  -0.15  -0.07
    21   1     0.00   0.03  -0.01    -0.02   0.41  -0.11    -0.02   0.38  -0.10
    22   1    -0.02  -0.02  -0.02    -0.15  -0.12  -0.13    -0.12  -0.09  -0.10
    23   6     0.00  -0.00  -0.00    -0.01   0.00   0.00     0.01  -0.01  -0.00
    24   1    -0.02  -0.01  -0.00     0.09   0.05   0.02    -0.11  -0.05  -0.02
    25   1    -0.00   0.04  -0.01     0.01  -0.11   0.03    -0.01   0.13  -0.03
    26   1     0.01  -0.00   0.04    -0.02   0.01  -0.11     0.02  -0.01   0.09
    27   6    -0.00  -0.00   0.00    -0.02   0.01  -0.03     0.02  -0.01   0.02
    28   1    -0.00   0.03  -0.01    -0.02  -0.41   0.11     0.02   0.38  -0.10
    29   1    -0.00   0.00  -0.00     0.43   0.16   0.07    -0.40  -0.15  -0.07
    30   1     0.02  -0.02  -0.02    -0.15   0.12   0.13     0.12  -0.09  -0.10
                     73                     74                     75
                      A                      A                      A
 Frequencies --   3032.8469              3037.8877              3043.8282
 Red. masses --      1.0973                 1.0980                 1.0848
 Frc consts  --      5.9466                 5.9704                 5.9214
 IR Inten    --     42.6359                54.1148                48.6502
  Atom  AN      X      Y      Z        X      Y      Z        X      Y      Z
     1   6     0.00  -0.00   0.00    -0.00  -0.00  -0.00    -0.00   0.00  -0.00
     2   6    -0.00  -0.05   0.07     0.00   0.00  -0.00    -0.00   0.01  -0.01
     3   6    -0.00  -0.00   0.00    -0.00   0.00   0.00     0.00   0.00  -0.00
     4   6     0.01  -0.00  -0.01    -0.04   0.02   0.04     0.03  -0.02  -0.02
     5   6    -0.00  -0.01  -0.00    -0.00   0.00  -0.00    -0.00  -0.05   0.01
     6   6    -0.01  -0.00  -0.01    -0.04  -0.02  -0.04    -0.03  -0.02  -0.02
     7   1     0.00  -0.05  -0.55     0.00   0.00   0.00     0.00   0.01   0.04
     8   1     0.00   0.70  -0.26    -0.00  -0.00   0.00    -0.00  -0.13   0.05
     9   1     0.00  -0.00   0.05    -0.01   0.03  -0.30     0.01  -0.01   0.14
    10   1    -0.09   0.05   0.04     0.51  -0.29  -0.21    -0.40   0.23   0.17
    11   1     0.00   0.10  -0.03    -0.00  -0.00   0.00     0.00   0.59  -0.20
    12   1    -0.00   0.00   0.07    -0.00   0.00  -0.00    -0.00  -0.01   0.10
    13   1    -0.00  -0.00   0.05    -0.01  -0.03   0.30    -0.01  -0.01   0.14
    14   1     0.09   0.05   0.04     0.51   0.29   0.21     0.40   0.23   0.17
    15   6     0.00   0.00  -0.01     0.00  -0.00  -0.00    -0.00   0.00   0.01
    16   1     0.00  -0.02   0.00     0.00   0.01  -0.00    -0.00  -0.02   0.01
    17   1     0.00  -0.00  -0.00    -0.01   0.01   0.00    -0.01   0.00   0.00
    18   1    -0.01  -0.01   0.08    -0.01  -0.01   0.05     0.01   0.01  -0.08
    19   6    -0.01   0.00   0.01    -0.00  -0.00   0.00     0.00   0.00  -0.01
    20   1     0.15  -0.05  -0.03     0.03  -0.01  -0.01    -0.09   0.03   0.02
    21   1    -0.00   0.07  -0.02    -0.00   0.08  -0.02     0.00  -0.10   0.03
    22   1    -0.04  -0.03  -0.03    -0.02  -0.02  -0.02     0.03   0.02   0.02
    23   6    -0.00   0.00  -0.01     0.00   0.00   0.00     0.00   0.00   0.01
    24   1    -0.00  -0.00  -0.00    -0.01  -0.01  -0.00     0.01   0.00   0.00
    25   1    -0.00  -0.02   0.00     0.00  -0.01   0.00     0.00  -0.02   0.01
    26   1     0.01  -0.01   0.08    -0.01   0.01  -0.05    -0.01   0.01  -0.08
    27   6     0.01   0.00   0.01    -0.00   0.00  -0.00    -0.00   0.00  -0.01
    28   1     0.00   0.07  -0.02    -0.00  -0.08   0.02    -0.00  -0.10   0.03
    29   1    -0.15  -0.05  -0.03     0.03   0.01   0.01     0.09   0.03   0.02
    30   1     0.04  -0.03  -0.03    -0.02   0.02   0.02    -0.03   0.02   0.02
                     76                     77                     78
                      A                      A                      A
 Frequencies --   3057.6320              3074.1448              3074.9708
 Red. masses --      1.1031                 1.1021                 1.1019
 Frc consts  --      6.0761                 6.1364                 6.1388
 IR Inten    --     64.3213                 0.1842                 4.0760
  Atom  AN      X      Y      Z        X      Y      Z        X      Y      Z
     1   6    -0.00  -0.00  -0.00     0.00   0.00   0.00    -0.00  -0.00   0.00
     2   6    -0.00   0.00  -0.00    -0.00   0.00  -0.00     0.00   0.00  -0.00
     3   6     0.00  -0.00  -0.00     0.00  -0.00  -0.00     0.00  -0.00   0.00
     4   6     0.01  -0.00  -0.03     0.00  -0.00  -0.00    -0.00   0.00   0.00
     5   6     0.00   0.04  -0.07    -0.00  -0.00   0.00     0.00  -0.00   0.00
     6   6    -0.01  -0.00  -0.03     0.00   0.00   0.00     0.00   0.00   0.00
     7   1     0.00   0.00   0.04     0.00  -0.00   0.00    -0.00  -0.00   0.02
     8   1    -0.00  -0.03   0.01     0.00  -0.00   0.00    -0.00  -0.01   0.00
     9   1     0.01  -0.02   0.25    -0.00  -0.00   0.01     0.00   0.00  -0.01
    10   1    -0.15   0.08   0.06    -0.01   0.01   0.00     0.00  -0.00  -0.00
    11   1    -0.00  -0.51   0.16    -0.00   0.00  -0.00     0.00   0.00  -0.00
    12   1    -0.00   0.02   0.70     0.00  -0.00  -0.00    -0.00  -0.00  -0.01
    13   1    -0.01  -0.02   0.25    -0.00   0.00  -0.01    -0.00   0.00  -0.01
    14   1     0.15   0.08   0.06    -0.01  -0.01  -0.00    -0.00  -0.00  -0.00
    15   6    -0.00  -0.00   0.01    -0.03   0.04   0.00     0.03  -0.05   0.00
    16   1     0.00   0.04  -0.01    -0.03  -0.34   0.08     0.03   0.39  -0.09
    17   1     0.03  -0.01  -0.01     0.33  -0.16  -0.08    -0.35   0.17   0.09
    18   1     0.01   0.01  -0.06    -0.00   0.01  -0.02     0.01  -0.01  -0.02
    19   6     0.00   0.00   0.00     0.03  -0.03   0.00    -0.02   0.03  -0.00
    20   1    -0.02   0.01   0.00    -0.31   0.11   0.05     0.26  -0.09  -0.05
    21   1     0.00  -0.03   0.01    -0.01   0.33  -0.09     0.00  -0.30   0.08
    22   1    -0.02  -0.02  -0.02    -0.02  -0.03  -0.02     0.01   0.02   0.01
    23   6     0.00  -0.00   0.01    -0.03  -0.04  -0.00    -0.03  -0.05   0.00
    24   1    -0.03  -0.01  -0.01     0.33   0.16   0.08     0.35   0.16   0.09
    25   1    -0.00   0.04  -0.01    -0.03   0.34  -0.08    -0.03   0.39  -0.09
    26   1    -0.01   0.01  -0.06    -0.00  -0.01   0.02    -0.01  -0.01  -0.02
    27   6    -0.00   0.00   0.00     0.03   0.03  -0.00     0.02   0.03  -0.00
    28   1    -0.00  -0.03   0.01    -0.01  -0.34   0.09    -0.00  -0.30   0.08
    29   1     0.02   0.01   0.00    -0.31  -0.11  -0.06    -0.26  -0.09  -0.05
    30   1     0.02  -0.02  -0.02    -0.02   0.03   0.02    -0.01   0.02   0.01
                     79                     80                     81
                      A                      A                      A
 Frequencies --   3080.4651              3082.6601              3082.9407
 Red. masses --      1.1015                 1.1017                 1.1009
 Frc consts  --      6.1583                 6.1684                 6.1649
 IR Inten    --     16.0783                66.4577               134.9804
  Atom  AN      X      Y      Z        X      Y      Z        X      Y      Z
     1   6    -0.00  -0.00   0.00     0.00   0.00   0.00    -0.00  -0.00   0.00
     2   6     0.00  -0.00   0.00    -0.00   0.00  -0.00    -0.00  -0.01   0.01
     3   6    -0.00   0.00  -0.00     0.00  -0.00  -0.00     0.00  -0.00   0.00
     4   6    -0.00   0.00  -0.00     0.00  -0.00  -0.00    -0.00   0.00   0.00
     5   6    -0.00  -0.00   0.00    -0.00   0.00  -0.00    -0.00  -0.00   0.00
     6   6    -0.00  -0.00   0.00     0.00   0.00   0.00     0.00   0.00   0.00
     7   1    -0.00  -0.00  -0.00    -0.00   0.00   0.00    -0.00  -0.01  -0.09
     8   1     0.00   0.00  -0.00    -0.00  -0.00   0.00    -0.00   0.09  -0.03
     9   1    -0.00  -0.00   0.01     0.00  -0.00   0.04    -0.00   0.00  -0.03
    10   1     0.01  -0.01  -0.01    -0.04   0.02   0.02     0.00  -0.00  -0.00
    11   1     0.00   0.00  -0.00    -0.00  -0.00   0.00    -0.00   0.02  -0.01
    12   1     0.00  -0.00  -0.00     0.00   0.00   0.00     0.00  -0.00  -0.05
    13   1    -0.00   0.00  -0.01     0.00   0.00  -0.04     0.00   0.00  -0.03
    14   1     0.01   0.01   0.01    -0.04  -0.02  -0.02    -0.00  -0.00  -0.00
    15   6    -0.00   0.04  -0.03     0.04  -0.01  -0.05    -0.00  -0.04   0.03
    16   1    -0.03  -0.43   0.09     0.00  -0.06   0.00     0.03   0.38  -0.08
    17   1     0.14  -0.06  -0.04    -0.35   0.17   0.07    -0.06   0.02   0.02
    18   1    -0.06  -0.02   0.32    -0.08  -0.05   0.48     0.06   0.03  -0.36
    19   6    -0.02   0.03  -0.00     0.02  -0.02   0.00     0.02  -0.03   0.00
    20   1     0.27  -0.09  -0.05    -0.19   0.07   0.04    -0.27   0.09   0.05
    21   1     0.00  -0.29   0.08    -0.00   0.20  -0.05    -0.00   0.32  -0.09
    22   1     0.02   0.03   0.03     0.01  -0.00   0.00    -0.01  -0.02  -0.02
    23   6    -0.00  -0.04   0.03     0.04   0.01   0.05     0.00  -0.04   0.04
    24   1     0.14   0.06   0.04    -0.35  -0.17  -0.07     0.06   0.02   0.02
    25   1    -0.03   0.43  -0.09     0.00   0.06  -0.00    -0.03   0.38  -0.08
    26   1    -0.06   0.02  -0.32    -0.08   0.05  -0.48    -0.06   0.03  -0.36
    27   6    -0.02  -0.03   0.00     0.02   0.02  -0.00    -0.02  -0.03   0.00
    28   1     0.00   0.29  -0.08    -0.00  -0.20   0.05     0.00   0.32  -0.09
    29   1     0.27   0.09   0.05    -0.20  -0.07  -0.04     0.27   0.09   0.05
    30   1     0.02  -0.03  -0.03     0.01   0.00  -0.00     0.01  -0.02  -0.02
                     82                     83                     84
                      A                      A                      A
 Frequencies --   3083.8720              3113.0190              3133.5046
 Red. masses --      1.1012                 1.0972                 1.0924
 Frc consts  --      6.1701                 6.2648                 6.3194
 IR Inten    --     66.0359                40.9249                39.9759
  Atom  AN      X      Y      Z        X      Y      Z        X      Y      Z
     1   6    -0.00  -0.00  -0.00    -0.00   0.00  -0.00    -0.00   0.00  -0.00
     2   6     0.00   0.00  -0.00     0.00  -0.00   0.00     0.00   0.00  -0.00
     3   6     0.00  -0.00  -0.00    -0.00  -0.00   0.00     0.00   0.00  -0.00
     4   6     0.00  -0.00  -0.01    -0.00   0.00   0.00    -0.00   0.00   0.00
     5   6     0.00   0.00  -0.00    -0.00   0.00  -0.00    -0.00  -0.00   0.01
     6   6    -0.00  -0.00  -0.01    -0.00  -0.00  -0.00     0.00   0.00   0.00
     7   1     0.00   0.01   0.06     0.00   0.00  -0.00     0.00  -0.00   0.00
     8   1    -0.00  -0.01   0.00    -0.00   0.00  -0.00    -0.00  -0.01   0.00
     9   1     0.00  -0.01   0.05    -0.00   0.00  -0.00    -0.00   0.00  -0.01
    10   1    -0.05   0.03   0.02     0.00  -0.00  -0.00     0.00  -0.00  -0.00
    11   1     0.00  -0.01   0.00     0.00  -0.00   0.00     0.00   0.01  -0.00
    12   1    -0.00   0.00   0.04     0.00   0.00   0.00     0.00  -0.00  -0.08
    13   1    -0.00  -0.01   0.05    -0.00  -0.00   0.00     0.00   0.00  -0.01
    14   1     0.05   0.03   0.02     0.00   0.00   0.00    -0.00  -0.00  -0.00
    15   6     0.03  -0.01  -0.04    -0.00  -0.00   0.00    -0.00   0.00  -0.00
    16   1     0.01  -0.02  -0.00     0.00   0.01  -0.00    -0.00  -0.01   0.00
    17   1    -0.36   0.18   0.08     0.01  -0.00  -0.00     0.00  -0.00  -0.00
    18   1    -0.07  -0.04   0.44     0.00   0.00  -0.02    -0.00  -0.00   0.00
    19   6     0.02  -0.02   0.00    -0.04  -0.04  -0.03     0.04   0.04   0.03
    20   1    -0.23   0.08   0.04     0.12  -0.06  -0.03    -0.11   0.05   0.02
    21   1    -0.00   0.23  -0.06    -0.02   0.19  -0.06     0.02  -0.15   0.05
    22   1    -0.01  -0.01  -0.01     0.42   0.33   0.40    -0.42  -0.33  -0.40
    23   6    -0.04  -0.01  -0.04    -0.00   0.00  -0.00     0.00   0.00  -0.00
    24   1     0.36   0.18   0.08     0.01   0.00   0.00    -0.00  -0.00  -0.00
    25   1    -0.01  -0.02  -0.00     0.00  -0.01   0.00     0.00  -0.01   0.00
    26   1     0.07  -0.04   0.44     0.00  -0.00   0.02     0.00  -0.00   0.00
    27   6    -0.02  -0.02   0.00    -0.04   0.04   0.03    -0.04   0.04   0.03
    28   1     0.00   0.23  -0.06    -0.02  -0.19   0.06    -0.02  -0.15   0.05
    29   1     0.23   0.08   0.04     0.12   0.06   0.03     0.11   0.05   0.02
    30   1     0.01  -0.01  -0.01     0.42  -0.33  -0.40     0.42  -0.34  -0.40

 -------------------
 - Thermochemistry -
 -------------------
 Temperature   298.150 Kelvin.  Pressure   1.00000 Atm.
 Atom     1 has atomic number  6 and mass  12.00000
 Atom     2 has atomic number  6 and mass  12.00000
 Atom     3 has atomic number  6 and mass  12.00000
 Atom     4 has atomic number  6 and mass  12.00000
 Atom     5 has atomic number  6 and mass  12.00000
 Atom     6 has atomic number  6 and mass  12.00000
 Atom     7 has atomic number  1 and mass   1.00783
 Atom     8 has atomic number  1 and mass   1.00783
 Atom     9 has atomic number  1 and mass   1.00783
 Atom    10 has atomic number  1 and mass   1.00783
 Atom    11 has atomic number  1 and mass   1.00783
 Atom    12 has atomic number  1 and mass   1.00783
 Atom    13 has atomic number  1 and mass   1.00783
 Atom    14 has atomic number  1 and mass   1.00783
 Atom    15 has atomic number  6 and mass  12.00000
 Atom    16 has atomic number  1 and mass   1.00783
 Atom    17 has atomic number  1 and mass   1.00783
 Atom    18 has atomic number  1 and mass   1.00783
 Atom    19 has atomic number  6 and mass  12.00000
 Atom    20 has atomic number  1 and mass   1.00783
 Atom    21 has atomic number  1 and mass   1.00783
 Atom    22 has atomic number  1 and mass   1.00783
 Atom    23 has atomic number  6 and mass  12.00000
 Atom    24 has atomic number  1 and mass   1.00783
 Atom    25 has atomic number  1 and mass   1.00783
 Atom    26 has atomic number  1 and mass   1.00783
 Atom    27 has atomic number  6 and mass  12.00000
 Atom    28 has atomic number  1 and mass   1.00783
 Atom    29 has atomic number  1 and mass   1.00783
 Atom    30 has atomic number  1 and mass   1.00783
 Molecular mass:   140.15650 amu.
 Principal axes and moments of inertia in atomic units:
                           1         2         3
     Eigenvalues --   978.725001751.414481925.71227
           X            1.00000  -0.00000  -0.00000
           Y            0.00000   0.99995   0.01040
           Z            0.00000  -0.01040   0.99995
 This molecule is an asymmetric top.
 Rotational symmetry number  1.
 Warning -- assumption of classical behavior for rotation
           may cause significant error
 Rotational temperatures (Kelvin)      0.08850     0.04945     0.04498
 Rotational constants (GHZ):           1.84397     1.03045     0.93718
 Zero-point vibrational energy     739696.5 (Joules/Mol)
                                  176.79170 (Kcal/Mol)
 Warning -- explicit consideration of  18 degrees of freedom as
           vibrations may cause significant error
 Vibrational temperatures:    183.30   208.01   276.76   351.83   363.96
          (Kelvin)            374.79   407.18   413.08   439.24   451.04
                              499.80   568.01   582.10   614.70   664.68
                              675.86   705.05   817.71  1022.08  1089.20
                             1203.71  1254.29  1268.33  1296.38  1317.63
                             1357.68  1367.54  1408.25  1408.29  1416.76
                             1473.52  1496.35  1537.25  1547.96  1565.65
                             1645.71  1692.67  1753.03  1775.00  1782.74
                             1834.01  1855.44  1928.25  1934.41  1970.56
                             1988.98  1994.90  2011.39  2032.05  2038.17
                             2068.83  2071.42  2144.95  2148.58  2157.69
                             2160.84  2170.91  2172.64  2181.45  2188.45
                             2189.61  2198.46  2202.68  2220.08  4313.24
                             4315.76  4321.03  4340.18  4342.24  4348.06
                             4357.58  4362.48  4363.59  4370.84  4379.39
                             4399.25  4423.01  4424.20  4432.10  4435.26
                             4435.66  4437.00  4478.94  4508.41
 
 Zero-point correction=                           0.281736 (Hartree/Particle)
 Thermal correction to Energy=                    0.292888
 Thermal correction to Enthalpy=                  0.293832
 Thermal correction to Gibbs Free Energy=         0.247002
 Sum of electronic and zero-point Energies=           -392.927975
 Sum of electronic and thermal Energies=              -392.916823
 Sum of electronic and thermal Enthalpies=            -392.915878
 Sum of electronic and thermal Free Energies=         -392.962709
 
                     E (Thermal)             CV                S
                      KCal/Mol        Cal/Mol-Kelvin    Cal/Mol-Kelvin
 Total                  183.790             45.710             98.562
 Electronic               0.000              0.000              0.000
 Translational            0.889              2.981             40.724
 Rotational               0.889              2.981             29.580
 Vibrational            182.013             39.749             28.258
 Vibration     1          0.611              1.926              2.985
 Vibration     2          0.616              1.909              2.742
 Vibration     3          0.634              1.850              2.205
 Vibration     4          0.660              1.772              1.770
 Vibration     5          0.664              1.758              1.710
 Vibration     6          0.669              1.745              1.658
 Vibration     7          0.682              1.705              1.515
 Vibration     8          0.684              1.698              1.491
 Vibration     9          0.696              1.664              1.388
 Vibration    10          0.701              1.648              1.344
 Vibration    11          0.725              1.581              1.178
 Vibration    12          0.762              1.481              0.982
 Vibration    13          0.770              1.460              0.946
 Vibration    14          0.789              1.411              0.868
 Vibration    15          0.820              1.334              0.760
 Vibration    16          0.827              1.317              0.738
 Vibration    17          0.846              1.272              0.684
 Vibration    18          0.924              1.100              0.507
                       Q            Log10(Q)             Ln(Q)
 Total Bot       0.243744-113       -113.613067       -261.603754
 Total V=0       0.946570D+16         15.976153         36.786451
 Vib (Bot)       0.574637-127       -127.240607       -292.982324
 Vib (Bot)    1  0.160125D+01          0.204458          0.470783
 Vib (Bot)    2  0.140468D+01          0.147576          0.339807
 Vib (Bot)    3  0.103956D+01          0.016849          0.038797
 Vib (Bot)    4  0.800184D+00         -0.096810         -0.222914
 Vib (Bot)    5  0.770455D+00         -0.113253         -0.260774
 Vib (Bot)    6  0.745441D+00         -0.127587         -0.293779
 Vib (Bot)    7  0.678280D+00         -0.168591         -0.388196
 Vib (Bot)    8  0.667126D+00         -0.175792         -0.404776
 Vib (Bot)    9  0.621069D+00         -0.206860         -0.476313
 Vib (Bot)   10  0.601965D+00         -0.220429         -0.507556
 Vib (Bot)   11  0.532026D+00         -0.274067         -0.631063
 Vib (Bot)   12  0.453193D+00         -0.343717         -0.791438
 Vib (Bot)   13  0.439063D+00         -0.357473         -0.823111
 Vib (Bot)   14  0.408703D+00         -0.388592         -0.894766
 Vib (Bot)   15  0.367575D+00         -0.434654         -1.000828
 Vib (Bot)   16  0.359150D+00         -0.444724         -1.024014
 Vib (Bot)   17  0.338346D+00         -0.470639         -1.083686
 Vib (Bot)   18  0.271242D+00         -0.566643         -1.304744
 Vib (V=0)       0.223158D+03          2.348613          5.407881
 Vib (V=0)    1  0.217750D+01          0.337957          0.778176
 Vib (V=0)    2  0.199101D+01          0.299074          0.688643
 Vib (V=0)    3  0.165355D+01          0.218418          0.502926
 Vib (V=0)    4  0.144355D+01          0.159433          0.367108
 Vib (V=0)    5  0.141848D+01          0.151822          0.349584
 Vib (V=0)    6  0.139760D+01          0.145382          0.334755
 Vib (V=0)    7  0.134265D+01          0.127964          0.294647
 Vib (V=0)    8  0.133370D+01          0.125058          0.287958
 Vib (V=0)    9  0.129732D+01          0.113049          0.260304
 Vib (V=0)   10  0.128254D+01          0.108069          0.248839
 Vib (V=0)   11  0.123010D+01          0.089942          0.207099
 Vib (V=0)   12  0.117482D+01          0.069972          0.161116
 Vib (V=0)   13  0.116541D+01          0.066480          0.153077
 Vib (V=0)   14  0.114578D+01          0.059103          0.136090
 Vib (V=0)   15  0.112057D+01          0.049440          0.113841
 Vib (V=0)   16  0.111562D+01          0.047517          0.109411
 Vib (V=0)   17  0.110372D+01          0.042859          0.098686
 Vib (V=0)   18  0.106883D+01          0.028910          0.066568
 Electronic      0.100000D+01          0.000000          0.000000
 Translational   0.652189D+08          7.814374         17.993261
 Rotational      0.650378D+06          5.813166         13.385310
 ***** Axes restored to original set *****
 -------------------------------------------------------------------
 Center     Atomic                   Forces (Hartrees/Bohr)
 Number     Number              X              Y              Z
 -------------------------------------------------------------------
      1        6          -0.000000293    0.000000344   -0.000002836
      2        6           0.000000278    0.000010925    0.000006473
      3        6           0.000000320    0.000000107   -0.000003659
      4        6           0.000004310   -0.000004278    0.000003958
      5        6           0.000000485   -0.000008962   -0.000001568
      6        6          -0.000005110   -0.000003806    0.000004063
      7        1          -0.000000099   -0.000002510   -0.000010038
      8        1          -0.000000004   -0.000008827    0.000003318
      9        1          -0.000003681    0.000003931   -0.000007599
     10        1          -0.000006717    0.000002823    0.000005742
     11        1           0.000000018    0.000006696   -0.000005202
     12        1          -0.000000006    0.000006564    0.000007440
     13        1           0.000003739    0.000003884   -0.000007556
     14        1           0.000006706    0.000002740    0.000005715
     15        6           0.000006190    0.000002388    0.000003569
     16        1          -0.000000892   -0.000009794    0.000001224
     17        1          -0.000009302    0.000003955    0.000001901
     18        1           0.000001301    0.000001388   -0.000011546
     19        6           0.000000159   -0.000000538   -0.000009372
     20        1          -0.000009568    0.000004422    0.000002818
     21        1          -0.000001849   -0.000011228    0.000002507
     22        1           0.000008639    0.000004695    0.000010151
     23        6          -0.000005851    0.000001769    0.000003507
     24        1           0.000009422    0.000004141    0.000002004
     25        1           0.000000788   -0.000009630    0.000001142
     26        1          -0.000001361    0.000001428   -0.000011707
     27        6          -0.000000413   -0.000001210   -0.000010179
     28        1           0.000001723   -0.000010732    0.000002497
     29        1           0.000009827    0.000004338    0.000002796
     30        1          -0.000008759    0.000004977    0.000010437
 -------------------------------------------------------------------
 Cartesian Forces:  Max     0.000011707 RMS     0.000005759
 FormGI is forming the generalized inverse of G from B-inverse, IUseBI=4.
 Leave Link  716 at Wed Jul 23 16:41:49 2025, MaxMem=   104857600 cpu:              43.4 elap:               2.0
 (Enter /opt/linux/rocky/8/software/gaussian/16c01_avx2/g16/l103.exe)

 GradGradGradGradGradGradGradGradGradGradGradGradGradGradGradGradGradGrad
 Berny optimization.
 Red2BG is reusing G-inverse.
 Internal  Forces:  Max     0.000014513 RMS     0.000003784
 Search for a local minimum.
 Step number   1 out of a maximum of    2
 All quantities printed in internal units (Hartrees-Bohrs-Radians)
 Second derivative matrix not updated -- analytic derivatives used.
 ITU=  0
     Eigenvalues ---    0.00181   0.00220   0.00340   0.00354   0.00494
     Eigenvalues ---    0.00541   0.00644   0.01803   0.02121   0.03729
     Eigenvalues ---    0.03868   0.03899   0.03965   0.04210   0.04229
     Eigenvalues ---    0.04448   0.04520   0.04601   0.04641   0.04642
     Eigenvalues ---    0.04643   0.04688   0.04777   0.04782   0.04825
     Eigenvalues ---    0.05187   0.05230   0.05701   0.05989   0.06263
     Eigenvalues ---    0.07098   0.07383   0.07565   0.08105   0.08607
     Eigenvalues ---    0.09080   0.10458   0.11531   0.11878   0.11975
     Eigenvalues ---    0.12375   0.12414   0.12435   0.14208   0.14400
     Eigenvalues ---    0.14837   0.15108   0.15109   0.15393   0.15582
     Eigenvalues ---    0.15891   0.17922   0.18802   0.21743   0.23220
     Eigenvalues ---    0.23824   0.24041   0.26104   0.26304   0.26386
     Eigenvalues ---    0.26712   0.27764   0.29555   0.30890   0.31923
     Eigenvalues ---    0.31946   0.32126   0.32472   0.32714   0.32837
     Eigenvalues ---    0.32882   0.32908   0.32942   0.33009   0.33067
     Eigenvalues ---    0.33096   0.33137   0.33371   0.33542   0.33643
     Eigenvalues ---    0.33957   0.34038   0.34531   0.35450
 Angle between quadratic step and forces=  76.09 degrees.
 Linear search not attempted -- first point.
 Iteration  1 RMS(Cart)=  0.00017083 RMS(Int)=  0.00000002
 Iteration  2 RMS(Cart)=  0.00000003 RMS(Int)=  0.00000000
 ITry= 1 IFail=0 DXMaxC= 9.50D-04 DCOld= 1.00D+10 DXMaxT= 3.00D-01 DXLimC= 3.00D+00 Rises=F
 Variable       Old X    -DE/DX   Delta X   Delta X   Delta X     New X
                                 (Linear)    (Quad)   (Total)
    R1        2.93560   0.00001   0.00000   0.00001   0.00001   2.93561
    R2        2.92306   0.00000   0.00000   0.00001   0.00001   2.92307
    R3        2.91110   0.00001   0.00000   0.00002   0.00002   2.91111
    R4        2.91375   0.00001   0.00000   0.00002   0.00002   2.91377
    R5        2.93560   0.00001   0.00000   0.00001   0.00001   2.93561
    R6        2.07413   0.00001   0.00000   0.00003   0.00003   2.07416
    R7        2.07407   0.00001   0.00000   0.00003   0.00003   2.07410
    R8        2.92306   0.00000   0.00000   0.00001   0.00001   2.92307
    R9        2.91110   0.00001   0.00000   0.00002   0.00002   2.91111
   R10        2.91375   0.00001   0.00000   0.00002   0.00002   2.91377
   R11        2.89763   0.00001   0.00000   0.00001   0.00001   2.89765
   R12        2.07548   0.00001   0.00000   0.00002   0.00002   2.07551
   R13        2.07219   0.00001   0.00000   0.00003   0.00003   2.07221
   R14        2.89763   0.00000   0.00000   0.00001   0.00001   2.89765
   R15        2.07021   0.00001   0.00000   0.00003   0.00003   2.07024
   R16        2.07036   0.00001   0.00000   0.00002   0.00002   2.07038
   R17        2.07548   0.00001   0.00000   0.00002   0.00002   2.07551
   R18        2.07219   0.00001   0.00000   0.00003   0.00003   2.07221
   R19        2.06920   0.00001   0.00000   0.00003   0.00003   2.06923
   R20        2.06878   0.00001   0.00000   0.00003   0.00003   2.06881
   R21        2.06775   0.00001   0.00000   0.00003   0.00003   2.06778
   R22        2.06878   0.00001   0.00000   0.00003   0.00003   2.06881
   R23        2.06817   0.00001   0.00000   0.00003   0.00003   2.06821
   R24        2.05924   0.00001   0.00000   0.00004   0.00004   2.05928
   R25        2.06878   0.00001   0.00000   0.00003   0.00003   2.06881
   R26        2.06920   0.00001   0.00000   0.00003   0.00003   2.06923
   R27        2.06775   0.00001   0.00000   0.00003   0.00003   2.06778
   R28        2.06817   0.00001   0.00000   0.00003   0.00003   2.06821
   R29        2.06878   0.00001   0.00000   0.00003   0.00003   2.06881
   R30        2.05924   0.00001   0.00000   0.00004   0.00004   2.05928
    A1        1.90587  -0.00000   0.00000   0.00004   0.00004   1.90591
    A2        1.88218   0.00000   0.00000  -0.00001  -0.00001   1.88217
    A3        1.97006   0.00000   0.00000  -0.00000  -0.00000   1.97006
    A4        1.90207   0.00000   0.00000  -0.00000  -0.00000   1.90207
    A5        1.93015   0.00000   0.00000  -0.00002  -0.00002   1.93013
    A6        1.87165  -0.00000   0.00000  -0.00001  -0.00001   1.87164
    A7        2.07305   0.00000   0.00000   0.00003   0.00003   2.07308
    A8        1.86083  -0.00000   0.00000   0.00001   0.00001   1.86084
    A9        1.90642  -0.00000   0.00000  -0.00002  -0.00002   1.90640
   A10        1.86083  -0.00000   0.00000   0.00001   0.00001   1.86084
   A11        1.90642  -0.00000   0.00000  -0.00002  -0.00002   1.90640
   A12        1.84189  -0.00000   0.00000  -0.00002  -0.00002   1.84187
   A13        1.90587  -0.00000   0.00000   0.00004   0.00004   1.90591
   A14        1.88218   0.00000   0.00000  -0.00001  -0.00001   1.88217
   A15        1.97006   0.00000   0.00000  -0.00001  -0.00001   1.97006
   A16        1.90207   0.00000   0.00000  -0.00000  -0.00000   1.90207
   A17        1.93015   0.00000   0.00000  -0.00002  -0.00002   1.93013
   A18        1.87165  -0.00000   0.00000  -0.00001  -0.00001   1.87164
   A19        1.98366   0.00000   0.00000   0.00005   0.00005   1.98371
   A20        1.89463   0.00000   0.00000   0.00003   0.00003   1.89466
   A21        1.91128  -0.00000   0.00000  -0.00003  -0.00003   1.91125
   A22        1.89075  -0.00000   0.00000   0.00001   0.00001   1.89076
   A23        1.92751   0.00000   0.00000  -0.00004  -0.00004   1.92747
   A24        1.85087  -0.00000   0.00000  -0.00002  -0.00002   1.85086
   A25        1.93982   0.00000   0.00000   0.00007   0.00007   1.93988
   A26        1.91140  -0.00000   0.00000  -0.00005  -0.00005   1.91135
   A27        1.92753   0.00000   0.00000   0.00003   0.00003   1.92756
   A28        1.91140  -0.00000   0.00000  -0.00005  -0.00005   1.91135
   A29        1.92753   0.00000   0.00000   0.00003   0.00003   1.92756
   A30        1.84368  -0.00000   0.00000  -0.00002  -0.00002   1.84367
   A31        1.98366   0.00000   0.00000   0.00005   0.00005   1.98371
   A32        1.89463   0.00000   0.00000   0.00003   0.00003   1.89466
   A33        1.91128  -0.00000   0.00000  -0.00003  -0.00003   1.91125
   A34        1.89074  -0.00000   0.00000   0.00001   0.00001   1.89076
   A35        1.92751   0.00000   0.00000  -0.00004  -0.00004   1.92747
   A36        1.85088  -0.00000   0.00000  -0.00002  -0.00002   1.85086
   A37        1.94186   0.00000   0.00000   0.00000   0.00000   1.94186
   A38        1.93895   0.00000   0.00000   0.00001   0.00001   1.93896
   A39        1.94540   0.00000   0.00000   0.00000   0.00000   1.94540
   A40        1.87647  -0.00000   0.00000  -0.00000  -0.00000   1.87647
   A41        1.87892  -0.00000   0.00000  -0.00000  -0.00000   1.87892
   A42        1.87913  -0.00000   0.00000  -0.00000  -0.00000   1.87912
   A43        1.92363   0.00000   0.00000   0.00000   0.00000   1.92363
   A44        1.93793   0.00000   0.00000  -0.00000  -0.00000   1.93793
   A45        1.97993   0.00000   0.00000   0.00002   0.00002   1.97994
   A46        1.87464  -0.00000   0.00000  -0.00001  -0.00001   1.87463
   A47        1.86874  -0.00000   0.00000  -0.00001  -0.00001   1.86873
   A48        1.87450  -0.00000   0.00000  -0.00000  -0.00000   1.87450
   A49        1.93895   0.00000   0.00000   0.00001   0.00001   1.93896
   A50        1.94186   0.00000   0.00000   0.00000   0.00000   1.94186
   A51        1.94540   0.00000   0.00000   0.00000   0.00000   1.94540
   A52        1.87647  -0.00000   0.00000  -0.00000  -0.00000   1.87647
   A53        1.87913  -0.00000   0.00000  -0.00000  -0.00000   1.87912
   A54        1.87892  -0.00000   0.00000  -0.00000  -0.00000   1.87892
   A55        1.93793   0.00000   0.00000  -0.00000  -0.00000   1.93793
   A56        1.92363   0.00000   0.00000   0.00000   0.00000   1.92363
   A57        1.97993   0.00000   0.00000   0.00002   0.00002   1.97994
   A58        1.87464  -0.00000   0.00000  -0.00001  -0.00001   1.87463
   A59        1.87450  -0.00000   0.00000  -0.00000  -0.00000   1.87450
   A60        1.86874  -0.00000   0.00000  -0.00001  -0.00001   1.86873
    D1       -0.81542   0.00000   0.00000   0.00011   0.00011  -0.81532
    D2        1.28408   0.00000   0.00000   0.00015   0.00015   1.28422
    D3       -3.01672   0.00000   0.00000   0.00012   0.00012  -3.01660
    D4       -2.87990   0.00000   0.00000   0.00009   0.00009  -2.87981
    D5       -0.78040   0.00000   0.00000   0.00013   0.00013  -0.78027
    D6        1.20200   0.00000   0.00000   0.00010   0.00010   1.20210
    D7        1.33903   0.00000   0.00000   0.00011   0.00011   1.33914
    D8       -2.84465   0.00000   0.00000   0.00015   0.00015  -2.84451
    D9       -0.86226   0.00000   0.00000   0.00012   0.00012  -0.86214
   D10        0.87301  -0.00000   0.00000  -0.00014  -0.00014   0.87287
   D11       -1.23207  -0.00000   0.00000  -0.00020  -0.00020  -1.23227
   D12        3.03775  -0.00000   0.00000  -0.00018  -0.00018   3.03757
   D13        2.92499  -0.00000   0.00000  -0.00013  -0.00013   2.92487
   D14        0.81991  -0.00000   0.00000  -0.00019  -0.00019   0.81972
   D15       -1.19345  -0.00000   0.00000  -0.00017  -0.00017  -1.19362
   D16       -1.30493  -0.00000   0.00000  -0.00015  -0.00015  -1.30508
   D17        2.87317  -0.00000   0.00000  -0.00021  -0.00021   2.87296
   D18        0.85981  -0.00000   0.00000  -0.00019  -0.00019   0.85962
   D19        3.11861   0.00000   0.00000   0.00012   0.00012   3.11874
   D20       -1.07457   0.00000   0.00000   0.00012   0.00012  -1.07444
   D21        1.02288  -0.00000   0.00000   0.00012   0.00012   1.02300
   D22        1.05170   0.00000   0.00000   0.00008   0.00008   1.05178
   D23       -3.14148   0.00000   0.00000   0.00008   0.00008  -3.14140
   D24       -1.04403   0.00000   0.00000   0.00008   0.00008  -1.04395
   D25       -1.03818   0.00000   0.00000   0.00011   0.00011  -1.03808
   D26        1.05182   0.00000   0.00000   0.00011   0.00011   1.05193
   D27       -3.13392   0.00000   0.00000   0.00011   0.00011  -3.13381
   D28        0.91739   0.00000   0.00000   0.00033   0.00033   0.91772
   D29        2.99250   0.00000   0.00000   0.00032   0.00032   2.99283
   D30       -1.19555   0.00000   0.00000   0.00032   0.00032  -1.19523
   D31        3.05835   0.00000   0.00000   0.00036   0.00036   3.05871
   D32       -1.14973   0.00000   0.00000   0.00036   0.00036  -1.14937
   D33        0.94540   0.00000   0.00000   0.00036   0.00036   0.94576
   D34       -1.15301   0.00000   0.00000   0.00035   0.00035  -1.15266
   D35        0.92210   0.00000   0.00000   0.00034   0.00034   0.92244
   D36        3.01723   0.00000   0.00000   0.00034   0.00034   3.01757
   D37        0.81542  -0.00000   0.00000  -0.00011  -0.00011   0.81532
   D38        2.87990  -0.00000   0.00000  -0.00009  -0.00009   2.87981
   D39       -1.33903  -0.00000   0.00000  -0.00011  -0.00011  -1.33914
   D40       -1.28407  -0.00000   0.00000  -0.00015  -0.00015  -1.28422
   D41        0.78040  -0.00000   0.00000  -0.00013  -0.00013   0.78027
   D42        2.84466  -0.00000   0.00000  -0.00015  -0.00015   2.84451
   D43        3.01672  -0.00000   0.00000  -0.00012  -0.00012   3.01660
   D44       -1.20199  -0.00000   0.00000  -0.00010  -0.00010  -1.20210
   D45        0.86226  -0.00000   0.00000  -0.00012  -0.00012   0.86214
   D46       -0.87301   0.00000   0.00000   0.00014   0.00014  -0.87287
   D47        1.23207   0.00000   0.00000   0.00020   0.00020   1.23227
   D48       -3.03775   0.00000   0.00000   0.00018   0.00018  -3.03757
   D49       -2.92499   0.00000   0.00000   0.00013   0.00013  -2.92487
   D50       -0.81991   0.00000   0.00000   0.00019   0.00019  -0.81972
   D51        1.19345   0.00000   0.00000   0.00017   0.00017   1.19362
   D52        1.30493   0.00000   0.00000   0.00015   0.00015   1.30508
   D53       -2.87317   0.00000   0.00000   0.00021   0.00021  -2.87296
   D54       -0.85981   0.00000   0.00000   0.00019   0.00019  -0.85962
   D55        1.07457   0.00000   0.00000  -0.00013  -0.00013   1.07444
   D56       -3.11861  -0.00000   0.00000  -0.00013  -0.00013  -3.11874
   D57       -1.02287   0.00000   0.00000  -0.00012  -0.00012  -1.02300
   D58        3.14148  -0.00000   0.00000  -0.00009  -0.00009   3.14140
   D59       -1.05170  -0.00000   0.00000  -0.00009  -0.00009  -1.05178
   D60        1.04404  -0.00000   0.00000  -0.00008  -0.00008   1.04395
   D61       -1.05182  -0.00000   0.00000  -0.00011  -0.00011  -1.05193
   D62        1.03819  -0.00000   0.00000  -0.00011  -0.00011   1.03808
   D63        3.13392  -0.00000   0.00000  -0.00011  -0.00011   3.13381
   D64       -2.99245  -0.00000   0.00000  -0.00037  -0.00037  -2.99283
   D65       -0.91734  -0.00000   0.00000  -0.00038  -0.00038  -0.91772
   D66        1.19561  -0.00000   0.00000  -0.00038  -0.00038   1.19523
   D67        1.14978  -0.00000   0.00000  -0.00041  -0.00041   1.14937
   D68       -3.05829  -0.00000   0.00000  -0.00042  -0.00042  -3.05871
   D69       -0.94535  -0.00000   0.00000  -0.00041  -0.00041  -0.94576
   D70       -0.92205  -0.00000   0.00000  -0.00039  -0.00039  -0.92244
   D71        1.15306  -0.00000   0.00000  -0.00040  -0.00040   1.15266
   D72       -3.01718  -0.00000   0.00000  -0.00039  -0.00039  -3.01757
   D73        0.98970  -0.00000   0.00000  -0.00017  -0.00017   0.98953
   D74        3.10391  -0.00000   0.00000  -0.00023  -0.00023   3.10368
   D75       -1.15596  -0.00000   0.00000  -0.00027  -0.00027  -1.15622
   D76       -1.11757  -0.00000   0.00000  -0.00024  -0.00024  -1.11781
   D77        0.99665  -0.00000   0.00000  -0.00031  -0.00031   0.99634
   D78        3.01996  -0.00000   0.00000  -0.00034  -0.00034   3.01962
   D79       -3.13756  -0.00000   0.00000  -0.00021  -0.00021  -3.13777
   D80       -1.02335  -0.00000   0.00000  -0.00027  -0.00027  -1.02362
   D81        0.99997  -0.00000   0.00000  -0.00031  -0.00031   0.99966
   D82       -0.98970   0.00000   0.00000   0.00017   0.00017  -0.98953
   D83        1.11757   0.00000   0.00000   0.00024   0.00024   1.11781
   D84        3.13756   0.00000   0.00000   0.00021   0.00021   3.13777
   D85       -3.10391   0.00000   0.00000   0.00023   0.00023  -3.10368
   D86       -0.99665   0.00000   0.00000   0.00031   0.00031  -0.99634
   D87        1.02335   0.00000   0.00000   0.00027   0.00027   1.02362
   D88        1.15596   0.00000   0.00000   0.00027   0.00027   1.15622
   D89       -3.01996   0.00000   0.00000   0.00034   0.00034  -3.01962
   D90       -0.99997   0.00000   0.00000   0.00031   0.00031  -0.99966
         Item               Value     Threshold  Converged?
 Maximum Force            0.000015     0.000450     YES
 RMS     Force            0.000004     0.000300     YES
 Maximum Displacement     0.000950     0.001800     YES
 RMS     Displacement     0.000171     0.001200     YES
 Predicted change in Energy=-1.335626D-08
 Optimization completed.
    -- Stationary point found.
                           ----------------------------
                           !   Optimized Parameters   !
                           ! (Angstroms and Degrees)  !
 --------------------------                            --------------------------
 ! Name  Definition              Value          Derivative Info.                !
 --------------------------------------------------------------------------------
 ! R1    R(1,2)                  1.5535         -DE/DX =    0.0                 !
 ! R2    R(1,6)                  1.5468         -DE/DX =    0.0                 !
 ! R3    R(1,23)                 1.5405         -DE/DX =    0.0                 !
 ! R4    R(1,27)                 1.5419         -DE/DX =    0.0                 !
 ! R5    R(2,3)                  1.5535         -DE/DX =    0.0                 !
 ! R6    R(2,7)                  1.0976         -DE/DX =    0.0                 !
 ! R7    R(2,8)                  1.0976         -DE/DX =    0.0                 !
 ! R8    R(3,4)                  1.5468         -DE/DX =    0.0                 !
 ! R9    R(3,15)                 1.5405         -DE/DX =    0.0                 !
 ! R10   R(3,19)                 1.5419         -DE/DX =    0.0                 !
 ! R11   R(4,5)                  1.5334         -DE/DX =    0.0                 !
 ! R12   R(4,9)                  1.0983         -DE/DX =    0.0                 !
 ! R13   R(4,10)                 1.0966         -DE/DX =    0.0                 !
 ! R14   R(5,6)                  1.5334         -DE/DX =    0.0                 !
 ! R15   R(5,11)                 1.0955         -DE/DX =    0.0                 !
 ! R16   R(5,12)                 1.0956         -DE/DX =    0.0                 !
 ! R17   R(6,13)                 1.0983         -DE/DX =    0.0                 !
 ! R18   R(6,14)                 1.0966         -DE/DX =    0.0                 !
 ! R19   R(15,16)                1.095          -DE/DX =    0.0                 !
 ! R20   R(15,17)                1.0948         -DE/DX =    0.0                 !
 ! R21   R(15,18)                1.0942         -DE/DX =    0.0                 !
 ! R22   R(19,20)                1.0948         -DE/DX =    0.0                 !
 ! R23   R(19,21)                1.0944         -DE/DX =    0.0                 !
 ! R24   R(19,22)                1.0897         -DE/DX =    0.0                 !
 ! R25   R(23,24)                1.0947         -DE/DX =    0.0                 !
 ! R26   R(23,25)                1.095          -DE/DX =    0.0                 !
 ! R27   R(23,26)                1.0942         -DE/DX =    0.0                 !
 ! R28   R(27,28)                1.0944         -DE/DX =    0.0                 !
 ! R29   R(27,29)                1.0948         -DE/DX =    0.0                 !
 ! R30   R(27,30)                1.0897         -DE/DX =    0.0                 !
 ! A1    A(2,1,6)              109.1982         -DE/DX =    0.0                 !
 ! A2    A(2,1,23)             107.8409         -DE/DX =    0.0                 !
 ! A3    A(2,1,27)             112.8762         -DE/DX =    0.0                 !
 ! A4    A(6,1,23)             108.9804         -DE/DX =    0.0                 !
 ! A5    A(6,1,27)             110.5893         -DE/DX =    0.0                 !
 ! A6    A(23,1,27)            107.2375         -DE/DX =    0.0                 !
 ! A7    A(1,2,3)              118.777          -DE/DX =    0.0                 !
 ! A8    A(1,2,7)              106.6175         -DE/DX =    0.0                 !
 ! A9    A(1,2,8)              109.2296         -DE/DX =    0.0                 !
 ! A10   A(3,2,7)              106.6176         -DE/DX =    0.0                 !
 ! A11   A(3,2,8)              109.2296         -DE/DX =    0.0                 !
 ! A12   A(7,2,8)              105.5325         -DE/DX =    0.0                 !
 ! A13   A(2,3,4)              109.1982         -DE/DX =    0.0                 !
 ! A14   A(2,3,15)             107.8408         -DE/DX =    0.0                 !
 ! A15   A(2,3,19)             112.8762         -DE/DX =    0.0                 !
 ! A16   A(4,3,15)             108.9805         -DE/DX =    0.0                 !
 ! A17   A(4,3,19)             110.5893         -DE/DX =    0.0                 !
 ! A18   A(15,3,19)            107.2375         -DE/DX =    0.0                 !
 ! A19   A(3,4,5)              113.6554         -DE/DX =    0.0                 !
 ! A20   A(3,4,9)              108.5544         -DE/DX =    0.0                 !
 ! A21   A(3,4,10)             109.5083         -DE/DX =    0.0                 !
 ! A22   A(5,4,9)              108.3318         -DE/DX =    0.0                 !
 ! A23   A(5,4,10)             110.438          -DE/DX =    0.0                 !
 ! A24   A(9,4,10)             106.0473         -DE/DX =    0.0                 !
 ! A25   A(4,5,6)              111.1434         -DE/DX =    0.0                 !
 ! A26   A(4,5,11)             109.5152         -DE/DX =    0.0                 !
 ! A27   A(4,5,12)             110.4396         -DE/DX =    0.0                 !
 ! A28   A(6,5,11)             109.5152         -DE/DX =    0.0                 !
 ! A29   A(6,5,12)             110.4396         -DE/DX =    0.0                 !
 ! A30   A(11,5,12)            105.6352         -DE/DX =    0.0                 !
 ! A31   A(1,6,5)              113.6554         -DE/DX =    0.0                 !
 ! A32   A(1,6,13)             108.5544         -DE/DX =    0.0                 !
 ! A33   A(1,6,14)             109.5084         -DE/DX =    0.0                 !
 ! A34   A(5,6,13)             108.3317         -DE/DX =    0.0                 !
 ! A35   A(5,6,14)             110.4379         -DE/DX =    0.0                 !
 ! A36   A(13,6,14)            106.0473         -DE/DX =    0.0                 !
 ! A37   A(3,15,16)            111.2602         -DE/DX =    0.0                 !
 ! A38   A(3,15,17)            111.0939         -DE/DX =    0.0                 !
 ! A39   A(3,15,18)            111.4629         -DE/DX =    0.0                 !
 ! A40   A(16,15,17)           107.5139         -DE/DX =    0.0                 !
 ! A41   A(16,15,18)           107.6541         -DE/DX =    0.0                 !
 ! A42   A(17,15,18)           107.6661         -DE/DX =    0.0                 !
 ! A43   A(3,19,20)            110.2159         -DE/DX =    0.0                 !
 ! A44   A(3,19,21)            111.0354         -DE/DX =    0.0                 !
 ! A45   A(3,19,22)            113.4414         -DE/DX =    0.0                 !
 ! A46   A(20,19,21)           107.4087         -DE/DX =    0.0                 !
 ! A47   A(20,19,22)           107.0707         -DE/DX =    0.0                 !
 ! A48   A(21,19,22)           107.4009         -DE/DX =    0.0                 !
 ! A49   A(1,23,24)            111.0939         -DE/DX =    0.0                 !
 ! A50   A(1,23,25)            111.2603         -DE/DX =    0.0                 !
 ! A51   A(1,23,26)            111.463          -DE/DX =    0.0                 !
 ! A52   A(24,23,25)           107.5138         -DE/DX =    0.0                 !
 ! A53   A(24,23,26)           107.666          -DE/DX =    0.0                 !
 ! A54   A(25,23,26)           107.6541         -DE/DX =    0.0                 !
 ! A55   A(1,27,28)            111.0352         -DE/DX =    0.0                 !
 ! A56   A(1,27,29)            110.216          -DE/DX =    0.0                 !
 ! A57   A(1,27,30)            113.4414         -DE/DX =    0.0                 !
 ! A58   A(28,27,29)           107.4088         -DE/DX =    0.0                 !
 ! A59   A(28,27,30)           107.4009         -DE/DX =    0.0                 !
 ! A60   A(29,27,30)           107.0709         -DE/DX =    0.0                 !
 ! D1    D(6,1,2,3)            -46.7203         -DE/DX =    0.0                 !
 ! D2    D(6,1,2,7)             73.5722         -DE/DX =    0.0                 !
 ! D3    D(6,1,2,8)           -172.8451         -DE/DX =    0.0                 !
 ! D4    D(23,1,2,3)          -165.006          -DE/DX =    0.0                 !
 ! D5    D(23,1,2,7)           -44.7135         -DE/DX =    0.0                 !
 ! D6    D(23,1,2,8)            68.8692         -DE/DX =    0.0                 !
 ! D7    D(27,1,2,3)            76.7208         -DE/DX =    0.0                 !
 ! D8    D(27,1,2,7)          -162.9867         -DE/DX =    0.0                 !
 ! D9    D(27,1,2,8)           -49.404          -DE/DX =    0.0                 !
 ! D10   D(2,1,6,5)             50.0197         -DE/DX =    0.0                 !
 ! D11   D(2,1,6,13)           -70.5925         -DE/DX =    0.0                 !
 ! D12   D(2,1,6,14)           174.0502         -DE/DX =    0.0                 !
 ! D13   D(23,1,6,5)           167.5898         -DE/DX =    0.0                 !
 ! D14   D(23,1,6,13)           46.9776         -DE/DX =    0.0                 !
 ! D15   D(23,1,6,14)          -68.3797         -DE/DX =    0.0                 !
 ! D16   D(27,1,6,5)           -74.7672         -DE/DX =    0.0                 !
 ! D17   D(27,1,6,13)          164.6206         -DE/DX =    0.0                 !
 ! D18   D(27,1,6,14)           49.2632         -DE/DX =    0.0                 !
 ! D19   D(2,1,23,24)          178.6834         -DE/DX =    0.0                 !
 ! D20   D(2,1,23,25)          -61.5682         -DE/DX =    0.0                 !
 ! D21   D(2,1,23,26)           58.6065         -DE/DX =    0.0                 !
 ! D22   D(6,1,23,24)           60.2581         -DE/DX =    0.0                 !
 ! D23   D(6,1,23,25)         -179.9935         -DE/DX =    0.0                 !
 ! D24   D(6,1,23,26)          -59.8188         -DE/DX =    0.0                 !
 ! D25   D(27,1,23,24)         -59.4836         -DE/DX =    0.0                 !
 ! D26   D(27,1,23,25)          60.2648         -DE/DX =    0.0                 !
 ! D27   D(27,1,23,26)        -179.5605         -DE/DX =    0.0                 !
 ! D28   D(2,1,27,28)           52.5628         -DE/DX =    0.0                 !
 ! D29   D(2,1,27,29)          171.4579         -DE/DX =    0.0                 !
 ! D30   D(2,1,27,30)          -68.5001         -DE/DX =    0.0                 !
 ! D31   D(6,1,27,28)          175.2304         -DE/DX =    0.0                 !
 ! D32   D(6,1,27,29)          -65.8745         -DE/DX =    0.0                 !
 ! D33   D(6,1,27,30)           54.1675         -DE/DX =    0.0                 !
 ! D34   D(23,1,27,28)         -66.0624         -DE/DX =    0.0                 !
 ! D35   D(23,1,27,29)          52.8326         -DE/DX =    0.0                 !
 ! D36   D(23,1,27,30)         172.8747         -DE/DX =    0.0                 !
 ! D37   D(1,2,3,4)             46.7204         -DE/DX =    0.0                 !
 ! D38   D(1,2,3,15)           165.006          -DE/DX =    0.0                 !
 ! D39   D(1,2,3,19)           -76.7208         -DE/DX =    0.0                 !
 ! D40   D(7,2,3,4)            -73.5721         -DE/DX =    0.0                 !
 ! D41   D(7,2,3,15)            44.7136         -DE/DX =    0.0                 !
 ! D42   D(7,2,3,19)           162.9868         -DE/DX =    0.0                 !
 ! D43   D(8,2,3,4)            172.8452         -DE/DX =    0.0                 !
 ! D44   D(8,2,3,15)           -68.8692         -DE/DX =    0.0                 !
 ! D45   D(8,2,3,19)            49.404          -DE/DX =    0.0                 !
 ! D46   D(2,3,4,5)            -50.0198         -DE/DX =    0.0                 !
 ! D47   D(2,3,4,9)             70.5925         -DE/DX =    0.0                 !
 ! D48   D(2,3,4,10)          -174.0503         -DE/DX =    0.0                 !
 ! D49   D(15,3,4,5)          -167.5898         -DE/DX =    0.0                 !
 ! D50   D(15,3,4,9)           -46.9775         -DE/DX =    0.0                 !
 ! D51   D(15,3,4,10)           68.3797         -DE/DX =    0.0                 !
 ! D52   D(19,3,4,5)            74.7672         -DE/DX =    0.0                 !
 ! D53   D(19,3,4,9)          -164.6205         -DE/DX =    0.0                 !
 ! D54   D(19,3,4,10)          -49.2633         -DE/DX =    0.0                 !
 ! D55   D(2,3,15,16)           61.5684         -DE/DX =    0.0                 !
 ! D56   D(2,3,15,17)         -178.6832         -DE/DX =    0.0                 !
 ! D57   D(2,3,15,18)          -58.6063         -DE/DX =    0.0                 !
 ! D58   D(4,3,15,16)          179.9936         -DE/DX =    0.0                 !
 ! D59   D(4,3,15,17)          -60.2579         -DE/DX =    0.0                 !
 ! D60   D(4,3,15,18)           59.8189         -DE/DX =    0.0                 !
 ! D61   D(19,3,15,16)         -60.2646         -DE/DX =    0.0                 !
 ! D62   D(19,3,15,17)          59.4838         -DE/DX =    0.0                 !
 ! D63   D(19,3,15,18)         179.5606         -DE/DX =    0.0                 !
 ! D64   D(2,3,19,20)         -171.4549         -DE/DX =    0.0                 !
 ! D65   D(2,3,19,21)          -52.5598         -DE/DX =    0.0                 !
 ! D66   D(2,3,19,22)           68.5032         -DE/DX =    0.0                 !
 ! D67   D(4,3,19,20)           65.8775         -DE/DX =    0.0                 !
 ! D68   D(4,3,19,21)         -175.2274         -DE/DX =    0.0                 !
 ! D69   D(4,3,19,22)          -54.1644         -DE/DX =    0.0                 !
 ! D70   D(15,3,19,20)         -52.8297         -DE/DX =    0.0                 !
 ! D71   D(15,3,19,21)          66.0654         -DE/DX =    0.0                 !
 ! D72   D(15,3,19,22)        -172.8716         -DE/DX =    0.0                 !
 ! D73   D(3,4,5,6)             56.7055         -DE/DX =    0.0                 !
 ! D74   D(3,4,5,11)           177.841          -DE/DX =    0.0                 !
 ! D75   D(3,4,5,12)           -66.2314         -DE/DX =    0.0                 !
 ! D76   D(9,4,5,6)            -64.032          -DE/DX =    0.0                 !
 ! D77   D(9,4,5,11)            57.1036         -DE/DX =    0.0                 !
 ! D78   D(9,4,5,12)           173.0312         -DE/DX =    0.0                 !
 ! D79   D(10,4,5,6)          -179.7692         -DE/DX =    0.0                 !
 ! D80   D(10,4,5,11)          -58.6337         -DE/DX =    0.0                 !
 ! D81   D(10,4,5,12)           57.294          -DE/DX =    0.0                 !
 ! D82   D(4,5,6,1)            -56.7054         -DE/DX =    0.0                 !
 ! D83   D(4,5,6,13)            64.032          -DE/DX =    0.0                 !
 ! D84   D(4,5,6,14)           179.7692         -DE/DX =    0.0                 !
 ! D85   D(11,5,6,1)          -177.841          -DE/DX =    0.0                 !
 ! D86   D(11,5,6,13)          -57.1036         -DE/DX =    0.0                 !
 ! D87   D(11,5,6,14)           58.6336         -DE/DX =    0.0                 !
 ! D88   D(12,5,6,1)            66.2314         -DE/DX =    0.0                 !
 ! D89   D(12,5,6,13)         -173.0312         -DE/DX =    0.0                 !
 ! D90   D(12,5,6,14)          -57.294          -DE/DX =    0.0                 !
 --------------------------------------------------------------------------------
 GradGradGradGradGradGradGradGradGradGradGradGradGradGradGradGradGradGrad

 Leave Link  103 at Wed Jul 23 16:41:54 2025, MaxMem=   104857600 cpu:             123.2 elap:               4.9
 (Enter /opt/linux/rocky/8/software/gaussian/16c01_avx2/g16/l9999.exe)

 ----------------------------------------------------------------------

 Electric dipole moment (input orientation):
 (Debye = 10**-18 statcoulomb cm , SI units = C m)
                  (au)            (Debye)         (10**-30 SI)
   Tot        0.503980D-01      0.128099D+00      0.427292D+00
   x          0.000000D+00      0.000000D+00      0.000000D+00
   y          0.498047D-01      0.126591D+00      0.422262D+00
   z         -0.771004D-02     -0.195970D-01     -0.653684D-01

 Dipole polarizability, Alpha (input orientation).
 (esu units = cm**3 , SI units = C**2 m**2 J**-1)
 Alpha(0;0):
               (au)            (10**-24 esu)      (10**-40 SI)
   iso        0.110895D+03      0.164329D+02      0.182841D+02
   aniso      0.153207D+02      0.227029D+01      0.252604D+01
   xx         0.120855D+03      0.179089D+02      0.199264D+02
   yx         0.000000D+00      0.000000D+00      0.000000D+00
   yy         0.107863D+03      0.159836D+02      0.177841D+02
   zx         0.223654D-04      0.331421D-05      0.368756D-05
   zy        -0.201842D+00     -0.299099D-01     -0.332792D-01
   zz         0.103967D+03      0.154063D+02      0.171419D+02

 ----------------------------------------------------------------------

 Dipole orientation:
     6          2.52647976          0.16618195         -0.47354623
     6         -0.00002629          1.09264865         -1.64664579
     6         -2.52650427          0.16634230         -0.47335915
     6         -2.38996321          0.43089331          2.43450559
     6          0.00010827         -0.72433584          3.59608732
     6          2.39017082          0.43073975          2.43432832
     1          0.00004677          3.16139392         -1.49733509
     1         -0.00011458          0.68253865         -3.67976617
     1         -2.44058266          2.44883601          2.91717461
     1         -4.08460601         -0.40435725          3.28567899
     1          0.00019420         -0.40251060          5.64113219
     1          0.00003408         -2.78058833          3.35482364
     1          2.44095408          2.44867894          2.91699545
     1          4.08482174         -0.40462053          3.28537781
     6         -4.65712330          1.87528853         -1.48056431
     1         -4.81594642          1.74198543         -3.53934760
     1         -6.48627304          1.33564286         -0.67879348
     1         -4.32420524          3.85974891         -1.00447914
     6         -3.18746178         -2.57055101         -1.22335078
     1         -5.10213347         -3.04094639         -0.59675867
     1         -3.13160390         -2.81170162         -3.27665632
     1         -1.92161645         -3.97292204         -0.40392831
     6          4.65713456          1.87499022         -1.48090386
     1          6.48630940          1.33522343         -0.67927307
     1          4.81579676          1.74168294         -3.53969990
     1          4.32438336          3.85947086         -1.00478843
     6          3.18720615         -2.57075459         -1.22359082
     1          3.13127729         -2.81186789         -3.27690039
     1          5.10185658         -3.04130778         -0.59705432
     1          1.92127012         -3.97303600         -0.40415922

 Electric dipole moment (dipole orientation):
 (Debye = 10**-18 statcoulomb cm , SI units = C m)
                  (au)            (Debye)         (10**-30 SI)
   Tot        0.503980D-01      0.128099D+00      0.427292D+00
   x          0.000000D+00      0.000000D+00      0.000000D+00
   y          0.000000D+00      0.000000D+00      0.000000D+00
   z          0.503980D-01      0.128099D+00      0.427292D+00

 Dipole polarizability, Alpha (dipole orientation).
 (esu units = cm**3 , SI units = C**2 m**2 J**-1)
 Alpha(0;0):
               (au)            (10**-24 esu)      (10**-40 SI)
   iso        0.110895D+03      0.164329D+02      0.182841D+02
   aniso      0.153207D+02      0.227029D+01      0.252604D+01
   xx         0.120855D+03      0.179089D+02      0.199264D+02
   yx        -0.572153D-03     -0.847844D-04     -0.943354D-04
   yy         0.103997D+03      0.154108D+02      0.171468D+02
   zx        -0.495615D-03     -0.734425D-04     -0.817159D-04
   zy        -0.396547D+00     -0.587622D-01     -0.653818D-01
   zz         0.107833D+03      0.159791D+02      0.177792D+02

 ----------------------------------------------------------------------
 Unable to Open any file for archive entry.
 1\1\GINC-A005\Freq\RB3LYP\6-311G(d)\C10H20\DJO04747\23-Jul-2025\0\\#P 
 Geom=AllCheck Guess=TCheck SCRF=Check GenChk RB3LYP/6-311G(d) Freq\\Ti
 tle Card Required\\0,1\C,1.336962,-0.261051,-0.048618\C,0.,-0.949566,-
 0.438094\C,-1.336962,-0.261051,-0.048618\C,-1.264769,1.238197,-0.42237
 4\C,-0.000001,1.939206,0.087668\C,1.264769,1.238197,-0.422373\H,0.0000
 01,-1.03896,-1.532028\H,0.,-1.979582,-0.059036\H,-1.291599,1.327244,-1
 .516727\H,-2.161538,1.750906,-0.054455\H,-0.000001,2.982605,-0.246187\
 H,-0.000001,1.979502,1.182513\H,1.291599,1.327245,-1.516726\H,2.161537
 ,1.750907,-0.054453\C,-2.464446,-0.926151,-0.860728\H,-2.548449,-1.991
 999,-0.624345\H,-3.432397,-0.46321,-0.643393\H,-2.288316,-0.83783,-1.9
 37046\C,-1.686665,-0.431703,1.443364\H,-2.69987,-0.065979,1.638668\H,-
 1.657062,-1.485952,1.735698\H,-1.016801,0.110363,2.11037\C,2.464447,-0
 .926148,-0.860727\H,3.432398,-0.463209,-0.643389\H,2.54845,-1.991997,-
 0.624347\H,2.28832,-0.837824,-1.937045\C,1.686664,-0.431705,1.443365\H
 ,1.657112,-1.485961,1.735682\H,2.699849,-0.065933,1.638681\H,1.016767,
 0.110316,2.110373\\Version=ES64L-G16RevC.01\State=1-A\HF=-393.2097109\
 RMSD=1.476e-09\RMSF=5.759e-06\ZeroPoint=0.2817355\Thermal=0.2928883\ET
 ot=-392.9168226\HTot=-392.9158784\GTot=-392.9627086\Dipole=-0.0000019,
 0.0498047,-0.00771\DipoleDeriv=0.0754362,-0.0273898,-0.0218553,0.00481
 19,0.0442166,0.0097455,0.0375348,-0.0138213,0.1232702,0.0447041,0.0000
 002,-0.0000002,-0.0000002,0.1044091,-0.0272675,-0.0000004,0.0180982,0.
 0465127,0.0754363,0.0273881,0.0218548,-0.0048108,0.0442171,0.0097458,-
 0.037534,-0.0138213,0.123269,0.0802743,-0.0469854,-0.0280589,-0.024708
 ,0.0722934,-0.0097078,0.0102528,-0.0244906,0.113447,0.0677774,-0.00000
 06,0.0000001,-0.0000002,0.0741338,-0.0348063,0.,0.0067922,0.1381994,0.
 0802742,0.0469858,0.0280589,0.0247079,0.0722938,-0.0097075,-0.0102534,
 -0.0244902,0.1134477,0.0063049,0.,0.0000001,0.0000003,0.0474095,0.0017
 93,0.,-0.0407604,-0.1953795,0.0040575,0.,0.0000003,-0.0000001,-0.18822
 97,0.0531308,0.0000003,0.0961372,0.0352339,0.0371571,-0.021986,0.01756
 68,-0.0262969,0.0183538,0.0041806,-0.0303471,0.0432547,-0.1973671,-0.1
 735015,0.1022987,0.0446701,0.0724571,-0.0207245,-0.0227593,0.0744433,-
 0.0525002,0.0387362,-0.0004473,0.,0.0000001,0.,-0.2246777,0.0435748,0.
 ,0.0822077,0.0444468,-0.0033544,0.0000004,0.0000003,0.0000002,0.074863
 8,0.0132799,0.0000004,-0.0404897,-0.1833364,0.037157,0.0219858,-0.0175
 666,0.0262971,0.0183536,0.0041809,0.0303471,0.043255,-0.1973673,-0.173
 501,-0.1022985,-0.0446703,-0.072457,-0.0207247,-0.0227592,-0.0744438,-
 0.0525004,0.0387359,0.0360504,-0.0419474,-0.0470771,-0.0285443,0.09272
 69,-0.0256129,-0.0285854,-0.0209516,0.0724481,0.0473281,0.0044459,-0.0
 14983,-0.0652386,-0.1795449,0.0257622,-0.0024748,0.0693135,0.0432987,-
 0.1639142,0.0525481,0.0115595,0.1178803,0.0137317,-0.0251698,0.0563388
 ,-0.0377612,0.0457881,0.0407188,-0.0139484,0.0683148,-0.0141419,0.0529
 983,0.0348163,0.006469,0.0000628,-0.1742575,0.0764073,-0.0100022,-0.01
 0461,0.0000009,0.0785584,-0.0126167,0.0212475,-0.0040987,-0.0272462,-0
 .1742357,0.0683776,0.0831907,0.0930294,0.0379138,-0.0192888,0.0139046,
 0.0044145,0.0410007,0.0666295,0.0218228,0.0006283,-0.0142583,-0.162083
 2,0.0942076,0.0088224,0.0299262,0.0231154,-0.0078732,-0.0735521,-0.104
 0416,-0.0847935,0.0076053,-0.0784094,-0.0959764,-0.0543416,-0.0450709,
 0.03605,0.0419469,0.0470766,0.0285439,0.0927274,-0.0256133,0.028585,-0
 .0209514,0.072448,-0.1639144,-0.0525481,-0.01156,-0.1178802,0.0137321,
 -0.0251699,-0.056339,-0.0377612,0.0457886,0.0473281,-0.0044458,0.01498
 32,0.0652388,-0.1795459,0.0257618,0.002475,0.0693135,0.0432986,0.04071
 88,0.0139484,-0.0683144,0.014142,0.0529983,0.0348168,-0.0064683,0.0000
 637,-0.1742577,0.0764071,0.0100051,0.0104649,0.0000002,0.0785611,-0.01
 26155,-0.021246,-0.0040991,-0.0272481,0.0666285,-0.021813,-0.000634,0.
 0142693,-0.1620866,0.0942058,-0.0088233,0.0299237,0.0231182,-0.1742265
 ,-0.0683851,-0.0831908,-0.0930391,0.0379068,-0.0192937,-0.0139077,0.00
 44135,0.0409986,-0.0078772,0.0735489,0.1040437,0.0847898,0.0076124,-0.
 0784043,0.0959783,-0.0543378,-0.0450713\Polar=120.855397,0.0000026,107
 .8626438,0.0000224,-0.2018419,103.9670766\Quadrupole=-0.3581473,0.3683
 292,-0.0101819,0.0000021,-0.0000046,-0.1673047\PG=C01 [X(C10H20)]\NIma
 g=0\\0.46587493,-0.00541571,0.47329522,0.00497717,0.00097614,0.4798326
 6,-0.12760217,-0.02414792,-0.01237196,0.42596052,-0.03108962,-0.095028
 02,-0.00963949,-0.00000007,0.54167781,-0.01841222,-0.00964471,-0.08316
 885,-0.00000023,-0.04041473,0.55916971,-0.02063694,0.00806535,0.006384
 14,-0.12760217,0.03108973,0.01841216,0.46587403,-0.00806538,0.01194742
 ,0.00805063,0.02414791,-0.09502791,-0.00964469,0.00541531,0.47329480,-
 0.00638415,0.00805065,0.00341966,0.01237188,-0.00963964,-0.08316888,-0
 .00497810,0.00097580,0.47983348,0.00162553,-0.00134408,-0.00101565,0.0
 0012815,0.03028211,-0.00657234,-0.07829752,0.00164541,0.00007553,0.534
 15292,-0.00063856,0.00110867,0.00075993,0.00837843,-0.02262438,0.00194
 356,-0.00256622,-0.15052996,0.01830257,-0.04653307,0.45493958,-0.00067
 033,0.00029834,0.00008735,-0.00127563,-0.00663428,0.00338378,0.0017549
 5,0.02057338,-0.08285866,-0.03092123,0.01682038,0.56471386,0.00018720,
 0.00806762,-0.00171562,0.00009533,0.,0.,0.00018720,-0.00806765,0.00171
 565,-0.14686802,-0.03513913,-0.03078303,0.43584824,0.02711657,-0.01722
 126,-0.01148081,0.,0.00206495,-0.00089999,-0.02711659,-0.01722139,-0.0
 1148071,-0.03632738,-0.10133043,-0.01585470,0.00000075,0.55779009,-0.0
 0772742,0.00023961,0.00434648,0.,-0.00095532,-0.00003674,0.00772741,0.
 00023959,0.00434648,-0.02774573,-0.01429495,-0.09486176,0.00000047,-0.
 02770155,0.57130681,-0.07829744,-0.00164542,-0.00007540,0.00012813,-0.
 03028211,0.00657232,0.00162552,0.00134409,0.00101565,-0.03395492,0.010
 41571,0.00809273,-0.14686700,0.03632667,0.02774522,0.53415172,0.002566
 40,-0.15053026,0.01830259,-0.00837844,-0.02262434,0.00194354,0.0006385
 6,0.00110868,0.00075993,-0.01041573,0.01027169,0.00629690,0.03513847,-
 0.10133018,-0.01429466,0.04653375,0.45493999,-0.00175495,0.02057342,-0
 .08285869,0.00127564,-0.00663432,0.00338376,0.00067033,0.00029834,0.00
 008737,-0.00809275,0.00629691,0.00510224,0.03078255,-0.01585443,-0.094
 86158,0.03092206,0.01682005,0.56471343,-0.00443861,-0.00170344,-0.0278
 6714,-0.04326506,0.00000006,0.00000019,-0.00443857,0.00170342,0.027867
 08,0.00067285,-0.00082238,0.00007076,-0.00013470,0.,0.,0.00067285,0.00
 082238,-0.00007076,0.06341522,-0.00188884,-0.00177859,-0.01669858,0.00
 000005,-0.05173024,-0.01743058,0.00188884,-0.00177860,-0.01669854,-0.0
 0039828,0.00058704,-0.00086553,0.,-0.00020764,0.00010657,0.00039829,0.
 00058704,-0.00086553,0.,0.05116158,-0.00202998,-0.00015434,-0.01175909
 ,0.00000022,-0.01670749,-0.29285980,0.00202995,-0.00015431,-0.01175900
 ,-0.00029933,0.00045613,-0.00023028,0.,-0.00021317,0.00002464,0.000299
 34,0.00045614,-0.00023028,-0.00000016,0.02008798,0.32091063,-0.0012685
 6,-0.02596238,0.00990708,-0.04718054,-0.00000005,0.,-0.00126859,0.0259
 6236,-0.00990701,-0.00515169,0.00138802,0.00185225,-0.00032094,0.,0.,-
 0.00515170,-0.00138801,-0.00185225,-0.00066132,0.,0.,0.05642301,-0.000
 67729,-0.01653586,0.00561524,0.,-0.26316030,0.08338891,0.00067728,-0.0
 1653587,0.00561525,0.00339116,0.00067459,-0.00166113,0.,0.00055818,0.0
 0037826,-0.00339115,0.00067460,-0.00166113,0.,0.00275263,-0.00013501,0
 .00000002,0.28857624,-0.00113404,-0.00948304,0.00214931,-0.00000001,0.
 08425599,-0.07943944,0.00113405,-0.00948297,0.00214924,0.00140398,-0.0
 0093715,-0.00024327,0.,0.00010840,-0.00002526,-0.00140399,-0.00093714,
 -0.00024326,0.,0.03101818,-0.01189460,-0.00000004,-0.09152346,0.084682
 05,-0.00015922,0.00008655,0.00004600,0.00002638,0.00001971,-0.00063976
 ,-0.00119894,-0.00011636,0.00069653,-0.04922973,0.00271281,-0.00308857
 ,-0.00269796,0.00083964,-0.02958967,0.00158772,0.00025571,-0.00143355,
 0.00010939,0.00020333,0.00000864,0.00000467,-0.00006447,0.00009811,0.0
 5329461,0.00001868,-0.00020576,-0.00003579,-0.00046335,0.00121696,0.00
 052638,-0.00163288,-0.00445144,0.03254733,0.00288097,-0.04892004,0.017
 94689,-0.00159471,-0.00006642,-0.01716509,0.00084552,0.00019805,0.0003
 7325,0.00038202,-0.00029086,-0.00054956,-0.00025303,0.00015529,-0.0003
 4514,0.00313968,0.05742072,-0.00018131,0.00012180,0.00014010,0.0002381
 5,-0.00048058,-0.00025318,0.00119635,0.00128667,-0.01034385,-0.0032107
 1,0.01900867,-0.29140251,-0.00128012,-0.00052877,-0.01325028,0.0010199
 7,0.00022240,0.00028539,-0.00043782,0.00032235,0.00056201,-0.00003927,
 0.00012545,0.00023822,0.00580209,-0.02001237,0.31990847,0.00028373,-0.
 00050011,0.00018957,0.00115447,-0.00047353,-0.00045890,-0.00047067,0.0
 0030985,-0.00045739,-0.21338018,0.09486237,0.07060376,-0.02224578,0.01
 283546,0.01053845,-0.00314716,-0.00432391,-0.00336278,-0.00002527,-0.0
 0003525,0.00008785,0.00008334,0.00010687,0.00001356,0.00068559,-0.0008
 9237,0.00058065,0.23451265,-0.00068566,-0.00034191,-0.00010396,-0.0022
 4448,-0.00566408,0.00262820,0.02672782,-0.01673490,-0.01137345,0.09487
 284,-0.10150898,-0.04054229,-0.01374130,0.00782745,0.00673385,-0.00252
 540,-0.00146201,-0.00157612,-0.00022659,0.00017299,-0.00010707,0.00188
 177,-0.00112125,-0.00040282,-0.00255604,0.00079464,0.00037988,-0.10226
 483,0.11353224,0.00007278,-0.00011401,0.00000814,-0.00007926,0.0014915
 7,-0.00017975,-0.00711410,0.00507919,0.00175257,0.07170888,-0.04134586
 ,-0.07947163,-0.01130644,0.00624432,0.00384272,-0.00141875,-0.00124833
 ,-0.00062026,-0.00024018,0.00028518,0.00025364,-0.00027623,0.00018536,
 0.00046102,0.02678390,-0.01545596,-0.01144677,-0.07761013,0.04388708,0
 .08305470,-0.00475831,0.00045162,0.00282638,-0.00058192,0.,0.,-0.00475
 830,-0.00045164,-0.00282636,-0.00072887,-0.02872749,0.00981709,-0.0461
 4915,0.,-0.00000002,-0.00072886,0.02872748,-0.00981709,0.00005605,0.,0
 .,0.00013664,0.,0.,0.00121033,0.00066625,-0.00007219,0.00072612,0.0005
 6718,0.00077924,0.05439847,0.00280082,0.00101134,-0.00191333,0.,0.0008
 8082,0.00011607,-0.00280082,0.00101133,-0.00191333,-0.00044346,-0.0142
 9649,0.00475567,-0.00000003,-0.27564469,0.07613832,0.00044346,-0.01429
 644,0.00475565,0.,-0.00005818,-0.00006153,0.,-0.00004542,0.00006663,0.
 00031519,0.00036038,-0.00064917,-0.00044981,0.00062711,0.00024555,0.00
 000003,0.30019671,0.00190974,-0.00049898,-0.00080414,0.,0.00026828,-0.
 00001264,-0.00190974,-0.00049898,-0.00080417,-0.00059833,-0.01296761,0
 .00306351,0.,0.07765413,-0.07447789,0.00059831,-0.01296755,0.00306350,
 0.,-0.00002185,0.00000362,0.,-0.00006391,0.00001221,0.00065386,-0.0001
 4565,0.00061621,0.00053667,0.00053267,0.00020450,0.00000001,-0.0823293
 9,0.07828669,0.00092624,-0.00060774,-0.00012472,-0.00014173,0.,0.,0.00
 092623,0.00060773,0.00012472,-0.00064771,0.00039826,-0.02987834,-0.047
 89934,0.,0.,-0.00064777,-0.00039823,0.02987835,-0.00013818,0.,0.,0.000
 13261,0.,0.,-0.00444660,-0.00331942,-0.00204141,0.00095386,0.00082880,
 0.00045199,-0.00075486,0.,0.,0.05557615,-0.00067699,0.00055032,-0.0007
 8631,0.,-0.00031613,-0.00000202,0.00067700,0.00055034,-0.00078630,0.00
 020681,-0.00031448,-0.01585945,-0.00000002,-0.05075735,-0.00588116,-0.
 00020676,-0.00031449,-0.01585945,0.,0.00011086,0.00014878,0.,-0.000067
 92,-0.00001220,-0.00254918,-0.00069038,-0.00137294,0.00040047,0.000501
 64,0.00062760,0.,0.00113065,0.03185243,0.00000005,0.05219956,-0.000161
 82,0.00078070,-0.00053882,0.,-0.00019255,0.00012651,0.00016183,0.00078
 073,-0.00053885,-0.00127170,-0.00051140,-0.01110142,-0.00000002,-0.007
 35955,-0.29794404,0.00127170,-0.00051138,-0.01110134,0.,0.00011104,0.0
 0014411,0.,-0.00018816,-0.00000331,-0.00204446,-0.00092332,0.00085936,
 -0.00062352,0.00008948,0.00058302,0.,0.00111799,-0.01121450,-0.0000000
 4,0.00638047,0.32786151,-0.00119895,0.00011635,-0.00069652,0.00002638,
 -0.00001971,0.00063976,-0.00015923,-0.00008655,-0.00004600,0.00158772,
 -0.00025571,0.00143355,-0.00269802,-0.00083963,0.02958970,-0.04922970,
 -0.00271287,0.00308859,0.00010939,-0.00020333,-0.00000864,0.00000467,0
 .00006447,-0.00009811,-0.00034806,-0.00005979,-0.00074471,0.00038302,0
 .00018291,-0.00038331,0.00121034,-0.00031519,-0.00065386,-0.00444661,0
 .00254918,0.00204445,0.05329463,0.00163285,-0.00445145,0.03254732,0.00
 046335,0.00121695,0.00052638,-0.00001868,-0.00020576,-0.00003579,-0.00
 084552,0.00019805,0.00037325,0.00159474,-0.00006641,-0.01716506,-0.002
 88102,-0.04892012,0.01794709,-0.00038202,-0.00029086,-0.00054956,0.000
 25303,0.00015529,-0.00034515,0.00005979,0.00024690,0.00038137,-0.00016
 612,-0.00014270,0.00006989,-0.00066625,0.00036038,-0.00014565,0.003319
 41,-0.00069037,-0.00092332,-0.00313968,0.05742080,-0.00119635,0.001286
 68,-0.01034383,-0.00023815,-0.00048057,-0.00025318,0.00018131,0.000121
 80,0.00014010,-0.00101997,0.00022241,0.00028539,0.00128015,-0.00052878
 ,-0.01325028,0.00321069,0.01900888,-0.29140232,0.00043782,0.00032235,0
 .00056201,0.00003927,0.00012545,0.00023822,0.00074471,0.00038137,0.000
 76065,-0.00000044,-0.00006855,0.00043705,0.00007219,-0.00064918,0.0006
 1621,0.00204142,-0.00137294,0.00085937,-0.00580213,-0.02001257,0.31990
 827,-0.00047071,-0.00030984,0.00045736,0.00115448,0.00047352,0.0004589
 0,0.00028374,0.00050011,-0.00018957,-0.00314717,0.00432390,0.00336277,
 -0.02224574,-0.01283547,-0.01053848,-0.21337988,-0.09486252,-0.0706038
 9,-0.00002527,0.00003525,-0.00008785,0.00008333,-0.00010687,-0.0000135
 6,0.00038302,0.00016612,0.00000045,-0.00160303,-0.00100693,-0.00043581
 ,0.00072612,0.00044981,-0.00053667,0.00095386,-0.00040047,0.00062351,0
 .00068562,0.00089238,-0.00058063,0.23451231,-0.02672776,-0.01673488,-0
 .01137343,0.00224448,-0.00566407,0.00262820,0.00068566,-0.00034191,-0.
 00010396,0.00252540,-0.00146201,-0.00157611,0.01374127,0.00782745,0.00
 673386,-0.09487293,-0.10150919,-0.04054247,0.00022659,0.00017299,-0.00
 010707,-0.00188177,-0.00112125,-0.00040283,-0.00018291,-0.00014270,-0.
 00006855,0.00100693,0.00049640,0.00011660,-0.00056718,0.00062710,0.000
 53266,-0.00082880,0.00050164,0.00008949,0.00255605,0.00079465,0.000379
 89,0.10226490,0.11353243,0.00711403,0.00507916,0.00175251,0.00007928,0
 .00149156,-0.00017975,-0.00007278,-0.00011401,0.00000814,0.00141875,-0
 .00124833,-0.00062027,0.01130640,0.00624431,0.00384273,-0.07170903,-0.
 04134605,-0.07947177,0.00024018,0.00028518,0.00025364,0.00027622,0.000
 18536,0.00046102,0.00038331,0.00006989,0.00043705,0.00043581,0.0001166
 0,0.00051080,-0.00077924,0.00024555,0.00020450,-0.00045200,0.00062759,
 0.00058303,-0.02678386,-0.01545596,-0.01144678,0.07761033,0.04388724,0
 .08305492,-0.00194096,0.00328351,0.00110792,-0.03547815,-0.01074750,-0
 .01287581,-0.12277006,-0.02849305,-0.03621513,-0.00379775,-0.00783554,
 -0.00073381,0.00037838,0.00077491,0.00009597,-0.00008060,0.00046254,-0
 .00010985,-0.00039742,-0.00111119,-0.00205386,0.00123458,-0.00076669,-
 0.00024489,0.00011311,0.00032410,-0.00055617,0.00058009,0.00159988,0.0
 0033365,0.00031011,0.00019483,0.00000142,-0.00002527,-0.00009617,-0.00
 000659,-0.00002261,-0.00006573,0.00003710,0.00006051,-0.00009873,-0.00
 002211,0.50847438,0.00230888,-0.00230450,-0.00092780,0.00962331,0.0072
 5665,0.00695105,-0.02746802,-0.09268860,-0.02011971,-0.02869145,-0.022
 71109,-0.01612010,0.00126755,-0.00556796,0.00175843,0.00044269,-0.0005
 9881,-0.00006727,0.00040581,0.00065208,0.00039616,0.00116627,0.0000565
 4,0.00045924,-0.00073724,0.00091906,-0.00160426,-0.00029601,0.00089923
 ,-0.00041131,-0.00157733,-0.00091852,-0.00041865,0.00003998,-0.0000275
 9,-0.00026091,-0.00005106,0.00005035,0.00003275,-0.00008305,0.00023219
 ,0.00001732,-0.03666142,0.54726570,0.00159956,-0.00106501,-0.00096293,
 0.00222437,0.00358667,0.00344167,-0.03649162,-0.02116652,-0.09926675,0
 .00461944,0.00028481,0.00371563,0.00014657,0.00235326,-0.00085094,-0.0
 0024581,-0.00019484,0.00037229,0.00271343,-0.00014644,0.00028227,-0.00
 004536,-0.00010838,-0.00034196,0.00108514,0.00201304,0.00038737,-0.000
 11293,-0.00000363,-0.00034319,0.00058818,0.00049786,0.00029422,0.00003
 561,0.00009510,0.00007671,0.00002567,0.00003325,-0.00012121,0.00009750
 ,0.00004973,-0.00006277,-0.04668937,-0.02610564,0.54390153,-0.00001096
 ,0.00018530,-0.00007909,0.00133839,-0.00112138,0.00047611,-0.00195022,
 -0.02366073,0.00655061,-0.00378417,-0.00107226,-0.00273599,0.00050706,
 -0.00151880,0.00029516,0.00041288,-0.00008370,0.00003027,0.00000613,0.
 00002768,0.00016820,-0.00040958,0.00047350,-0.00036518,-0.00018553,0.0
 0028956,-0.00009697,0.00016786,-0.00037059,-0.00022994,-0.00045930,-0.
 00025855,-0.00013021,-0.00002689,-0.00001405,-0.00006925,-0.00000837,0
 .00001048,0.00001216,-0.00002242,0.00009335,-0.00001985,-0.04887064,-0
 .01583185,0.00384882,0.05109031,-0.00027297,0.00018381,-0.00009736,0.0
 0125035,0.00031495,0.00018152,-0.00046457,-0.01452096,0.00355070,-0.00
 355840,0.00008427,-0.00249961,0.00080755,-0.00072178,0.00055395,0.0001
 7004,-0.00003132,-0.00006484,-0.00013456,-0.00006107,0.00000989,-0.000
 60900,0.00073307,-0.00006481,0.00015142,0.00038614,-0.00006392,0.00016
 272,0.00026297,0.00001358,-0.00039036,-0.00021337,-0.00015923,-0.00011
 436,-0.00007010,-0.00014172,0.00001005,0.00002853,0.00001125,-0.000119
 91,0.00009251,0.00001513,-0.01633381,-0.28943532,0.05585462,0.01964390
 ,0.31600704,0.00012766,-0.00012030,-0.00014779,0.00068788,-0.00010684,
 0.00028024,-0.00019217,-0.01722455,0.00291836,-0.00258190,-0.00064773,
 -0.00215650,-0.00003869,-0.00100469,0.00089564,0.00007875,-0.00004851,
 -0.00009196,-0.00005545,0.00026200,-0.00013029,-0.00000016,0.00024475,
 0.00021596,-0.00013338,-0.00021214,0.00056427,-0.00001583,0.00025104,-
 0.00002539,-0.00033463,-0.00020504,-0.00008746,0.00015076,0.00009087,0
 .00001029,-0.00001749,-0.00000453,0.00002075,-0.00001419,0.00002247,0.
 00001829,0.00408933,0.05641060,-0.06138873,-0.00205805,-0.06115364,0.0
 6341591,-0.00017709,0.00165703,0.00057802,-0.00336643,-0.00397953,-0.0
 0330472,-0.02174279,0.01082244,0.00568881,0.00066785,0.00152957,0.0004
 9450,0.00017325,-0.00029836,-0.00016965,0.00010977,0.00034854,0.000019
 50,0.00041904,-0.00026560,-0.00021303,0.00014570,0.00017470,-0.0001078
 7,-0.00008257,-0.00008834,0.00009102,0.00038182,-0.00106781,-0.0002308
 2,0.00000006,-0.00005741,-0.00001384,0.00002263,0.00004080,0.00000412,
 0.00001175,-0.00001064,0.00001314,0.00003426,-0.00015895,-0.00002231,-
 0.24471679,0.09704471,0.04640968,0.00305000,-0.00077651,-0.00107441,0.
 26828390,-0.00071203,0.00053539,-0.00004276,-0.00159279,-0.00079943,-0
 .00105267,-0.01263368,0.00537880,0.00327681,-0.00066019,0.00106691,0.0
 0038662,0.00014206,0.00010262,-0.00004151,0.00005903,0.00021783,0.0000
 6546,-0.00014638,-0.00027598,-0.00004296,-0.00036981,0.00028107,-0.000
 20940,0.00006197,-0.00000378,0.00012321,0.00006446,-0.00006779,-0.0002
 7235,0.00003645,0.00003455,0.00001636,0.00003334,0.00002217,0.00004282
 ,-0.00000876,-0.00000966,0.00000195,0.00005453,0.00001495,-0.00001849,
 0.09770380,-0.09577382,-0.02279000,0.02833934,-0.01292219,-0.00768896,
 -0.10606326,0.10116203,-0.00062366,0.00044387,0.00087233,-0.00178214,-
 0.00176671,-0.00214130,-0.01477054,0.00815051,0.00199423,0.00034697,0.
 00060996,0.00033400,0.00001161,0.00021671,-0.00014503,0.00000756,0.000
 10240,-0.00005776,-0.00022197,-0.00000797,0.00067343,0.00019759,-0.000
 14913,-0.00003083,0.00017851,-0.00015267,-0.00010883,0.00020543,-0.000
 13133,0.00019953,0.00006172,0.00003023,0.00001268,-0.00003626,-0.00001
 706,-0.00001536,-0.00000688,-0.00001815,0.00001712,0.00000888,-0.00002
 222,0.00001174,0.04733701,-0.02302303,-0.05934501,-0.00761982,0.003177
 21,0.00077178,-0.05003998,0.02704113,0.06173347,-0.00000274,-0.0001311
 2,0.00015040,0.00124149,-0.00014673,-0.00200622,0.00297982,0.00285797,
 -0.02260512,0.00054224,0.00114761,-0.00036769,-0.00005384,0.00021904,-
 0.00000348,0.00003762,-0.00001541,-0.00002171,-0.00076644,0.00003979,0
 .00032716,-0.00008398,0.00000565,0.00005758,0.00020431,-0.00019757,0.0
 0033168,0.00000633,-0.00008790,0.00012154,0.00003086,0.00003153,0.0000
 3022,0.00003941,0.00004660,0.00002426,-0.00002170,-0.00001934,0.000020
 33,0.00001674,0.00002452,0.00001136,-0.05569279,-0.00382246,0.04496669
 ,-0.00150565,0.00019898,0.00130027,-0.00420913,-0.00411581,0.02809130,
 0.05969963,0.00004922,-0.00007913,-0.00007688,0.00070146,-0.00015933,0
 .00041744,0.00307167,-0.00025400,-0.01337159,0.00053636,0.00081063,-0.
 00173860,-0.00003715,0.00007386,0.00023822,-0.00002087,0.00005065,-0.0
 0002467,0.00027823,0.00036459,0.00013169,-0.00003044,0.00005845,0.0001
 2380,-0.00038352,-0.00045186,0.00036889,-0.00005367,-0.00004153,-0.000
 00240,0.00002121,-0.00000302,-0.00000619,0.00012218,0.00006017,0.00004
 196,-0.00002270,-0.00000555,0.00001479,0.00002368,-0.00001452,0.000007
 12,-0.00382419,-0.05004695,0.02292341,-0.00604683,-0.00138951,0.031760
 61,0.00170289,0.00080631,-0.01478562,0.00616328,0.05077992,-0.00019412
 ,-0.00007001,0.00064557,0.00175477,-0.00010248,-0.00039745,0.00386598,
 0.00202816,-0.01770217,0.00076411,0.00140349,-0.00015713,-0.00018905,-
 0.00018920,0.00048992,0.00002637,0.00000748,-0.00010682,-0.00070966,0.
 00037484,0.00128078,0.00006191,-0.00010701,0.00009524,-0.00010290,-0.0
 0081150,0.00106673,-0.00006212,0.00011089,0.00008401,-0.00009477,-0.00
 006272,-0.00000118,0.00021558,0.00016539,0.00018914,-0.00004388,-0.000
 02302,0.00007376,-0.00000205,0.00000758,0.00002152,0.04331449,0.022107
 87,-0.29487973,0.00114929,0.00084975,-0.00600084,0.00128923,0.00039487
 ,-0.00534262,-0.04720819,-0.02374550,0.32238531,0.00109691,-0.00018086
 ,0.00024894,-0.00735567,-0.00076163,0.03101478,-0.08144537,-0.00285436
 ,0.02113067,-0.00029058,-0.00144702,0.00230761,-0.00001179,0.00022090,
 0.00103934,-0.00044059,0.00013201,-0.00015905,-0.00489668,0.00206680,0
 .00182951,0.00117046,-0.00118442,-0.00017683,0.00013804,0.00035127,-0.
 00064197,0.00031670,0.00107644,-0.00095226,0.00011629,0.00008698,-0.00
 020220,-0.00021787,-0.00064359,-0.00019387,0.00012838,0.00000532,-0.00
 013526,-0.00003181,-0.00010619,0.00001286,0.00351153,0.00162546,-0.024
 24127,0.00054007,0.00053960,0.00013425,0.00015780,-0.00002901,-0.00149
 668,-0.00344000,-0.00175188,-0.00419759,0.56081366,-0.00017215,-0.0004
 1791,0.00052640,0.00229381,0.00060592,-0.01372178,-0.00323727,-0.07745
 610,0.00992237,-0.00549753,-0.00787458,0.03466380,0.00049456,0.0004530
 2,0.00058238,-0.00002609,-0.00026493,0.00010695,0.00278272,-0.00124307
 ,-0.00146087,0.00064352,0.00016149,-0.00119222,-0.00114965,-0.00638879
 ,0.00246343,-0.00067046,0.00121745,0.00064426,0.00003855,0.00019740,-0
 .00006514,-0.00039992,-0.00041206,0.00015065,0.00007276,0.00000098,-0.
 00012404,-0.00012355,0.00005422,0.00000480,0.00175588,0.00163280,-0.01
 625627,0.00006147,0.00022396,-0.00107091,0.00060263,0.00005479,0.00075
 765,-0.00195209,-0.00130498,-0.00284920,-0.00093475,0.57072831,-0.0000
 5024,0.00083595,0.00099625,0.00733172,-0.00253695,-0.01034569,0.015734
 14,0.00760805,-0.15997455,0.00216519,0.00946562,-0.01280712,0.00048615
 ,-0.00033879,0.00136452,-0.00000790,0.00014837,-0.00042579,0.00035229,
 0.00042877,0.00127569,-0.00110603,0.00093905,0.00068831,0.00038500,0.0
 0017286,0.00118329,0.00026831,-0.00120199,0.00046948,-0.00048518,-0.00
 026591,-0.00030900,-0.00001370,-0.00013067,-0.00064844,0.00010121,-0.0
 0004248,-0.00014009,-0.00010745,-0.00008112,0.00002977,-0.00224440,-0.
 00173398,-0.03117944,0.00120226,0.00104737,0.00103762,0.00170112,0.000
 50921,0.00090185,-0.00186871,-0.00128657,-0.00132424,0.03884983,0.0184
 3068,0.47149991,0.00015984,0.00023598,-0.00011315,0.00167567,-0.001171
 58,0.00146641,-0.00850329,0.00312733,0.00176685,-0.00027347,0.00080995
 ,-0.00035166,-0.00003643,-0.00032685,-0.00015629,0.00006520,0.00020547
 ,-0.00003363,-0.00048543,0.00025203,0.00042076,0.00015582,-0.00007470,
 -0.00020279,0.00031110,-0.00023352,-0.00006229,0.00049037,-0.00084094,
 0.00012292,-0.00001586,-0.00007014,0.00010884,-0.00010109,0.00013684,0
 .00009701,0.00000945,-0.00003714,0.00003772,0.00002661,-0.00006418,-0.
 00002183,0.00042778,-0.00030778,-0.00172401,-0.00003086,-0.00002822,0.
 00009672,0.00101595,0.00003335,0.00005738,0.00034543,-0.00026437,-0.00
 004163,-0.26800496,0.07971741,0.03886481,0.29160026,-0.00000288,-0.000
 05084,-0.00025424,0.00002464,0.00004836,0.00028146,-0.00376679,-0.0003
 1703,0.00057610,-0.00106822,0.00072951,0.00016223,-0.00001656,-0.00021
 727,-0.00009105,0.00006897,0.00004539,-0.00003774,0.00008232,0.0004673
 0,-0.00018381,-0.00025337,0.00051199,0.00006851,0.00009077,0.00007357,
 -0.00016566,0.00013215,-0.00003387,0.00017898,-0.00002180,-0.00001802,
 0.00005029,-0.00003280,0.00001424,0.00005025,0.00000489,-0.00000754,0.
 00000971,0.00002932,0.00001037,0.00000713,0.00042978,-0.00002427,-0.00
 022289,0.00020912,-0.00013224,-0.00004194,-0.00022582,0.00031087,-0.00
 034964,-0.00030834,-0.00009379,0.00008762,0.07938066,-0.07740970,-0.01
 422249,-0.08838118,0.07937856,-0.00034768,-0.00026871,-0.00046600,-0.0
 0030692,0.00146362,-0.00633339,0.02990998,-0.01146518,-0.00669380,0.00
 047771,-0.00151377,0.00094049,-0.00008905,-0.00000286,-0.00002668,0.00
 000487,-0.00012494,0.00001492,0.00183585,-0.00079730,-0.00067441,-0.00
 025603,-0.00000847,0.00015139,-0.00035465,-0.00009331,0.00021158,-0.00
 047215,0.00075647,0.00019557,0.00001456,0.00001558,0.00005285,-0.00003
 436,0.00003387,0.00004507,-0.00000398,-0.00005098,0.00003783,-0.000012
 20,0.00009971,-0.00000392,0.00199011,-0.00044171,0.00093606,-0.0001639
 7,-0.00005698,-0.00005469,-0.00090842,0.00014109,-0.00050237,-0.000150
 36,0.00023405,0.00052126,0.03759323,-0.01350757,-0.05374584,-0.0428107
 7,0.01527302,0.06116474,-0.00008844,-0.00003427,0.00004422,0.00033774,
 -0.00140499,0.00010029,-0.00149632,-0.00787823,0.00217352,-0.00031053,
 0.00026391,0.00159044,0.00019022,-0.00002690,-0.00019927,0.00017722,-0
 .00002359,0.00003156,0.00009179,0.00010814,-0.00021426,-0.00010333,0.0
 0040500,0.00020475,0.00031377,-0.00056087,0.00011943,0.00025706,-0.000
 33119,-0.00005046,-0.00001433,0.00001096,0.00010993,0.00009343,0.00016
 179,0.00017991,-0.00004070,0.00004550,0.00000759,-0.00001194,0.0000284
 2,0.00000214,-0.00017197,0.00063780,-0.00043249,0.00026301,-0.00008870
 ,-0.00030862,0.00006351,0.00013449,-0.00001544,-0.00013315,-0.00012725
 ,0.00005975,-0.04793890,0.00794315,-0.00259127,0.00025067,0.03014001,-
 0.00822602,0.04760294,-0.00000723,0.00000557,0.00005637,0.00047288,0.0
 0021467,-0.00059707,-0.00011360,-0.00464881,0.00073322,-0.00014829,0.0
 0150602,0.00105247,0.00026199,0.00010701,-0.00007676,0.00013833,-0.000
 11225,0.00001450,-0.00004190,0.00037847,-0.00006556,-0.00049654,0.0007
 1212,0.00007204,-0.00022876,-0.00033139,0.00035253,-0.00013307,0.00035
 920,-0.00022722,-0.00007122,-0.00004765,0.00003845,0.00016514,0.000145
 94,0.00010435,-0.00005117,0.00007389,-0.00000377,-0.00007829,0.0000365
 3,-0.00000861,-0.00003534,0.00013269,-0.00059099,0.00031829,0.00063748
 ,0.00019198,-0.00010376,-0.00001693,-0.00001418,0.00003431,0.00031701,
 0.00012421,0.00750826,-0.28825294,0.06319828,0.00022180,-0.00960978,0.
 00175152,-0.00874339,0.31356795,0.00022107,-0.00010807,0.00001883,-0.0
 0103816,0.00146089,0.00131209,-0.00092553,0.03122368,-0.00825970,0.000
 96629,-0.00095990,-0.00653577,-0.00040534,-0.00025256,-0.00041715,-0.0
 0013050,0.00003591,0.00008234,-0.00034482,-0.00023223,0.00031076,0.000
 52654,-0.00097094,0.00003851,0.00035429,0.00205955,-0.00068555,-0.0001
 4171,-0.00027289,0.00010171,0.00011056,0.00004137,0.00017788,0.0002104
 7,0.00010785,0.00034754,-0.00007148,0.00003707,0.00005143,0.00006792,-
 0.00007292,-0.00000053,0.00051603,0.00139300,0.00121838,-0.00040385,-0
 .00082399,-0.00029034,-0.00000328,-0.00010245,-0.00009171,0.00014153,-
 0.00034329,0.00032812,-0.00245116,0.06229593,-0.06394115,-0.00074497,-
 0.00530845,0.00037422,0.00109784,-0.06973928,0.07055494,0.00008491,-0.
 00031457,0.00009778,0.00045674,0.00036104,-0.00048703,0.00574091,0.005
 93099,0.00446639,0.00019473,-0.00027528,-0.00060759,-0.00024253,-0.000
 34317,-0.00015243,0.00000880,-0.00010797,0.00020946,0.00007462,-0.0000
 6093,-0.00011883,-0.00004213,0.00004986,0.00001857,-0.00002375,0.00021
 732,0.00000267,-0.00018453,-0.00004515,-0.00010876,0.00003027,0.000072
 38,0.00007302,0.00004256,-0.00059077,0.00074338,-0.00006590,0.00005719
 ,0.00002475,0.00000166,0.00002462,-0.00000182,0.00016181,-0.00009059,0
 .00079633,-0.00015178,-0.00000208,0.00012003,0.00052328,-0.00015024,0.
 00028100,0.00059182,-0.00013055,0.00023939,-0.15017693,-0.08363052,-0.
 09978986,-0.01854497,-0.01617866,-0.01764013,0.00063595,0.00120823,0.0
 0223979,0.16657962,-0.00016783,0.00010922,-0.00048590,-0.00016629,-0.0
 0009083,-0.00029217,0.00390491,0.00144033,0.00251452,0.00037516,0.0001
 2984,-0.00003117,-0.00040386,-0.00034067,0.00052025,-0.00004746,0.0001
 5908,0.00006066,0.00012885,0.00001260,0.00001050,-0.00011362,0.0000058
 3,-0.00004585,0.00001590,0.00013258,-0.00020516,0.00013578,-0.00002756
 ,-0.00000568,0.00013282,0.00003634,-0.00005619,-0.00067508,-0.00092970
 ,0.00064256,0.00003033,-0.00009189,0.00005209,0.00005521,0.00002899,-0
 .00001044,0.00026562,0.00013575,0.00068055,0.00019797,0.00047029,0.000
 25128,-0.00030442,-0.00002279,-0.00000833,-0.00006928,0.00056038,0.000
 21608,-0.08269213,-0.11490653,-0.08045189,0.00725278,0.00624182,0.0083
 5470,-0.02082490,-0.01529241,-0.01944109,0.09367107,0.12169524,0.00034
 913,-0.00042030,-0.00055026,-0.00050439,0.00013768,0.00092802,-0.02162
 624,-0.01589276,-0.01568524,-0.00060515,-0.00109465,0.00091489,0.00003
 754,0.00004377,-0.00081132,0.00027873,0.00002102,0.00011794,-0.0000262
 1,0.00013924,-0.00000885,0.00014607,-0.00003310,-0.00008771,0.00001543
 ,-0.00013488,0.00019848,-0.00008546,0.00024532,-0.00006307,0.00005284,
 -0.00001412,0.00048122,0.00055840,0.00080259,0.00070773,-0.00013458,0.
 00001567,0.00013220,0.00001830,0.00004938,-0.00002247,0.00311376,0.001
 60839,-0.00620121,0.00022524,-0.00012443,0.00023169,0.00001161,0.00025
 219,0.00022381,-0.00148784,-0.00091709,-0.00142632,-0.09829182,-0.0799
 6834,-0.14442299,0.00314731,0.00400488,0.00341298,0.00630204,0.0036086
 5,0.00527672,0.10935543,0.08727924,0.15550947,-0.12277102,0.02849326,0
 .03621551,-0.03547808,0.01074753,0.01287581,-0.00194095,-0.00328352,-0
 .00110794,-0.00008060,-0.00046254,0.00010985,0.00037838,-0.00077491,-0
 .00009596,-0.00379776,0.00783563,0.00073382,-0.00039740,0.00111119,0.0
 0205386,0.00123459,0.00076669,0.00024489,-0.00002261,0.00006573,-0.000
 03709,0.00006051,0.00009873,0.00002211,0.00031011,-0.00019483,-0.00000
 142,-0.00002527,0.00009617,0.00000659,0.00011311,-0.00032411,0.0005561
 8,0.00058008,-0.00159987,-0.00033365,-0.00060805,0.00069664,0.00046334
 ,0.00000070,-0.00002043,0.00003274,-0.00039080,-0.00013002,-0.00025472
 ,0.00000339,0.00000591,-0.00011785,-0.00019361,0.00007366,-0.00035908,
 -0.00003110,0.00004545,0.00023586,-0.00001746,-0.00002982,0.00002580,-
 0.00005035,0.00008408,0.00015871,0.50847537,0.02746840,-0.09268860,-0.
 02012023,-0.00962334,0.00725663,0.00695107,-0.00230887,-0.00230450,-0.
 00092780,-0.00044269,-0.00059880,-0.00006727,-0.00126754,-0.00556796,0
 .00175841,0.02869148,-0.02271120,-0.01612010,-0.00040580,0.00065209,0.
 00039616,-0.00116627,0.00005654,0.00045924,0.00005106,0.00005035,0.000
 03275,0.00008305,0.00023219,0.00001732,0.00157733,-0.00091852,-0.00041
 864,-0.00003998,-0.00002758,-0.00026091,0.00073725,0.00091904,-0.00160
 427,0.00029602,0.00089922,-0.00041131,-0.00069664,0.00081058,0.0003041
 5,0.00005675,0.00001408,0.00006397,-0.00042593,-0.00011399,-0.00019475
 ,0.00003670,-0.00001567,-0.00005344,0.00000183,0.00022538,-0.00024101,
 -0.00013959,-0.00000089,0.00013790,0.00002123,0.00000907,0.00000366,0.
 00008982,-0.00006417,0.00007911,0.03666077,0.54726525,0.03649214,-0.02
 116683,-0.09926710,-0.00222448,0.00358672,0.00344169,-0.00159956,-0.00
 106502,-0.00096294,0.00024581,-0.00019484,0.00037230,-0.00014657,0.002
 35325,-0.00085094,-0.00461938,0.00028478,0.00371559,-0.00271343,-0.000
 14644,0.00028230,0.00004535,-0.00010838,-0.00034196,-0.00002567,0.0000
 3324,-0.00012121,-0.00009750,0.00004973,-0.00006277,-0.00058817,0.0004
 9786,0.00029422,-0.00003560,0.00009510,0.00007672,-0.00108515,0.002013
 05,0.00038737,0.00011293,-0.00000363,-0.00034319,-0.00046334,0.0003041
 5,0.00050411,0.00001954,-0.00003904,0.00000031,-0.00026819,-0.00004553
 ,-0.00015405,0.00003264,0.00003733,-0.00004225,-0.00007055,-0.00017211
 ,-0.00028397,0.00000867,0.00004489,0.00013279,-0.00000145,-0.00004016,
 0.00001844,-0.00008316,0.00018878,0.00014237,0.04668869,-0.02610512,0.
 54390235,-0.02174277,-0.01082246,-0.00568894,-0.00336640,0.00397953,0.
 00330472,-0.00017708,-0.00165703,-0.00057802,0.00010977,-0.00034854,-0
 .00001950,0.00017325,0.00029837,0.00016966,0.00066785,-0.00152957,-0.0
 0049451,0.00041904,0.00026560,0.00021303,0.00014569,-0.00017470,0.0001
 0787,0.00001175,0.00001064,-0.00001314,0.00003426,0.00015895,0.0000223
 1,0.00000006,0.00005741,0.00001384,0.00002263,-0.00004080,-0.00000412,
 -0.00008257,0.00008834,-0.00009102,0.00038182,0.00106780,0.00023082,-0
 .00039080,0.00042593,0.00026818,0.00004030,-0.00000367,0.00001836,-0.0
 0024685,-0.00004645,-0.00010044,0.00003568,-0.00000681,-0.00001799,-0.
 00017526,0.00009024,-0.00017710,-0.00008036,0.00002721,0.00015163,0.00
 001319,-0.00001131,-0.00001285,0.00003832,0.00004777,0.00008262,-0.244
 71724,-0.09704450,-0.04641042,0.26828435,0.01263363,0.00537879,0.00327
 694,0.00159279,-0.00079942,-0.00105267,0.00071203,0.00053539,-0.000042
 76,-0.00005903,0.00021783,0.00006546,-0.00014206,0.00010262,-0.0000415
 1,0.00066019,0.00106690,0.00038662,0.00014638,-0.00027598,-0.00004296,
 0.00036981,0.00028107,-0.00020940,0.00000876,-0.00000966,0.00000195,-0
 .00005453,0.00001495,-0.00001849,-0.00003645,0.00003455,0.00001636,-0.
 00003334,0.00002217,0.00004281,-0.00006197,-0.00000378,0.00012321,-0.0
 0006446,-0.00006779,-0.00027235,0.00013002,-0.00011399,-0.00004553,0.0
 0000455,-0.00000217,-0.00001743,0.00004645,0.00003670,0.00004896,0.000
 00084,-0.00000493,0.00001669,-0.00000851,-0.00002668,0.00002562,-0.000
 00371,0.00000340,-0.00001181,0.00000951,-0.00000122,-0.00000632,0.0000
 0171,0.00001297,-0.00000034,-0.09770358,-0.09577345,-0.02279032,0.1060
 6308,0.10116168,0.01477060,0.00815056,0.00199439,0.00178216,-0.0017667
 3,-0.00214130,0.00062366,0.00044388,0.00087233,-0.00000756,0.00010240,
 -0.00005776,-0.00001161,0.00021671,-0.00014503,-0.00034697,0.00060996,
 0.00033399,0.00022197,-0.00000797,0.00067342,-0.00019760,-0.00014913,-
 0.00003083,0.00000688,-0.00001815,0.00001712,-0.00000888,-0.00002222,0
 .00001174,-0.00006172,0.00003023,0.00001268,0.00003626,-0.00001706,-0.
 00001536,-0.00017850,-0.00015267,-0.00010883,-0.00020543,-0.00013132,0
 .00019953,0.00025473,-0.00019475,-0.00015405,-0.00000421,0.00001108,-0
 .00001140,0.00010044,0.00004896,0.00008249,0.00000402,-0.00001465,0.00
 002925,-0.00016386,0.00008108,0.00011548,-0.00001890,-0.00000701,0.000
 01197,0.00000459,0.00001256,-0.00001366,-0.00000520,-0.00002093,-0.000
 02524,-0.04733766,-0.02302331,-0.05934530,0.05004078,0.02704143,0.0617
 3369,-0.00195022,0.02366080,-0.00655052,0.00133839,0.00112138,-0.00047
 610,-0.00001096,-0.00018530,0.00007909,0.00041288,0.00008370,-0.000030
 27,0.00050706,0.00151880,-0.00029516,-0.00378417,0.00107227,0.00273599
 ,0.00000613,-0.00002768,-0.00016820,-0.00040958,-0.00047350,0.00036518
 ,-0.00000837,-0.00001048,-0.00001216,-0.00002242,-0.00009335,0.0000198
 5,-0.00045930,0.00025855,0.00013020,-0.00002689,0.00001405,0.00006925,
 -0.00018553,-0.00028956,0.00009697,0.00016786,0.00037059,0.00022994,0.
 00000070,-0.00005675,-0.00001954,-0.00003870,-0.00002901,0.00000278,0.
 00004030,-0.00000455,0.00000421,-0.00000545,0.00001352,0.00000571,0.00
 005809,-0.00002435,0.00003397,0.00002961,-0.00000894,-0.00003022,-0.00
 002977,-0.00002491,0.00002531,-0.00001412,0.00000620,-0.00003627,-0.04
 887072,0.01583174,-0.00384872,0.00304997,-0.02833938,0.00761975,0.0510
 9041,0.00046457,-0.01452097,0.00355067,-0.00125035,0.00031495,0.000181
 52,0.00027297,0.00018381,-0.00009735,-0.00017004,-0.00003132,-0.000064
 84,-0.00080755,-0.00072179,0.00055395,0.00355842,0.00008426,-0.0024996
 1,0.00013456,-0.00006107,0.00000989,0.00060901,0.00073306,-0.00006481,
 -0.00001005,0.00002853,0.00001125,0.00011991,0.00009251,0.00001513,0.0
 0039036,-0.00021337,-0.00015923,0.00011436,-0.00007010,-0.00014172,-0.
 00015142,0.00038614,-0.00006392,-0.00016272,0.00026297,0.00001358,0.00
 002043,0.00001408,-0.00003904,0.00002901,0.00005180,-0.00000623,0.0000
 0367,-0.00000217,0.00001108,-0.00000598,-0.00001781,-0.00000591,-0.000
 02806,0.00000418,0.00002290,-0.00001079,-0.00000158,-0.00000285,0.0000
 3021,0.00005707,-0.00002344,0.00000264,-0.00003269,0.00002906,0.016333
 72,-0.28943494,0.05585374,0.00077647,-0.01292223,0.00317717,-0.0196437
 8,0.31600676,0.00019214,-0.01722448,0.00291824,-0.00068787,-0.00010684
 ,0.00028024,-0.00012766,-0.00012030,-0.00014779,-0.00007875,-0.0000485
 1,-0.00009196,0.00003870,-0.00100468,0.00089563,0.00258187,-0.00064773
 ,-0.00215649,0.00005545,0.00026200,-0.00013029,0.00000016,0.00024475,0
 .00021596,0.00001749,-0.00000453,0.00002075,0.00001419,0.00002247,0.00
 001829,0.00033463,-0.00020504,-0.00008745,-0.00015076,0.00009087,0.000
 01029,0.00013338,-0.00021214,0.00056427,0.00001583,0.00025104,-0.00002
 539,-0.00003274,0.00006397,0.00000031,-0.00000278,-0.00000623,0.000020
 51,-0.00001836,-0.00001743,-0.00001140,-0.00000095,0.00001124,-0.00001
 096,0.00001434,0.00000793,0.00001429,-0.00001849,0.00000368,-0.0000098
 2,0.00001138,0.00001127,0.00000201,0.00000825,-0.00003025,-0.00001175,
 -0.00408922,0.05640980,-0.06138844,0.00107440,-0.00768905,0.00077180,0
 .00205794,-0.06115276,0.06341566,0.00297982,-0.00285804,0.02260518,0.0
 0124151,0.00014671,0.00200621,-0.00000274,0.00013112,-0.00015040,0.000
 03762,0.00001541,0.00002171,-0.00005384,-0.00021904,0.00000348,0.00054
 223,-0.00114761,0.00036771,-0.00076643,-0.00003980,-0.00032717,-0.0000
 8397,-0.00000565,-0.00005758,-0.00002170,0.00001934,-0.00002034,0.0000
 1674,-0.00002452,-0.00001136,0.00003086,-0.00003153,-0.00003022,0.0000
 3941,-0.00004659,-0.00002426,0.00020431,0.00019757,-0.00033168,0.00000
 632,0.00008790,-0.00012155,0.00000339,-0.00003670,-0.00003264,-0.00000
 545,0.00000598,0.00000095,0.00003568,-0.00000084,-0.00000402,-0.000027
 76,0.00000065,-0.00002644,0.00012891,-0.00003058,0.00001041,0.00001601
 ,-0.00000580,-0.00005356,-0.00000358,0.00000709,-0.00000423,0.00002649
 ,-0.00003654,-0.00003543,-0.05569250,0.00382258,-0.04496610,-0.0042090
 8,0.00411589,-0.02809136,-0.00150565,-0.00019897,-0.00130025,0.0596993
 4,-0.00307162,-0.00025401,-0.01337158,-0.00070145,-0.00015934,0.000417
 45,-0.00004922,-0.00007913,-0.00007689,0.00002087,0.00005065,-0.000024
 66,0.00003715,0.00007386,0.00023822,-0.00053635,0.00081063,-0.00173862
 ,-0.00027823,0.00036459,0.00013169,0.00003044,0.00005845,0.00012380,0.
 00002270,-0.00000555,0.00001479,-0.00002368,-0.00001452,0.00000712,-0.
 00002121,-0.00000302,-0.00000619,-0.00012218,0.00006017,0.00004196,0.0
 0038352,-0.00045186,0.00036888,0.00005367,-0.00004153,-0.00000240,-0.0
 0000591,-0.00001567,0.00003733,-0.00001352,-0.00001781,0.00001124,0.00
 000681,-0.00000493,-0.00001465,-0.00000065,0.00002391,-0.00000966,-0.0
 0000433,-0.00006136,-0.00000901,0.00001503,0.00001481,0.00000703,-0.00
 000202,-0.00000504,0.00000555,-0.00001868,0.00002830,0.00000857,0.0038
 2430,-0.05004700,0.02292414,-0.00170287,0.00080634,-0.01478562,0.00604
 676,-0.00138961,0.03176062,-0.00616339,0.05078001,-0.00386594,0.002028
 19,-0.01770220,-0.00175476,-0.00010248,-0.00039744,0.00019412,-0.00007
 001,0.00064556,-0.00002637,0.00000748,-0.00010682,0.00018905,-0.000189
 20,0.00048993,-0.00076411,0.00140349,-0.00015713,0.00070966,0.00037484
 ,0.00128077,-0.00006191,-0.00010701,0.00009524,0.00004388,-0.00002302,
 0.00007376,0.00000205,0.00000758,0.00002152,0.00009477,-0.00006272,-0.
 00000118,-0.00021558,0.00016540,0.00018914,0.00010290,-0.00081150,0.00
 106674,0.00006212,0.00011089,0.00008400,0.00011785,-0.00005344,-0.0000
 4225,-0.00000572,-0.00000591,-0.00001096,0.00001799,0.00001669,0.00002
 925,0.00002644,-0.00000966,0.00005116,-0.00024053,0.00003611,-0.000090
 95,0.00004489,0.00001838,0.00012552,-0.00002339,-0.00002662,-0.0000113
 7,-0.00004265,0.00010687,0.00010674,-0.04331391,0.02210858,-0.29488026
 ,-0.00128924,0.00039490,-0.00534275,-0.00114926,0.00084976,-0.00600074
 ,0.04720752,-0.02374633,0.32238586,-0.08144548,0.00285446,-0.02113014,
 -0.00735568,0.00076158,-0.03101472,0.00109693,0.00018089,-0.00024900,-
 0.00044060,-0.00013200,0.00015904,-0.00001173,-0.00022099,-0.00103940,
 -0.00029066,0.00144719,-0.00230805,-0.00489668,-0.00206678,-0.00182954
 ,0.00117049,0.00118444,0.00017685,0.00012838,-0.00000533,0.00013527,-0
 .00003182,0.00010620,-0.00001286,0.00011629,-0.00008698,0.00020223,-0.
 00021783,0.00064358,0.00019395,0.00013796,-0.00035119,0.00064189,0.000
 31665,-0.00107653,0.00095230,-0.00019362,-0.00000184,0.00007057,0.0000
 5809,0.00002806,-0.00001434,-0.00017526,0.00000851,0.00016386,0.000128
 91,0.00000433,0.00024054,-0.00110506,0.00071694,0.00101505,-0.00011262
 ,-0.00010237,-0.00019371,0.00010088,0.00011587,0.00003962,-0.00243978,
 -0.00036161,-0.00030049,0.00351161,-0.00162544,0.02424179,0.00015787,0
 .00002901,0.00149655,0.00054003,-0.00053962,-0.00013423,-0.00344003,0.
 00175194,0.00419773,0.56081619,0.00323719,-0.07745602,0.00992235,-0.00
 229391,0.00060594,-0.01372217,0.00017219,-0.00041796,0.00052641,0.0000
 2607,-0.00026492,0.00010694,-0.00049457,0.00045300,0.00058232,0.005497
 55,-0.00787467,0.03466386,-0.00278282,-0.00124307,-0.00146095,-0.00064
 347,0.00016154,-0.00119216,-0.00007275,0.00000099,-0.00012403,0.000123
 55,0.00005423,0.00000480,-0.00003856,0.00019740,-0.00006512,0.00039989
 ,-0.00041201,0.00015067,0.00114962,-0.00638879,0.00246342,0.00067049,0
 .00121741,0.00064430,-0.00007367,0.00022539,-0.00017210,0.00002435,0.0
 0000418,0.00000793,-0.00009025,-0.00002668,0.00008108,0.00003059,-0.00
 006136,0.00003612,-0.00071705,0.00176074,0.00048316,-0.00051468,-0.000
 34305,-0.00026653,0.00006803,-0.00024026,0.00011043,-0.00011485,-0.000
 71762,-0.00061300,-0.00175580,0.00163279,-0.01625583,-0.00060268,0.000
 05482,0.00075763,-0.00006145,0.00022388,-0.00107103,0.00195204,-0.0013
 0503,-0.00284909,0.00093430,0.57072655,-0.01573366,0.00760799,-0.15997
 340,-0.00733165,-0.00253703,-0.01034575,0.00005026,0.00083596,0.000996
 31,0.00000789,0.00014836,-0.00042577,-0.00048616,-0.00033875,0.0013645
 2,-0.00216524,0.00946552,-0.01280695,-0.00035229,0.00042872,0.00127570
 ,0.00110598,0.00093900,0.00068829,-0.00010120,-0.00004247,-0.00014009,
 0.00010745,-0.00008113,0.00002977,0.00048516,-0.00026590,-0.00030900,0
 .00001366,-0.00013065,-0.00064842,-0.00038502,0.00017283,0.00118331,-0
 .00026831,-0.00120204,0.00046949,0.00035909,-0.00024101,-0.00028397,-0
 .00003397,0.00002290,0.00001429,0.00017710,0.00002562,0.00011548,-0.00
 001041,-0.00000901,-0.00009096,-0.00101516,0.00048328,0.00116275,-0.00
 047249,-0.00020669,-0.00034238,0.00001208,-0.00003960,-0.00002158,0.00
 016089,-0.00052685,-0.00073599,0.00224450,-0.00173382,-0.03117951,-0.0
 0170107,0.00050920,0.00090185,-0.00120229,0.00104741,0.00103762,0.0018
 6876,-0.00128651,-0.00132424,-0.03885135,0.01843208,0.47149884,-0.0014
 9664,0.00787819,-0.00217333,0.00033773,0.00140500,-0.00010020,-0.00008
 844,0.00003425,-0.00004420,0.00017723,0.00002359,-0.00003155,0.0001902
 2,0.00002691,0.00019929,-0.00031052,-0.00026404,-0.00159031,0.00009179
 ,-0.00010817,0.00021426,-0.00010337,-0.00040503,-0.00020474,-0.0000407
 1,-0.00004549,-0.00000759,-0.00001194,-0.00002842,-0.00000214,-0.00001
 433,-0.00001096,-0.00010994,0.00009342,-0.00016180,-0.00017992,0.00031
 379,0.00056085,-0.00011941,0.00025708,0.00033120,0.00005047,-0.0000174
 6,-0.00002123,0.00000144,-0.00002977,-0.00003021,-0.00001138,0.0000131
 9,-0.00000951,-0.00000459,-0.00000358,0.00000202,0.00002339,0.00010090
 ,-0.00006793,-0.00001203,0.00007721,-0.00009767,0.00009007,-0.00030586
 ,-0.00017076,-0.00004512,0.00019766,0.00023012,-0.00005624,-0.00017190
 ,-0.00063779,0.00043259,0.00006347,-0.00013451,0.00001544,0.00026304,0
 .00008866,0.00030861,-0.00013318,0.00012722,-0.00005975,-0.04793845,-0
 .00793125,0.00258790,0.04760219,0.00011357,-0.00464894,0.00073325,-0.0
 0047284,0.00021464,-0.00059699,0.00000723,0.00000559,0.00005634,-0.000
 13833,-0.00011225,0.00001450,-0.00026198,0.00010701,-0.00007677,0.0001
 4831,0.00150603,0.00105246,0.00004192,0.00037845,-0.00006553,0.0004965
 3,0.00071209,0.00007206,0.00005117,0.00007389,-0.00000377,0.00007828,0
 .00003653,-0.00000861,0.00007122,-0.00004765,0.00003845,-0.00016513,0.
 00014593,0.00010435,0.00022877,-0.00033139,0.00035253,0.00013308,0.000
 35921,-0.00022721,0.00002981,0.00000906,-0.00004015,0.00002491,0.00005
 707,0.00001127,0.00001131,-0.00000122,0.00001255,-0.00000709,-0.000005
 04,-0.00002661,-0.00011586,-0.00024038,-0.00003964,-0.00000558,0.00012
 961,-0.00007389,0.00017073,0.00031979,0.00002239,-0.00003151,-0.000151
 27,0.00015897,0.00003534,0.00013272,-0.00059114,0.00010375,-0.00001695
 ,-0.00001416,-0.00031830,0.00063755,0.00019200,-0.00003432,0.00031705,
 0.00012418,-0.00749661,-0.28825424,0.06319428,0.00873036,0.31356955,0.
 00092422,0.03122389,-0.00825947,0.00103817,0.00146078,0.00131205,-0.00
 022104,-0.00010806,0.00001883,0.00013049,0.00003592,0.00008234,0.00040
 534,-0.00025258,-0.00041717,-0.00096634,-0.00095986,-0.00653581,0.0003
 4480,-0.00023223,0.00031074,-0.00052652,-0.00097089,0.00003855,0.00007
 148,0.00003707,0.00005143,-0.00006792,-0.00007292,-0.00000053,-0.00011
 055,0.00004136,0.00017788,-0.00021046,0.00010785,0.00034755,-0.0003542
 8,0.00205957,-0.00068555,0.00014171,-0.00027289,0.00010171,-0.00002579
 ,0.00000366,0.00001844,-0.00002531,-0.00002344,0.00000201,0.00001285,-
 0.00000632,-0.00001366,0.00000423,0.00000556,-0.00001137,-0.00003963,0
 .00011037,-0.00002160,0.00000771,-0.00000657,-0.00003731,0.00004512,0.
 00002241,0.00009854,-0.00018761,-0.00013282,-0.00000659,-0.00051604,0.
 00139311,0.00121840,0.00000331,-0.00010245,-0.00009171,0.00040384,-0.0
 0082401,-0.00029037,-0.00014153,-0.00034327,0.00032817,0.00244788,0.06
 229184,-0.06393891,-0.00109448,-0.06973491,0.07055278,-0.00850325,-0.0
 0312746,-0.00176690,0.00167569,0.00117154,-0.00146648,0.00015986,-0.00
 023599,0.00011317,0.00006520,-0.00020547,0.00003365,-0.00003644,0.0003
 2685,0.00015626,-0.00027345,-0.00081000,0.00035171,-0.00048545,-0.0002
 5205,-0.00042076,0.00015582,0.00007469,0.00020279,0.00000946,0.0000371
 4,-0.00003772,0.00002661,0.00006418,0.00002183,-0.00001586,0.00007014,
 -0.00010883,-0.00010111,-0.00013683,-0.00009698,0.00031113,0.00023352,
 0.00006232,0.00049040,0.00084096,-0.00012292,-0.00003110,0.00013959,-0
 .00000867,0.00002961,0.00001079,0.00001849,-0.00008036,0.00000371,0.00
 001890,0.00001601,-0.00001503,-0.00004489,-0.00011269,0.00051469,0.000
 47245,-0.00025026,-0.00007936,-0.00016080,0.00007723,0.00000561,-0.000
 00770,-0.00018628,-0.00038766,-0.00036409,0.00042775,0.00030778,0.0017
 2380,0.00101589,-0.00003337,-0.00005736,-0.00003085,0.00002825,-0.0000
 9669,0.00034540,0.00026435,0.00004158,-0.26799702,-0.07972655,-0.03886
 667,0.00025216,-0.00022131,0.00074525,0.29159135,0.00376681,-0.0003168
 6,0.00057624,-0.00002453,0.00004841,0.00028160,0.00000287,-0.00005083,
 -0.00025425,-0.00006896,0.00004539,-0.00003774,0.00001655,-0.00021723,
 -0.00009102,0.00106827,0.00072951,0.00016233,-0.00008229,0.00046731,-0
 .00018379,0.00025338,0.00051197,0.00006851,-0.00000490,-0.00000754,0.0
 0000970,-0.00002932,0.00001037,0.00000713,0.00002180,-0.00001802,0.000
 05028,0.00003280,0.00001423,0.00005021,-0.00009073,0.00007359,-0.00016
 567,-0.00013213,-0.00003384,0.00017902,-0.00004545,-0.00000089,0.00004
 489,0.00000894,-0.00000158,0.00000368,-0.00002721,0.00000340,-0.000007
 01,0.00000580,0.00001481,0.00001838,0.00010239,-0.00034309,-0.00020666
 ,0.00007936,0.00014637,0.00004711,0.00009764,0.00012960,-0.00000659,0.
 00011470,0.00013372,0.00023393,-0.00042979,-0.00002438,-0.00022282,0.0
 0022587,0.00031086,-0.00034966,-0.00020910,-0.00013221,-0.00004194,0.0
 0030835,-0.00009376,0.00008761,-0.07939000,-0.07741723,-0.01422560,-0.
 03013953,-0.00961128,-0.00530880,0.08839137,0.07938709,-0.02990948,-0.
 01146640,-0.00669396,0.00030695,0.00146360,-0.00633342,0.00034767,-0.0
 0026872,-0.00046599,-0.00000486,-0.00012494,0.00001492,0.00008903,-0.0
 0000282,-0.00002665,-0.00047780,-0.00151381,0.00094058,-0.00183586,-0.
 00079730,-0.00067443,0.00025604,-0.00000846,0.00015139,0.00000398,-0.0
 0005098,0.00003783,0.00001221,0.00009971,-0.00000392,-0.00001457,0.000
 01558,0.00005284,0.00003436,0.00003386,0.00004505,0.00035466,-0.000093
 34,0.00021161,0.00047217,0.00075652,0.00019554,-0.00023586,0.00013791,
 0.00013278,0.00003022,-0.00000285,-0.00000982,-0.00015164,-0.00001181,
 0.00001198,0.00005356,0.00000703,0.00012552,0.00019374,-0.00026649,-0.
 00034235,0.00016079,0.00004711,0.00023735,-0.00009008,-0.00007392,-0.0
 0003731,0.00008888,0.00037120,0.00032396,-0.00198998,-0.00044169,0.000
 93619,0.00090842,0.00014106,-0.00050233,0.00016397,-0.00005696,-0.0000
 5470,0.00015036,0.00023407,0.00052124,-0.03759523,-0.01351060,-0.05374
 683,0.00822545,0.00175179,0.00037421,0.04281310,0.01527599,0.06116544,
 0.00574134,-0.00593061,-0.00446659,0.00045682,-0.00036103,0.00048707,0
 .00008490,0.00031459,-0.00009778,0.00000882,0.00010798,-0.00020946,-0.
 00024254,0.00034320,0.00015254,0.00019468,0.00027521,0.00060759,0.0000
 7464,0.00006092,0.00011885,-0.00004212,-0.00004987,-0.00001854,-0.0000
 6590,-0.00005719,-0.00002476,0.00000166,-0.00002462,0.00000182,0.00003
 026,-0.00007238,-0.00007305,0.00004258,0.00059070,-0.00074340,-0.00002
 373,-0.00021731,-0.00000267,-0.00018450,0.00004516,0.00010875,-0.00005
 034,-0.00008982,0.00008317,-0.00001412,-0.00000265,-0.00000825,0.00003
 832,-0.00000171,0.00000520,0.00002649,0.00001868,0.00004264,-0.0024399
 7,0.00011486,-0.00016096,-0.00018631,-0.00011469,-0.00008889,0.0001976
 8,0.00003154,0.00018763,-0.00326711,-0.00028386,-0.00029898,0.00016181
 ,0.00009059,-0.00079650,0.00052327,0.00015023,-0.00028100,-0.00015177,
 0.00000208,-0.00012002,0.00059184,0.00013053,-0.00023943,-0.15018798,0
 .08362845,0.09979621,0.00063508,-0.00120744,-0.00223890,-0.01854546,0.
 01617707,0.01763980,0.16659167,-0.00390506,0.00144003,0.00251440,0.000
 16630,-0.00009077,-0.00029214,0.00016778,0.00010920,-0.00048590,0.0000
 4748,0.00015907,0.00006065,0.00040384,-0.00034067,0.00052022,-0.000375
 21,0.00012987,-0.00003125,-0.00012884,0.00001258,0.00001051,0.00011362
 ,0.00000579,-0.00004585,-0.00003034,-0.00009189,0.00005208,-0.00005520
 ,0.00002899,-0.00001044,-0.00013281,0.00003634,-0.00005621,0.00067505,
 -0.00092977,0.00064247,-0.00001589,0.00013257,-0.00020515,-0.00013578,
 -0.00002758,-0.00000567,-0.00008406,-0.00006417,0.00018875,-0.00000620
 ,-0.00003269,-0.00003025,-0.00004776,0.00001297,-0.00002093,0.00003654
 ,0.00002830,0.00010686,0.00036174,-0.00071752,-0.00052673,0.00038763,0
 .00013370,0.00037120,-0.00023020,-0.00015138,-0.00013286,0.00028395,0.
 00133486,0.00049538,-0.00026557,0.00013574,0.00068045,0.00030444,-0.00
 002280,-0.00000833,-0.00019797,0.00047032,0.00025128,0.00006930,0.0005
 6040,0.00021605,0.08268999,-0.11489593,-0.08044609,0.02082594,-0.01529
 117,-0.01944134,-0.00725409,0.00624209,0.00835565,-0.09366861,0.121683
 53,0.02162710,-0.01589175,-0.01568529,0.00050443,0.00013767,0.00092819
 ,-0.00034920,-0.00042030,-0.00055031,-0.00027872,0.00002104,0.00011793
 ,-0.00003753,0.00004376,-0.00081128,0.00060512,-0.00109457,0.00091489,
 0.00002626,0.00013925,-0.00000881,-0.00014608,-0.00003313,-0.00008771,
 0.00013458,0.00001566,0.00013219,-0.00001830,0.00004938,-0.00002247,-0
 .00005285,-0.00001412,0.00048120,-0.00055836,0.00080259,0.00070772,-0.
 00001546,-0.00013486,0.00019843,0.00008542,0.00024530,-0.00006308,-0.0
 0015871,0.00007910,0.00014236,0.00003627,0.00002906,-0.00001175,-0.000
 08262,-0.00000034,-0.00002524,0.00003543,0.00000857,0.00010674,0.00030
 057,-0.00061311,-0.00073597,0.00036411,0.00023396,0.00032399,0.0000561
 8,0.00015893,-0.00000662,0.00029905,0.00049544,0.00135077,-0.00311375,
 0.00160844,-0.00620123,-0.00001161,0.00025219,0.00022382,-0.00022524,-
 0.00012443,0.00023169,0.00148785,-0.00091709,-0.00142632,0.09829795,-0
 .07996272,-0.14442446,-0.00630198,0.00360802,0.00527642,-0.00314784,0.
 00400492,0.00341330,-0.10936208,0.08727316,0.15551089\\0.00000029,-0.0
 0000034,0.00000284,-0.00000028,-0.00001092,-0.00000647,-0.00000032,-0.
 00000011,0.00000366,-0.00000431,0.00000428,-0.00000396,-0.00000048,0.0
 0000896,0.00000157,0.00000511,0.00000381,-0.00000406,0.00000010,0.0000
 0251,0.00001004,0.,0.00000883,-0.00000332,0.00000368,-0.00000393,0.000
 00760,0.00000672,-0.00000282,-0.00000574,-0.00000002,-0.00000670,0.000
 00520,0.,-0.00000656,-0.00000744,-0.00000374,-0.00000388,0.00000756,-0
 .00000671,-0.00000274,-0.00000572,-0.00000619,-0.00000239,-0.00000357,
 0.00000089,0.00000979,-0.00000122,0.00000930,-0.00000395,-0.00000190,-
 0.00000130,-0.00000139,0.00001155,-0.00000016,0.00000054,0.00000937,0.
 00000957,-0.00000442,-0.00000282,0.00000185,0.00001123,-0.00000251,-0.
 00000864,-0.00000470,-0.00001015,0.00000585,-0.00000177,-0.00000351,-0
 .00000942,-0.00000414,-0.00000200,-0.00000079,0.00000963,-0.00000114,0
 .00000136,-0.00000143,0.00001171,0.00000041,0.00000121,0.00001018,-0.0
 0000172,0.00001073,-0.00000250,-0.00000983,-0.00000434,-0.00000280,0.0
 0000876,-0.00000498,-0.00001044\\\@
 The archive entry for this job was punched.


 NEVER TEACH A PIG TO SING.
 IT WASTES YOUR TIME AND ANNOYS THE PIG.
     -- SEEN ON A GREETING CARD
 Job cpu time:       0 days  0 hours 53 minutes  6.4 seconds.
 Elapsed time:       0 days  0 hours  1 minutes 33.9 seconds.
 File lengths (MBytes):  RWF=    168 Int=      0 D2E=      0 Chk=      7 Scr=      1
 Normal termination of Gaussian 16 at Wed Jul 23 16:41:54 2025.
