 Entering Gaussian System, Link 0=g16
 Input=/bigdata/rhome/djo04747/Documents/Gaussian/metaparacyclophane/metapara_b3lyp631gdp_vtight.gjf
 Output=/bigdata/rhome/djo04747/Documents/Gaussian/metaparacyclophane/metapara_b3lyp631gdp_vtight.log
 Initial command:
 /opt/linux/rocky/8/software/gaussian/16c01_avx2/g16/l1.exe "/scratch/djo04747/21844/Gau-2955061.inp" -scrdir="/scratch/djo04747/21844/"
 Entering Link 1 = /opt/linux/rocky/8/software/gaussian/16c01_avx2/g16/l1.exe PID=   2955063.
  
 Copyright (c) 1988-2019, Gaussian, Inc.  All Rights Reserved.
  
 This is part of the Gaussian(R) 16 program.  It is based on
 the Gaussian(R) 09 system (copyright 2009, Gaussian, Inc.),
 the Gaussian(R) 03 system (copyright 2003, Gaussian, Inc.),
 the Gaussian(R) 98 system (copyright 1998, Gaussian, Inc.),
 the Gaussian(R) 94 system (copyright 1995, Gaussian, Inc.),
 the Gaussian 92(TM) system (copyright 1992, Gaussian, Inc.),
 the Gaussian 90(TM) system (copyright 1990, Gaussian, Inc.),
 the Gaussian 88(TM) system (copyright 1988, Gaussian, Inc.),
 the Gaussian 86(TM) system (copyright 1986, Carnegie Mellon
 University), and the Gaussian 82(TM) system (copyright 1983,
 Carnegie Mellon University). Gaussian is a federally registered
 trademark of Gaussian, Inc.
  
 This software contains proprietary and confidential information,
 including trade secrets, belonging to Gaussian, Inc.
  
 This software is provided under written license and may be
 used, copied, transmitted, or stored only in accord with that
 written license.
  
 The following legend is applicable only to US Government
 contracts under FAR:
  
                    RESTRICTED RIGHTS LEGEND
  
 Use, reproduction and disclosure by the US Government is
 subject to restrictions as set forth in subparagraphs (a)
 and (c) of the Commercial Computer Software - Restricted
 Rights clause in FAR 52.227-19.
  
 Gaussian, Inc.
 340 Quinnipiac St., Bldg. 40, Wallingford CT 06492
  
  
 ---------------------------------------------------------------
 Warning -- This program may not be used in any manner that
 competes with the business of Gaussian, Inc. or will provide
 assistance to any competitor of Gaussian, Inc.  The licensee
 of this program is prohibited from giving any competitor of
 Gaussian, Inc. access to this program.  By using this program,
 the user acknowledges that Gaussian, Inc. is engaged in the
 business of creating and licensing software in the field of
 computational chemistry and represents and warrants to the
 licensee that it is not a competitor of Gaussian, Inc. and that
 it will not use this program in any manner prohibited above.
 ---------------------------------------------------------------
  

 Cite this work as:
 Gaussian 16, Revision C.01,
 M. J. Frisch, G. W. Trucks, H. B. Schlegel, G. E. Scuseria, 
 M. A. Robb, J. R. Cheeseman, G. Scalmani, V. Barone, 
 G. A. Petersson, H. Nakatsuji, X. Li, M. Caricato, A. V. Marenich, 
 J. Bloino, B. G. Janesko, R. Gomperts, B. Mennucci, H. P. Hratchian, 
 J. V. Ortiz, A. F. Izmaylov, J. L. Sonnenberg, D. Williams-Young, 
 F. Ding, F. Lipparini, F. Egidi, J. Goings, B. Peng, A. Petrone, 
 T. Henderson, D. Ranasinghe, V. G. Zakrzewski, J. Gao, N. Rega, 
 G. Zheng, W. Liang, M. Hada, M. Ehara, K. Toyota, R. Fukuda, 
 J. Hasegawa, M. Ishida, T. Nakajima, Y. Honda, O. Kitao, H. Nakai, 
 T. Vreven, K. Throssell, J. A. Montgomery, Jr., J. E. Peralta, 
 F. Ogliaro, M. J. Bearpark, J. J. Heyd, E. N. Brothers, K. N. Kudin, 
 V. N. Staroverov, T. A. Keith, R. Kobayashi, J. Normand, 
 K. Raghavachari, A. P. Rendell, J. C. Burant, S. S. Iyengar, 
 J. Tomasi, M. Cossi, J. M. Millam, M. Klene, C. Adamo, R. Cammi, 
 J. W. Ochterski, R. L. Martin, K. Morokuma, O. Farkas, 
 J. B. Foresman, and D. J. Fox, Gaussian, Inc., Wallingford CT, 2019.
 
 ******************************************
 Gaussian 16:  ES64L-G16RevC.01  3-Jul-2019
                28-Jul-2025 
 ******************************************
 %nprocshared=36
 Will use up to   36 processors via shared memory.
 %chk=metapara_b3lyp631gdp_vtight.chk
 ----------------------------------------------------------------------
 #P opt=vtight freq rb3lyp/6-31g(d,p) integral=grid=ultrafine scf=conve
 r=10
 ----------------------------------------------------------------------
 1/7=1,18=20,19=15,26=4,38=1/1,3;
 2/9=110,12=2,17=6,18=5,40=1/2;
 3/5=1,6=6,7=101,11=2,25=1,30=1,71=1,74=-5,75=-5,116=1/1,2,3;
 4//1;
 5/5=2,6=10,38=5/2;
 6/7=2,8=2,9=2,10=2,28=1/1;
 7//1,2,3,16;
 1/7=1,18=20,19=15,26=4/3(2);
 2/9=110/2;
 99//99;
 2/9=110/2;
 3/5=1,6=6,7=101,11=2,25=1,30=1,71=1,74=-5,75=-5,116=1/1,2,3;
 4/5=5,16=3,69=1/1;
 5/5=2,6=10,38=5/2;
 7//1,2,3,16;
 1/7=1,18=20,19=15,26=4/3(-5);
 2/9=110/2;
 6/7=2,8=2,9=2,10=2,19=2,28=1/1;
 99/9=1/99;
 Leave Link    1 at Mon Jul 28 11:50:18 2025, MaxMem=           0 cpu:               1.7 elap:               0.1
 (Enter /opt/linux/rocky/8/software/gaussian/16c01_avx2/g16/l101.exe)
 -------------------
 Title Card Required
 -------------------
 Symbolic Z-matrix:
 Charge =  0 Multiplicity = 1
 C                     0.96587   1.54929   0.69608 
 C                     0.96587   1.54929  -0.69608 
 C                     1.46935   0.45148  -1.40627 
 C                     2.25673  -0.46781  -0.6988 
 C                     2.25673  -0.46781   0.6988 
 C                     1.46935   0.45148   1.40627 
 H                     0.42149   2.32612   1.22657 
 H                     0.42149   2.32612  -1.22657 
 H                     2.74103  -1.28469  -1.23006 
 H                     2.74103  -1.28469   1.23006 
 C                     0.83522   0.08579  -2.72968 
 H                     1.54199  -0.38128  -3.42566 
 H                     0.44413   0.98529  -3.21753 
 C                     0.83522   0.08579   2.72968 
 H                     1.54199  -0.38128   3.42566 
 H                     0.44413   0.98529   3.21753 
 C                    -0.35969  -0.92727  -2.48595 
 H                    -1.00175  -0.92158  -3.37446 
 H                     0.06483  -1.93414  -2.40604 
 C                    -0.35969  -0.92727   2.48595 
 H                     0.06483  -1.93414   2.40604 
 H                    -1.00175  -0.92158   3.37446 
 C                    -1.1632   -0.62966   1.2285 
 C                    -0.73032  -1.14617   0. 
 C                    -2.22355   0.286     1.21332 
 C                    -1.1632   -0.62966  -1.2285 
 H                     0.06514  -1.88269   0. 
 C                    -2.77606   0.70426   0. 
 H                    -2.60413   0.69044   2.14848 
 C                    -2.22355   0.286    -1.21332 
 H                    -3.6108    1.40004   0. 
 H                    -2.60413   0.69044  -2.14848 
 
 ITRead=  0  0  0  0  0  0  0  0  0  0  0  0  0  0  0  0  0  0  0  0
 ITRead=  0  0  0  0  0  0  0  0  0  0  0  0
 MicOpt= -1 -1 -1 -1 -1 -1 -1 -1 -1 -1 -1 -1 -1 -1 -1 -1 -1 -1 -1 -1
 MicOpt= -1 -1 -1 -1 -1 -1 -1 -1 -1 -1 -1 -1
 NAtoms=     32 NQM=       32 NQMF=       0 NMMI=      0 NMMIF=      0
                NMic=       0 NMicF=      0.
                    Isotopes and Nuclear Properties:
 (Nuclear quadrupole moments (NQMom) in fm**2, nuclear magnetic moments (NMagM)
  in nuclear magnetons)

  Atom         1           2           3           4           5           6           7           8           9          10
 IAtWgt=          12          12          12          12          12          12           1           1           1           1
 AtmWgt=  12.0000000  12.0000000  12.0000000  12.0000000  12.0000000  12.0000000   1.0078250   1.0078250   1.0078250   1.0078250
 NucSpn=           0           0           0           0           0           0           1           1           1           1
 AtZEff=  -0.0000000  -0.0000000  -0.0000000  -0.0000000  -0.0000000  -0.0000000  -0.0000000  -0.0000000  -0.0000000  -0.0000000
 NQMom=    0.0000000   0.0000000   0.0000000   0.0000000   0.0000000   0.0000000   0.0000000   0.0000000   0.0000000   0.0000000
 NMagM=    0.0000000   0.0000000   0.0000000   0.0000000   0.0000000   0.0000000   2.7928460   2.7928460   2.7928460   2.7928460
 AtZNuc=   6.0000000   6.0000000   6.0000000   6.0000000   6.0000000   6.0000000   1.0000000   1.0000000   1.0000000   1.0000000

  Atom        11          12          13          14          15          16          17          18          19          20
 IAtWgt=          12           1           1          12           1           1          12           1           1          12
 AtmWgt=  12.0000000   1.0078250   1.0078250  12.0000000   1.0078250   1.0078250  12.0000000   1.0078250   1.0078250  12.0000000
 NucSpn=           0           1           1           0           1           1           0           1           1           0
 AtZEff=  -0.0000000  -0.0000000  -0.0000000  -0.0000000  -0.0000000  -0.0000000  -0.0000000  -0.0000000  -0.0000000  -0.0000000
 NQMom=    0.0000000   0.0000000   0.0000000   0.0000000   0.0000000   0.0000000   0.0000000   0.0000000   0.0000000   0.0000000
 NMagM=    0.0000000   2.7928460   2.7928460   0.0000000   2.7928460   2.7928460   0.0000000   2.7928460   2.7928460   0.0000000
 AtZNuc=   6.0000000   1.0000000   1.0000000   6.0000000   1.0000000   1.0000000   6.0000000   1.0000000   1.0000000   6.0000000

  Atom        21          22          23          24          25          26          27          28          29          30
 IAtWgt=           1           1          12          12          12          12           1          12           1          12
 AtmWgt=   1.0078250   1.0078250  12.0000000  12.0000000  12.0000000  12.0000000   1.0078250  12.0000000   1.0078250  12.0000000
 NucSpn=           1           1           0           0           0           0           1           0           1           0
 AtZEff=  -0.0000000  -0.0000000  -0.0000000  -0.0000000  -0.0000000  -0.0000000  -0.0000000  -0.0000000  -0.0000000  -0.0000000
 NQMom=    0.0000000   0.0000000   0.0000000   0.0000000   0.0000000   0.0000000   0.0000000   0.0000000   0.0000000   0.0000000
 NMagM=    2.7928460   2.7928460   0.0000000   0.0000000   0.0000000   0.0000000   2.7928460   0.0000000   2.7928460   0.0000000
 AtZNuc=   1.0000000   1.0000000   6.0000000   6.0000000   6.0000000   6.0000000   1.0000000   6.0000000   1.0000000   6.0000000

  Atom        31          32
 IAtWgt=           1           1
 AtmWgt=   1.0078250   1.0078250
 NucSpn=           1           1
 AtZEff=  -0.0000000  -0.0000000
 NQMom=    0.0000000   0.0000000
 NMagM=    2.7928460   2.7928460
 AtZNuc=   1.0000000   1.0000000
 Leave Link  101 at Mon Jul 28 11:50:18 2025, MaxMem=   104857600 cpu:               1.3 elap:               0.0
 (Enter /opt/linux/rocky/8/software/gaussian/16c01_avx2/g16/l103.exe)

 GradGradGradGradGradGradGradGradGradGradGradGradGradGradGradGradGradGrad
 Berny optimization.
 Initialization pass.
                           ----------------------------
                           !    Initial Parameters    !
                           ! (Angstroms and Degrees)  !
 --------------------------                            --------------------------
 ! Name  Definition              Value          Derivative Info.                !
 --------------------------------------------------------------------------------
 ! R1    R(1,2)                  1.3922         estimate D2E/DX2                !
 ! R2    R(1,6)                  1.4011         estimate D2E/DX2                !
 ! R3    R(1,7)                  1.0868         estimate D2E/DX2                !
 ! R4    R(2,3)                  1.4011         estimate D2E/DX2                !
 ! R5    R(2,8)                  1.0868         estimate D2E/DX2                !
 ! R6    R(3,4)                  1.402          estimate D2E/DX2                !
 ! R7    R(3,11)                 1.5124         estimate D2E/DX2                !
 ! R8    R(4,5)                  1.3976         estimate D2E/DX2                !
 ! R9    R(4,9)                  1.0882         estimate D2E/DX2                !
 ! R10   R(5,6)                  1.402          estimate D2E/DX2                !
 ! R11   R(5,10)                 1.0882         estimate D2E/DX2                !
 ! R12   R(6,14)                 1.5124         estimate D2E/DX2                !
 ! R13   R(11,12)                1.0964         estimate D2E/DX2                !
 ! R14   R(11,13)                1.0955         estimate D2E/DX2                !
 ! R15   R(11,17)                1.5854         estimate D2E/DX2                !
 ! R16   R(14,15)                1.0964         estimate D2E/DX2                !
 ! R17   R(14,16)                1.0955         estimate D2E/DX2                !
 ! R18   R(14,20)                1.5854         estimate D2E/DX2                !
 ! R19   R(17,18)                1.0962         estimate D2E/DX2                !
 ! R20   R(17,19)                1.0956         estimate D2E/DX2                !
 ! R21   R(17,26)                1.5216         estimate D2E/DX2                !
 ! R22   R(20,21)                1.0956         estimate D2E/DX2                !
 ! R23   R(20,22)                1.0962         estimate D2E/DX2                !
 ! R24   R(20,23)                1.5216         estimate D2E/DX2                !
 ! R25   R(23,24)                1.4012         estimate D2E/DX2                !
 ! R26   R(23,25)                1.4011         estimate D2E/DX2                !
 ! R27   R(24,26)                1.4012         estimate D2E/DX2                !
 ! R28   R(24,27)                1.0841         estimate D2E/DX2                !
 ! R29   R(25,28)                1.3973         estimate D2E/DX2                !
 ! R30   R(25,29)                1.0876         estimate D2E/DX2                !
 ! R31   R(26,30)                1.4011         estimate D2E/DX2                !
 ! R32   R(28,30)                1.3973         estimate D2E/DX2                !
 ! R33   R(28,31)                1.0867         estimate D2E/DX2                !
 ! R34   R(30,32)                1.0876         estimate D2E/DX2                !
 ! A1    A(2,1,6)              120.4561         estimate D2E/DX2                !
 ! A2    A(2,1,7)              119.2159         estimate D2E/DX2                !
 ! A3    A(6,1,7)              119.5133         estimate D2E/DX2                !
 ! A4    A(1,2,3)              120.4561         estimate D2E/DX2                !
 ! A5    A(1,2,8)              119.2159         estimate D2E/DX2                !
 ! A6    A(3,2,8)              119.5133         estimate D2E/DX2                !
 ! A7    A(2,3,4)              117.3749         estimate D2E/DX2                !
 ! A8    A(2,3,11)             118.8378         estimate D2E/DX2                !
 ! A9    A(4,3,11)             121.2321         estimate D2E/DX2                !
 ! A10   A(3,4,5)              120.3059         estimate D2E/DX2                !
 ! A11   A(3,4,9)              119.7243         estimate D2E/DX2                !
 ! A12   A(5,4,9)              119.224          estimate D2E/DX2                !
 ! A13   A(4,5,6)              120.3059         estimate D2E/DX2                !
 ! A14   A(4,5,10)             119.224          estimate D2E/DX2                !
 ! A15   A(6,5,10)             119.7243         estimate D2E/DX2                !
 ! A16   A(1,6,5)              117.3749         estimate D2E/DX2                !
 ! A17   A(1,6,14)             118.8378         estimate D2E/DX2                !
 ! A18   A(5,6,14)             121.2321         estimate D2E/DX2                !
 ! A19   A(3,11,12)            112.8424         estimate D2E/DX2                !
 ! A20   A(3,11,13)            109.9285         estimate D2E/DX2                !
 ! A21   A(3,11,17)            109.6337         estimate D2E/DX2                !
 ! A22   A(12,11,13)           107.2916         estimate D2E/DX2                !
 ! A23   A(12,11,17)           108.1331         estimate D2E/DX2                !
 ! A24   A(13,11,17)           108.9095         estimate D2E/DX2                !
 ! A25   A(6,14,15)            112.8424         estimate D2E/DX2                !
 ! A26   A(6,14,16)            109.9285         estimate D2E/DX2                !
 ! A27   A(6,14,20)            109.6337         estimate D2E/DX2                !
 ! A28   A(15,14,16)           107.2916         estimate D2E/DX2                !
 ! A29   A(15,14,20)           108.1331         estimate D2E/DX2                !
 ! A30   A(16,14,20)           108.9095         estimate D2E/DX2                !
 ! A31   A(11,17,18)           108.2715         estimate D2E/DX2                !
 ! A32   A(11,17,19)           107.8432         estimate D2E/DX2                !
 ! A33   A(11,17,26)           113.5814         estimate D2E/DX2                !
 ! A34   A(18,17,19)           106.9076         estimate D2E/DX2                !
 ! A35   A(18,17,26)           111.0689         estimate D2E/DX2                !
 ! A36   A(19,17,26)           108.9096         estimate D2E/DX2                !
 ! A37   A(14,20,21)           107.8432         estimate D2E/DX2                !
 ! A38   A(14,20,22)           108.2715         estimate D2E/DX2                !
 ! A39   A(14,20,23)           113.5814         estimate D2E/DX2                !
 ! A40   A(21,20,22)           106.9076         estimate D2E/DX2                !
 ! A41   A(21,20,23)           108.9096         estimate D2E/DX2                !
 ! A42   A(22,20,23)           111.0689         estimate D2E/DX2                !
 ! A43   A(20,23,24)           119.2934         estimate D2E/DX2                !
 ! A44   A(20,23,25)           122.44           estimate D2E/DX2                !
 ! A45   A(24,23,25)           117.7247         estimate D2E/DX2                !
 ! A46   A(23,24,26)           122.5033         estimate D2E/DX2                !
 ! A47   A(23,24,27)           118.4983         estimate D2E/DX2                !
 ! A48   A(26,24,27)           118.4983         estimate D2E/DX2                !
 ! A49   A(23,25,28)           120.2846         estimate D2E/DX2                !
 ! A50   A(23,25,29)           119.9028         estimate D2E/DX2                !
 ! A51   A(28,25,29)           119.7984         estimate D2E/DX2                !
 ! A52   A(17,26,24)           119.2934         estimate D2E/DX2                !
 ! A53   A(17,26,30)           122.44           estimate D2E/DX2                !
 ! A54   A(24,26,30)           117.7247         estimate D2E/DX2                !
 ! A55   A(25,28,30)           120.5358         estimate D2E/DX2                !
 ! A56   A(25,28,31)           119.6962         estimate D2E/DX2                !
 ! A57   A(30,28,31)           119.6962         estimate D2E/DX2                !
 ! A58   A(26,30,28)           120.2846         estimate D2E/DX2                !
 ! A59   A(26,30,32)           119.9028         estimate D2E/DX2                !
 ! A60   A(28,30,32)           119.7984         estimate D2E/DX2                !
 ! D1    D(6,1,2,3)              0.0            estimate D2E/DX2                !
 ! D2    D(6,1,2,8)            169.6156         estimate D2E/DX2                !
 ! D3    D(7,1,2,3)           -169.6156         estimate D2E/DX2                !
 ! D4    D(7,1,2,8)              0.0            estimate D2E/DX2                !
 ! D5    D(2,1,6,5)             15.4889         estimate D2E/DX2                !
 ! D6    D(2,1,6,14)          -146.6228         estimate D2E/DX2                !
 ! D7    D(7,1,6,5)           -174.9261         estimate D2E/DX2                !
 ! D8    D(7,1,6,14)            22.9622         estimate D2E/DX2                !
 ! D9    D(1,2,3,4)            -15.4889         estimate D2E/DX2                !
 ! D10   D(1,2,3,11)           146.6228         estimate D2E/DX2                !
 ! D11   D(8,2,3,4)            174.9261         estimate D2E/DX2                !
 ! D12   D(8,2,3,11)           -22.9622         estimate D2E/DX2                !
 ! D13   D(2,3,4,5)             15.4645         estimate D2E/DX2                !
 ! D14   D(2,3,4,9)           -174.5033         estimate D2E/DX2                !
 ! D15   D(11,3,4,5)          -146.1942         estimate D2E/DX2                !
 ! D16   D(11,3,4,9)            23.8379         estimate D2E/DX2                !
 ! D17   D(2,3,11,12)          150.1187         estimate D2E/DX2                !
 ! D18   D(2,3,11,13)           30.3966         estimate D2E/DX2                !
 ! D19   D(2,3,11,17)          -89.2953         estimate D2E/DX2                !
 ! D20   D(4,3,11,12)          -48.4835         estimate D2E/DX2                !
 ! D21   D(4,3,11,13)         -168.2056         estimate D2E/DX2                !
 ! D22   D(4,3,11,17)           72.1024         estimate D2E/DX2                !
 ! D23   D(3,4,5,6)              0.0            estimate D2E/DX2                !
 ! D24   D(3,4,5,10)           170.0817         estimate D2E/DX2                !
 ! D25   D(9,4,5,6)           -170.0817         estimate D2E/DX2                !
 ! D26   D(9,4,5,10)             0.0            estimate D2E/DX2                !
 ! D27   D(4,5,6,1)            -15.4645         estimate D2E/DX2                !
 ! D28   D(4,5,6,14)           146.1942         estimate D2E/DX2                !
 ! D29   D(10,5,6,1)           174.5033         estimate D2E/DX2                !
 ! D30   D(10,5,6,14)          -23.8379         estimate D2E/DX2                !
 ! D31   D(1,6,14,15)         -150.1187         estimate D2E/DX2                !
 ! D32   D(1,6,14,16)          -30.3966         estimate D2E/DX2                !
 ! D33   D(1,6,14,20)           89.2953         estimate D2E/DX2                !
 ! D34   D(5,6,14,15)           48.4835         estimate D2E/DX2                !
 ! D35   D(5,6,14,16)          168.2056         estimate D2E/DX2                !
 ! D36   D(5,6,14,20)          -72.1024         estimate D2E/DX2                !
 ! D37   D(3,11,17,18)         161.5143         estimate D2E/DX2                !
 ! D38   D(3,11,17,19)         -83.1433         estimate D2E/DX2                !
 ! D39   D(3,11,17,26)          37.6526         estimate D2E/DX2                !
 ! D40   D(12,11,17,18)        -75.0823         estimate D2E/DX2                !
 ! D41   D(12,11,17,19)         40.2601         estimate D2E/DX2                !
 ! D42   D(12,11,17,26)        161.056          estimate D2E/DX2                !
 ! D43   D(13,11,17,18)         41.2002         estimate D2E/DX2                !
 ! D44   D(13,11,17,19)        156.5426         estimate D2E/DX2                !
 ! D45   D(13,11,17,26)        -82.6615         estimate D2E/DX2                !
 ! D46   D(6,14,20,21)          83.1433         estimate D2E/DX2                !
 ! D47   D(6,14,20,22)        -161.5143         estimate D2E/DX2                !
 ! D48   D(6,14,20,23)         -37.6526         estimate D2E/DX2                !
 ! D49   D(15,14,20,21)        -40.2601         estimate D2E/DX2                !
 ! D50   D(15,14,20,22)         75.0823         estimate D2E/DX2                !
 ! D51   D(15,14,20,23)       -161.056          estimate D2E/DX2                !
 ! D52   D(16,14,20,21)       -156.5426         estimate D2E/DX2                !
 ! D53   D(16,14,20,22)        -41.2002         estimate D2E/DX2                !
 ! D54   D(16,14,20,23)         82.6615         estimate D2E/DX2                !
 ! D55   D(11,17,26,24)        -85.8205         estimate D2E/DX2                !
 ! D56   D(11,17,26,30)         85.5411         estimate D2E/DX2                !
 ! D57   D(18,17,26,24)        151.8523         estimate D2E/DX2                !
 ! D58   D(18,17,26,30)        -36.7862         estimate D2E/DX2                !
 ! D59   D(19,17,26,24)         34.3739         estimate D2E/DX2                !
 ! D60   D(19,17,26,30)       -154.2645         estimate D2E/DX2                !
 ! D61   D(14,20,23,24)         85.8205         estimate D2E/DX2                !
 ! D62   D(14,20,23,25)        -85.5411         estimate D2E/DX2                !
 ! D63   D(21,20,23,24)        -34.3739         estimate D2E/DX2                !
 ! D64   D(21,20,23,25)        154.2645         estimate D2E/DX2                !
 ! D65   D(22,20,23,24)       -151.8523         estimate D2E/DX2                !
 ! D66   D(22,20,23,25)         36.7862         estimate D2E/DX2                !
 ! D67   D(20,23,24,26)       -161.3369         estimate D2E/DX2                !
 ! D68   D(20,23,24,27)         10.4219         estimate D2E/DX2                !
 ! D69   D(25,23,24,26)         10.43           estimate D2E/DX2                !
 ! D70   D(25,23,24,27)       -177.8112         estimate D2E/DX2                !
 ! D71   D(20,23,25,28)        168.6099         estimate D2E/DX2                !
 ! D72   D(20,23,25,29)        -10.0171         estimate D2E/DX2                !
 ! D73   D(24,23,25,28)         -2.8801         estimate D2E/DX2                !
 ! D74   D(24,23,25,29)        178.4929         estimate D2E/DX2                !
 ! D75   D(23,24,26,17)        161.3369         estimate D2E/DX2                !
 ! D76   D(23,24,26,30)        -10.43           estimate D2E/DX2                !
 ! D77   D(27,24,26,17)        -10.4219         estimate D2E/DX2                !
 ! D78   D(27,24,26,30)        177.8112         estimate D2E/DX2                !
 ! D79   D(23,25,28,30)         -4.2679         estimate D2E/DX2                !
 ! D80   D(23,25,28,31)        178.8232         estimate D2E/DX2                !
 ! D81   D(29,25,28,30)        174.3605         estimate D2E/DX2                !
 ! D82   D(29,25,28,31)         -2.5483         estimate D2E/DX2                !
 ! D83   D(17,26,30,28)       -168.6099         estimate D2E/DX2                !
 ! D84   D(17,26,30,32)         10.0171         estimate D2E/DX2                !
 ! D85   D(24,26,30,28)          2.8801         estimate D2E/DX2                !
 ! D86   D(24,26,30,32)       -178.4929         estimate D2E/DX2                !
 ! D87   D(25,28,30,26)          4.2679         estimate D2E/DX2                !
 ! D88   D(25,28,30,32)       -174.3605         estimate D2E/DX2                !
 ! D89   D(31,28,30,26)       -178.8232         estimate D2E/DX2                !
 ! D90   D(31,28,30,32)          2.5483         estimate D2E/DX2                !
 --------------------------------------------------------------------------------
 Trust Radius=3.00D-01 FncErr=1.00D-07 GrdErr=1.00D-06 EigMax=2.50D+02 EigMin=1.00D-04
 Number of steps in this run=    192 maximum allowed number of steps=    192.
 GradGradGradGradGradGradGradGradGradGradGradGradGradGradGradGradGradGrad

 Leave Link  103 at Mon Jul 28 11:50:18 2025, MaxMem=   104857600 cpu:               0.4 elap:               0.0
 (Enter /opt/linux/rocky/8/software/gaussian/16c01_avx2/g16/l202.exe)
                          Input orientation:                          
 ---------------------------------------------------------------------
 Center     Atomic      Atomic             Coordinates (Angstroms)
 Number     Number       Type             X           Y           Z
 ---------------------------------------------------------------------
      1          6           0        0.965866    1.549294    0.696083
      2          6           0        0.965866    1.549294   -0.696083
      3          6           0        1.469349    0.451479   -1.406265
      4          6           0        2.256734   -0.467813   -0.698795
      5          6           0        2.256734   -0.467813    0.698795
      6          6           0        1.469349    0.451479    1.406265
      7          1           0        0.421488    2.326122    1.226574
      8          1           0        0.421488    2.326122   -1.226574
      9          1           0        2.741033   -1.284693   -1.230060
     10          1           0        2.741033   -1.284693    1.230060
     11          6           0        0.835218    0.085792   -2.729675
     12          1           0        1.541992   -0.381279   -3.425663
     13          1           0        0.444127    0.985294   -3.217533
     14          6           0        0.835218    0.085792    2.729675
     15          1           0        1.541992   -0.381279    3.425663
     16          1           0        0.444127    0.985294    3.217533
     17          6           0       -0.359687   -0.927274   -2.485952
     18          1           0       -1.001749   -0.921583   -3.374460
     19          1           0        0.064832   -1.934143   -2.406039
     20          6           0       -0.359687   -0.927274    2.485952
     21          1           0        0.064832   -1.934143    2.406039
     22          1           0       -1.001749   -0.921583    3.374460
     23          6           0       -1.163204   -0.629657    1.228497
     24          6           0       -0.730315   -1.146174    0.000000
     25          6           0       -2.223552    0.285997    1.213323
     26          6           0       -1.163204   -0.629657   -1.228497
     27          1           0        0.065138   -1.882694    0.000000
     28          6           0       -2.776055    0.704263    0.000000
     29          1           0       -2.604128    0.690435    2.148482
     30          6           0       -2.223552    0.285997   -1.213323
     31          1           0       -3.610796    1.400038    0.000000
     32          1           0       -2.604128    0.690435   -2.148482
 ---------------------------------------------------------------------
                    Distance matrix (angstroms):
                    1          2          3          4          5
     1  C    0.000000
     2  C    1.392166   0.000000
     3  C    2.424574   1.401089   0.000000
     4  C    2.771416   2.394800   1.401994   0.000000
     5  C    2.394800   2.771416   2.428240   1.397590   0.000000
     6  C    1.401089   2.424574   2.812530   2.428240   1.401994
     7  H    1.086844   2.143926   3.397667   3.857622   3.384191
     8  H    2.143926   1.086844   2.155131   3.384191   3.857622
     9  H    3.859110   3.386419   2.159287   1.088155   2.149958
    10  H    3.386419   3.859110   3.403187   2.149958   1.088155
    11  C    3.727563   2.508865   1.512370   2.540012   3.752545
    12  H    4.587791   3.392586   2.185573   2.820311   4.186824
    13  H    3.988320   2.635909   2.148658   3.426530   4.553536
    14  C    2.508865   3.727563   4.200220   3.752545   2.540012
    15  H    3.392586   4.587791   4.903702   4.186824   2.820311
    16  H    2.635909   3.988320   4.766083   4.553536   3.426530
    17  C    4.244505   3.330782   2.532204   3.201670   4.147213
    18  H    5.152287   4.141310   3.444621   4.240613   5.235936
    19  H    4.750722   3.983735   2.943367   3.141535   4.073641
    20  C    3.330782   4.244505   4.516158   4.147213   3.201670
    21  H    3.983735   4.750722   4.711425   4.073641   3.141535
    22  H    4.141310   5.152287   5.554004   5.235936   4.240613
    23  C    3.092609   3.603439   3.878294   3.928947   3.464499
    24  C    3.259925   3.259925   3.060817   3.141807   3.141807
    25  C    3.469271   3.926084   4.530689   4.929238   4.572300
    26  C    3.603439   3.092609   2.851454   3.464499   3.928947
    27  H    3.615852   3.615852   3.065576   2.700610   2.700610
    28  C    3.898792   3.898792   4.479390   5.214503   5.214503
    29  H    3.948665   4.644787   5.411704   5.751218   5.202991
    30  C    3.926084   3.469271   3.701639   4.572300   4.929238
    31  H    4.631700   4.631700   5.355858   6.197184   6.197184
    32  H    4.644787   3.948665   4.147433   5.202991   5.751218
                    6          7          8          9         10
     6  C    0.000000
     7  H    2.155131   0.000000
     8  H    3.397667   2.453148   0.000000
     9  H    3.403187   4.945030   4.291653   0.000000
    10  H    2.159287   4.291653   4.945030   2.460120   0.000000
    11  C    4.200220   4.565321   2.729389   2.785535   4.603245
    12  H    4.903702   5.498078   3.663542   2.659799   4.891790
    13  H    4.766083   4.642027   2.400469   3.791921   5.496335
    14  C    1.512370   2.729389   4.565321   4.603245   2.785535
    15  H    2.185573   3.663542   5.498078   4.891790   2.659799
    16  H    2.148658   2.400469   4.642027   5.496335   3.791921
    17  C    4.516158   4.997766   3.575032   3.364443   4.852933
    18  H    5.554004   5.808847   4.145673   4.328824   5.944903
    19  H    4.711425   5.610075   4.434884   2.994455   4.561256
    20  C    2.532204   3.575032   4.997766   4.852933   3.364443
    21  H    2.943367   4.434884   5.610075   4.561256   2.994455
    22  H    3.444621   4.145673   5.808847   5.944903   4.328824
    23  C    2.851454   3.353786   4.156351   4.660112   3.958806
    24  C    3.060817   3.858494   3.858494   3.685443   3.685443
    25  C    3.701639   3.340437   4.136598   5.751895   5.207154
    26  C    3.878294   4.156351   3.353786   3.958806   4.660112
    27  H    3.065576   4.398363   4.398363   3.005173   3.005173
    28  C    4.479390   3.789352   3.789352   5.992266   5.992266
    29  H    4.147433   3.560862   4.818799   6.624683   5.771947
    30  C    4.530689   4.136598   3.340437   5.207154   5.751895
    31  H    5.355858   4.315255   4.315255   7.004753   7.004753
    32  H    5.411704   4.818799   3.560862   5.771947   6.624683
                   11         12         13         14         15
    11  C    0.000000
    12  H    1.096396   0.000000
    13  H    1.095473   1.765261   0.000000
    14  C    5.459350   6.213362   6.027548   0.000000
    15  H    6.213362   6.851326   6.870581   1.096396   0.000000
    16  H    6.027548   6.870581   6.435066   1.095473   1.765261
    17  C    1.585403   2.190331   2.199828   5.445812   6.233914
    18  H    2.192031   2.600994   2.398200   6.453659   7.280400
    19  H    2.185949   2.373399   3.053768   5.572180   6.213062
    20  C    5.445812   6.233914   6.069083   1.585403   2.190331
    21  H    5.572180   6.213062   6.347562   2.185949   2.373399
    22  H    6.453659   7.280400   7.012924   2.192031   2.600994
    23  C    4.491401   5.388969   4.995875   2.599826   3.493897
    24  C    3.379313   4.181341   4.034227   3.379313   4.181341
    25  C    4.994336   6.012052   5.219005   3.419865   4.418034
    26  C    2.599826   3.493897   3.024540   4.491401   5.388969
    27  H    3.452403   4.021257   4.326836   3.452403   4.021257
    28  C    4.568908   5.617749   4.560819   4.568908   5.617749
    29  H    5.999259   7.029223   6.178424   3.540124   4.468789
    30  C    3.419865   4.418034   3.409162   4.994336   6.012052
    31  H    5.380094   6.438904   5.192969   5.380094   6.438904
    32  H    3.540124   4.468789   3.243712   5.999259   7.029223
                   16         17         18         19         20
    16  H    0.000000
    17  C    6.069083   0.000000
    18  H    7.012924   1.096231   0.000000
    19  H    6.347562   1.095622   1.760884   0.000000
    20  C    2.199828   4.971904   5.895482   5.012542   0.000000
    21  H    3.053768   5.012542   5.964649   4.812078   1.095622
    22  H    2.398200   5.895482   6.748920   5.964649   1.096231
    23  C    3.024540   3.812000   4.615030   4.052112   1.521647
    24  C    4.034227   2.522943   3.392801   2.653710   2.522943
    25  C    3.409162   4.316324   4.898858   4.823433   2.562343
    26  C    4.995875   1.521647   2.171738   2.143913   3.812000
    27  H    4.326836   2.696898   3.667283   2.406589   2.696898
    28  C    4.560819   3.831541   4.144697   4.562987   3.831541
    29  H    3.243712   5.397451   5.972362   5.895373   2.787182
    30  C    5.219005   2.562343   2.760718   3.404158   4.316324
    31  H    5.192969   4.708083   4.856339   5.515073   4.708083
    32  H    6.178424   2.787182   2.582488   3.752078   5.397451
                   21         22         23         24         25
    21  H    0.000000
    22  H    1.760884   0.000000
    23  C    2.143913   2.171738   0.000000
    24  C    2.653710   3.392801   1.401209   0.000000
    25  C    3.404158   2.760718   1.401068   2.398546   0.000000
    26  C    4.052112   4.615030   2.456994   1.401209   2.815181
    27  H    2.406589   3.667283   2.141992   1.084070   3.378384
    28  C    4.562987   4.144697   2.426898   2.758472   1.397268
    29  H    3.752078   2.582488   2.159925   3.391207   1.087626
    30  C    4.823433   4.898858   2.815181   2.398546   2.426646
    31  H    5.515073   4.856339   3.408750   3.844524   2.153529
    32  H    5.895373   5.972362   3.901652   3.391207   3.407366
                   26         27         28         29         30
    26  C    0.000000
    27  H    2.141992   0.000000
    28  C    2.426898   3.842489   0.000000
    29  H    3.901652   4.285084   2.155394   0.000000
    30  C    1.401068   3.378384   1.397268   3.407366   0.000000
    31  H    3.408750   4.928369   1.086690   2.476468   2.153529
    32  H    2.159925   4.285084   2.155394   4.296964   1.087626
                   31         32
    31  H    0.000000
    32  H    2.476468   0.000000
 Stoichiometry    C16H16
 Framework group  CS[SG(C2H2),X(C14H14)]
 Deg. of freedom    47
 Full point group                 CS      NOp   2
 Largest Abelian subgroup         CS      NOp   2
 Largest concise Abelian subgroup CS      NOp   2
                         Standard orientation:                         
 ---------------------------------------------------------------------
 Center     Atomic      Atomic             Coordinates (Angstroms)
 Number     Number       Type             X           Y           Z
 ---------------------------------------------------------------------
      1          6           0        0.965866    1.549294    0.696083
      2          6           0        0.965866    1.549294   -0.696083
      3          6           0        1.469349    0.451479   -1.406265
      4          6           0        2.256734   -0.467813   -0.698795
      5          6           0        2.256734   -0.467813    0.698795
      6          6           0        1.469349    0.451479    1.406265
      7          1           0        0.421488    2.326122    1.226574
      8          1           0        0.421488    2.326122   -1.226574
      9          1           0        2.741033   -1.284693   -1.230060
     10          1           0        2.741033   -1.284693    1.230060
     11          6           0        0.835218    0.085792   -2.729675
     12          1           0        1.541992   -0.381279   -3.425663
     13          1           0        0.444127    0.985294   -3.217533
     14          6           0        0.835218    0.085792    2.729675
     15          1           0        1.541992   -0.381279    3.425663
     16          1           0        0.444127    0.985294    3.217533
     17          6           0       -0.359687   -0.927274   -2.485952
     18          1           0       -1.001749   -0.921583   -3.374460
     19          1           0        0.064832   -1.934143   -2.406039
     20          6           0       -0.359687   -0.927274    2.485952
     21          1           0        0.064832   -1.934143    2.406039
     22          1           0       -1.001749   -0.921583    3.374460
     23          6           0       -1.163204   -0.629657    1.228497
     24          6           0       -0.730315   -1.146174    0.000000
     25          6           0       -2.223552    0.285997    1.213323
     26          6           0       -1.163204   -0.629657   -1.228497
     27          1           0        0.065138   -1.882694   -0.000000
     28          6           0       -2.776055    0.704263    0.000000
     29          1           0       -2.604128    0.690435    2.148482
     30          6           0       -2.223552    0.285997   -1.213323
     31          1           0       -3.610796    1.400037    0.000000
     32          1           0       -2.604128    0.690435   -2.148482
 ---------------------------------------------------------------------
 Rotational constants (GHZ):           0.7544989           0.7042621           0.4678160
 Leave Link  202 at Mon Jul 28 11:50:18 2025, MaxMem=   104857600 cpu:               0.3 elap:               0.0
 (Enter /opt/linux/rocky/8/software/gaussian/16c01_avx2/g16/l301.exe)
 Standard basis: 6-31G(d,p) (6D, 7F)
 Ernie: Thresh=  0.10000D-02 Tol=  0.10000D-05 Strict=F.
 There are   170 symmetry adapted cartesian basis functions of A'  symmetry.
 There are   150 symmetry adapted cartesian basis functions of A"  symmetry.
 There are   170 symmetry adapted basis functions of A'  symmetry.
 There are   150 symmetry adapted basis functions of A"  symmetry.
   320 basis functions,   560 primitive gaussians,   320 cartesian basis functions
    56 alpha electrons       56 beta electrons
       nuclear repulsion energy      1088.3276678031 Hartrees.
 IExCor=  402 DFT=T Ex+Corr=B3LYP ExCW=0 ScaHFX=  0.200000
 ScaDFX=  0.800000  0.720000  1.000000  0.810000 ScalE2=  1.000000  1.000000
 IRadAn=      5 IRanWt=     -1 IRanGd=            0 ICorTp=0 IEmpDi=  4
 NAtoms=   32 NActive=   32 NUniq=   18 SFac= 3.16D+00 NAtFMM=   60 NAOKFM=F Big=F
 Integral buffers will be    131072 words long.
 Raffenetti 2 integral format.
 Two-electron integral symmetry is turned on.
 Leave Link  301 at Mon Jul 28 11:50:19 2025, MaxMem=   104857600 cpu:               1.0 elap:               0.0
 (Enter /opt/linux/rocky/8/software/gaussian/16c01_avx2/g16/l302.exe)
 NPDir=0 NMtPBC=     1 NCelOv=     1 NCel=       1 NClECP=     1 NCelD=      1
         NCelK=      1 NCelE2=     1 NClLst=     1 CellRange=     0.0.
 One-electron integrals computed using PRISM.
 One-electron integral symmetry used in STVInt
 PrsmSu:  requested number of processors reduced to:  28 ShMem   1 Linda.
 NBasis=   320 RedAO= T EigKep=  4.49D-04  NBF=   170   150
 NBsUse=   320 1.00D-06 EigRej= -1.00D+00 NBFU=   170   150
 Precomputing XC quadrature grid using
 IXCGrd= 4 IRadAn=           5 IRanWt=          -1 IRanGd=           0 AccXCQ= 0.00D+00.
 Generated NRdTot=       0 NPtTot=           0 NUsed=           0 NTot=          32
 NSgBfM=   320   320   320   320   320 MxSgAt=    32 MxSgA2=    32.
 Leave Link  302 at Mon Jul 28 11:50:19 2025, MaxMem=   104857600 cpu:               8.6 elap:               0.3
 (Enter /opt/linux/rocky/8/software/gaussian/16c01_avx2/g16/l303.exe)
 DipDrv:  MaxL=1.
 Leave Link  303 at Mon Jul 28 11:50:19 2025, MaxMem=   104857600 cpu:               0.8 elap:               0.0
 (Enter /opt/linux/rocky/8/software/gaussian/16c01_avx2/g16/l401.exe)
 ExpMin= 1.61D-01 ExpMax= 3.05D+03 ExpMxC= 4.57D+02 IAcc=3 IRadAn=         5 AccDes= 0.00D+00
 Harris functional with IExCor=  402 and IRadAn=       5 diagonalized for initial guess.
 HarFok:  IExCor=  402 AccDes= 0.00D+00 IRadAn=         5 IDoV= 1 UseB2=F ITyADJ=14
 ICtDFT=  3500011 ScaDFX=  1.000000  1.000000  1.000000  1.000000
 FoFCou: FMM=F IPFlag=           0 FMFlag=      100000 FMFlg1=           0
         NFxFlg=           0 DoJE=T BraDBF=F KetDBF=T FulRan=T
         wScrn=  0.000000 ICntrl=       500 IOpCl=  0 I1Cent=   200000004 NGrid=           0
         NMat0=    1 NMatS0=      1 NMatT0=    0 NMatD0=    1 NMtDS0=    0 NMtDT0=    0
 Petite list used in FoFCou.
 Harris En= -619.384599325008    
 JPrj=0 DoOrth=F DoCkMO=F.
 Initial guess orbital symmetries:
       Occupied  (A') (A") (A') (A') (A') (A") (A") (A') (A") (A')
                 (A") (A') (A") (A') (A") (A') (A') (A') (A") (A')
                 (A") (A') (A') (A") (A') (A") (A") (A') (A') (A")
                 (A') (A') (A") (A') (A") (A') (A') (A") (A') (A")
                 (A') (A") (A') (A") (A') (A') (A") (A") (A') (A")
                 (A') (A') (A') (A') (A") (A")
       Virtual   (A') (A") (A") (A') (A") (A') (A') (A') (A") (A')
                 (A') (A") (A') (A") (A") (A') (A") (A') (A") (A')
                 (A') (A") (A') (A") (A") (A') (A') (A") (A') (A")
                 (A') (A") (A') (A") (A") (A') (A") (A') (A') (A')
                 (A") (A') (A") (A") (A') (A') (A") (A') (A") (A')
                 (A") (A') (A") (A') (A") (A') (A") (A') (A') (A')
                 (A") (A') (A") (A") (A") (A') (A') (A') (A") (A')
                 (A') (A") (A') (A") (A') (A") (A") (A") (A') (A")
                 (A') (A') (A') (A") (A') (A') (A") (A") (A") (A')
                 (A") (A') (A') (A") (A") (A') (A') (A") (A") (A')
                 (A') (A") (A') (A") (A') (A') (A") (A') (A") (A")
                 (A') (A') (A") (A') (A') (A") (A') (A") (A') (A")
                 (A') (A') (A") (A") (A") (A') (A') (A") (A') (A")
                 (A') (A") (A") (A') (A') (A") (A') (A') (A") (A")
                 (A') (A') (A") (A') (A") (A') (A') (A") (A') (A')
                 (A") (A') (A') (A') (A") (A') (A") (A") (A') (A")
                 (A') (A') (A") (A") (A") (A') (A') (A") (A') (A")
                 (A') (A") (A") (A') (A') (A') (A") (A") (A") (A')
                 (A") (A') (A') (A") (A') (A') (A") (A') (A') (A")
                 (A') (A") (A") (A') (A') (A") (A') (A") (A") (A')
                 (A') (A") (A") (A") (A") (A') (A") (A") (A') (A")
                 (A') (A") (A') (A") (A') (A") (A") (A') (A') (A")
                 (A') (A") (A') (A") (A') (A') (A") (A") (A") (A')
                 (A') (A') (A') (A") (A") (A') (A") (A") (A') (A")
                 (A') (A') (A") (A") (A') (A") (A") (A') (A') (A')
                 (A") (A') (A") (A') (A') (A') (A") (A") (A') (A")
                 (A') (A") (A") (A')
 The electronic state of the initial guess is 1-A'.
 Leave Link  401 at Mon Jul 28 11:50:20 2025, MaxMem=   104857600 cpu:              11.1 elap:               0.3
 (Enter /opt/linux/rocky/8/software/gaussian/16c01_avx2/g16/l502.exe)
 Integral symmetry usage will be decided dynamically.
 Closed shell SCF:
 Using DIIS extrapolation, IDIIS=  1040.
 NGot=   104857600 LenX=   104636278 LenY=   104533437
 Requested convergence on RMS density matrix=1.00D-10 within 128 cycles.
 Requested convergence on MAX density matrix=1.00D-08.
 Requested convergence on             energy=1.00D-08.
 No special actions if energy rises.
 Fock matrices will be formed incrementally for  20 cycles.
 Integral accuracy reduced to 1.0D-05 until final iterations.

 Cycle   1  Pass 0  IDiag  1:
 FoFJK:  IHMeth= 1 ICntrl=       0 DoSepK=F KAlg= 0 I1Cent=           0 FoldK=F
 IRaf= 910000000 NMat=       1 IRICut=       1 DoRegI=T DoRafI=F ISym2E= 1 IDoP0=0 IntGTp=1.
 FoFCou: FMM=F IPFlag=           0 FMFlag=      100000 FMFlg1=           0
         NFxFlg=           0 DoJE=F BraDBF=F KetDBF=F FulRan=T
         wScrn=  0.000000 ICntrl=         0 IOpCl=  0 I1Cent=           0 NGrid=           0
         NMat0=    1 NMatS0=      1 NMatT0=    0 NMatD0=    1 NMtDS0=    0 NMtDT0=    0
 Petite list used in FoFCou.
 E= -618.953209805461    
 DIIS: error= 2.93D-02 at cycle   1 NSaved=   1.
 NSaved= 1 IEnMin= 1 EnMin= -618.953209805461     IErMin= 1 ErrMin= 2.93D-02
 ErrMax= 2.93D-02  0.00D+00 EMaxC= 1.00D-01 BMatC= 3.44D-01 BMatP= 3.44D-01
 IDIUse=3 WtCom= 7.07D-01 WtEn= 2.93D-01
 Coeff-Com:  0.100D+01
 Coeff-En:   0.100D+01
 Coeff:      0.100D+01
 Gap=     0.209 Goal=   None    Shift=    0.000
 GapD=    0.209 DampG=1.000 DampE=0.500 DampFc=0.5000 IDamp=-1.
 Damping current iteration by 5.00D-01
 RMSDP=4.62D-03 MaxDP=1.35D-01              OVMax= 1.58D-01

 Cycle   2  Pass 0  IDiag  1:
 RMSU=  2.28D-03    CP:  9.76D-01
 E= -619.130652668587     Delta-E=       -0.177442863126 Rises=F Damp=T
 DIIS: error= 7.22D-03 at cycle   2 NSaved=   2.
 NSaved= 2 IEnMin= 2 EnMin= -619.130652668587     IErMin= 2 ErrMin= 7.22D-03
 ErrMax= 7.22D-03  0.00D+00 EMaxC= 1.00D-01 BMatC= 2.16D-02 BMatP= 3.44D-01
 IDIUse=3 WtCom= 9.28D-01 WtEn= 7.22D-02
 Coeff-Com:  0.273D-01 0.973D+00
 Coeff-En:   0.504D-01 0.950D+00
 Coeff:      0.290D-01 0.971D+00
 Gap=     0.220 Goal=   None    Shift=    0.000
 RMSDP=1.35D-03 MaxDP=3.19D-02 DE=-1.77D-01 OVMax= 9.68D-02

 Cycle   3  Pass 0  IDiag  1:
 RMSU=  1.23D-03    CP:  9.68D-01  7.59D-01
 E= -619.331579810894     Delta-E=       -0.200927142307 Rises=F Damp=F
 DIIS: error= 5.17D-03 at cycle   3 NSaved=   3.
 NSaved= 3 IEnMin= 3 EnMin= -619.331579810894     IErMin= 3 ErrMin= 5.17D-03
 ErrMax= 5.17D-03  0.00D+00 EMaxC= 1.00D-01 BMatC= 9.50D-03 BMatP= 2.16D-02
 IDIUse=3 WtCom= 9.48D-01 WtEn= 5.17D-02
 Coeff-Com: -0.386D-01 0.383D+00 0.656D+00
 Coeff-En:   0.000D+00 0.000D+00 0.100D+01
 Coeff:     -0.366D-01 0.363D+00 0.674D+00
 Gap=     0.208 Goal=   None    Shift=    0.000
 RMSDP=6.31D-04 MaxDP=1.84D-02 DE=-2.01D-01 OVMax= 4.74D-02

 Cycle   4  Pass 0  IDiag  1:
 RMSU=  4.21D-04    CP:  9.67D-01  8.70D-01  6.77D-01
 E= -619.336850853148     Delta-E=       -0.005271042254 Rises=F Damp=F
 DIIS: error= 3.28D-03 at cycle   4 NSaved=   4.
 NSaved= 4 IEnMin= 4 EnMin= -619.336850853148     IErMin= 4 ErrMin= 3.28D-03
 ErrMax= 3.28D-03  0.00D+00 EMaxC= 1.00D-01 BMatC= 4.03D-03 BMatP= 9.50D-03
 IDIUse=3 WtCom= 9.67D-01 WtEn= 3.28D-02
 Coeff-Com: -0.256D-01 0.132D+00 0.419D+00 0.475D+00
 Coeff-En:   0.000D+00 0.000D+00 0.325D+00 0.675D+00
 Coeff:     -0.247D-01 0.127D+00 0.415D+00 0.482D+00
 Gap=     0.209 Goal=   None    Shift=    0.000
 RMSDP=2.58D-04 MaxDP=8.17D-03 DE=-5.27D-03 OVMax= 3.00D-02

 Cycle   5  Pass 0  IDiag  1:
 RMSU=  1.29D-04    CP:  9.67D-01  8.56D-01  7.63D-01  5.37D-01
 E= -619.341025974757     Delta-E=       -0.004175121610 Rises=F Damp=F
 DIIS: error= 7.40D-04 at cycle   5 NSaved=   5.
 NSaved= 5 IEnMin= 5 EnMin= -619.341025974757     IErMin= 5 ErrMin= 7.40D-04
 ErrMax= 7.40D-04  0.00D+00 EMaxC= 1.00D-01 BMatC= 2.28D-04 BMatP= 4.03D-03
 IDIUse=3 WtCom= 9.93D-01 WtEn= 7.40D-03
 Coeff-Com: -0.816D-02 0.223D-01 0.130D+00 0.250D+00 0.606D+00
 Coeff-En:   0.000D+00 0.000D+00 0.000D+00 0.209D-02 0.998D+00
 Coeff:     -0.810D-02 0.221D-01 0.129D+00 0.248D+00 0.609D+00
 Gap=     0.209 Goal=   None    Shift=    0.000
 RMSDP=6.09D-05 MaxDP=2.12D-03 DE=-4.18D-03 OVMax= 6.96D-03

 Cycle   6  Pass 0  IDiag  1:
 RMSU=  2.70D-05    CP:  9.67D-01  8.57D-01  7.64D-01  6.00D-01  6.31D-01
 E= -619.341269156403     Delta-E=       -0.000243181645 Rises=F Damp=F
 DIIS: error= 1.63D-04 at cycle   6 NSaved=   6.
 NSaved= 6 IEnMin= 6 EnMin= -619.341269156403     IErMin= 6 ErrMin= 1.63D-04
 ErrMax= 1.63D-04  0.00D+00 EMaxC= 1.00D-01 BMatC= 1.10D-05 BMatP= 2.28D-04
 IDIUse=3 WtCom= 9.98D-01 WtEn= 1.63D-03
 Coeff-Com: -0.306D-02 0.594D-02 0.492D-01 0.106D+00 0.312D+00 0.530D+00
 Coeff-En:   0.000D+00 0.000D+00 0.000D+00 0.000D+00 0.000D+00 0.100D+01
 Coeff:     -0.305D-02 0.593D-02 0.491D-01 0.106D+00 0.311D+00 0.531D+00
 Gap=     0.209 Goal=   None    Shift=    0.000
 RMSDP=1.58D-05 MaxDP=4.91D-04 DE=-2.43D-04 OVMax= 1.50D-03

 Cycle   7  Pass 0  IDiag  1:
 RMSU=  1.01D-05    CP:  9.67D-01  8.57D-01  7.65D-01  5.98D-01  6.70D-01
                    CP:  5.97D-01
 E= -619.341279121877     Delta-E=       -0.000009965474 Rises=F Damp=F
 DIIS: error= 9.47D-05 at cycle   7 NSaved=   7.
 NSaved= 7 IEnMin= 7 EnMin= -619.341279121877     IErMin= 7 ErrMin= 9.47D-05
 ErrMax= 9.47D-05  0.00D+00 EMaxC= 1.00D-01 BMatC= 1.93D-06 BMatP= 1.10D-05
 IDIUse=1 WtCom= 1.00D+00 WtEn= 0.00D+00
 Coeff-Com: -0.108D-02 0.144D-02 0.177D-01 0.414D-01 0.136D+00 0.336D+00
 Coeff-Com:  0.468D+00
 Coeff:     -0.108D-02 0.144D-02 0.177D-01 0.414D-01 0.136D+00 0.336D+00
 Coeff:      0.468D+00
 Gap=     0.209 Goal=   None    Shift=    0.000
 RMSDP=6.01D-06 MaxDP=1.85D-04 DE=-9.97D-06 OVMax= 6.64D-04

 Initial convergence to 1.0D-05 achieved.  Increase integral accuracy.
 Cycle   8  Pass 1  IDiag  1:
 E= -619.341346781104     Delta-E=       -0.000067659227 Rises=F Damp=F
 DIIS: error= 7.17D-05 at cycle   1 NSaved=   1.
 NSaved= 1 IEnMin= 1 EnMin= -619.341346781104     IErMin= 1 ErrMin= 7.17D-05
 ErrMax= 7.17D-05  0.00D+00 EMaxC= 1.00D-01 BMatC= 3.52D-07 BMatP= 3.52D-07
 IDIUse=1 WtCom= 1.00D+00 WtEn= 0.00D+00
 Coeff-Com:  0.100D+01
 Coeff:      0.100D+01
 Gap=     0.209 Goal=   None    Shift=    0.000
 RMSDP=6.01D-06 MaxDP=1.85D-04 DE=-6.77D-05 OVMax= 3.33D-04

 Cycle   9  Pass 1  IDiag  1:
 RMSU=  1.17D-05    CP:  1.00D+00
 E= -619.341346664919     Delta-E=        0.000000116185 Rises=F Damp=F
 DIIS: error= 4.08D-05 at cycle   2 NSaved=   2.
 NSaved= 2 IEnMin= 1 EnMin= -619.341346781104     IErMin= 2 ErrMin= 4.08D-05
 ErrMax= 4.08D-05  0.00D+00 EMaxC= 1.00D-01 BMatC= 3.19D-07 BMatP= 3.52D-07
 IDIUse=1 WtCom= 1.00D+00 WtEn= 0.00D+00
 Coeff-Com:  0.484D+00 0.516D+00
 Coeff:      0.484D+00 0.516D+00
 Gap=     0.209 Goal=   None    Shift=    0.000
 RMSDP=3.13D-06 MaxDP=9.38D-05 DE= 1.16D-07 OVMax= 3.62D-04

 Cycle  10  Pass 1  IDiag  1:
 RMSU=  3.05D-06    CP:  1.00D+00  9.37D-01
 E= -619.341346911663     Delta-E=       -0.000000246745 Rises=F Damp=F
 DIIS: error= 2.33D-05 at cycle   3 NSaved=   3.
 NSaved= 3 IEnMin= 3 EnMin= -619.341346911663     IErMin= 3 ErrMin= 2.33D-05
 ErrMax= 2.33D-05  0.00D+00 EMaxC= 1.00D-01 BMatC= 9.55D-08 BMatP= 3.19D-07
 IDIUse=1 WtCom= 1.00D+00 WtEn= 0.00D+00
 Coeff-Com:  0.244D-01 0.351D+00 0.625D+00
 Coeff:      0.244D-01 0.351D+00 0.625D+00
 Gap=     0.209 Goal=   None    Shift=    0.000
 RMSDP=1.31D-06 MaxDP=3.70D-05 DE=-2.47D-07 OVMax= 1.41D-04

 Cycle  11  Pass 1  IDiag  1:
 RMSU=  4.79D-07    CP:  1.00D+00  9.69D-01  6.20D-01
 E= -619.341347016163     Delta-E=       -0.000000104500 Rises=F Damp=F
 DIIS: error= 3.73D-06 at cycle   4 NSaved=   4.
 NSaved= 4 IEnMin= 4 EnMin= -619.341347016163     IErMin= 4 ErrMin= 3.73D-06
 ErrMax= 3.73D-06  0.00D+00 EMaxC= 1.00D-01 BMatC= 5.87D-09 BMatP= 9.55D-08
 IDIUse=1 WtCom= 1.00D+00 WtEn= 0.00D+00
 Coeff-Com: -0.249D-02 0.193D+00 0.380D+00 0.429D+00
 Coeff:     -0.249D-02 0.193D+00 0.380D+00 0.429D+00
 Gap=     0.209 Goal=   None    Shift=    0.000
 RMSDP=2.83D-07 MaxDP=1.01D-05 DE=-1.04D-07 OVMax= 2.67D-05

 Cycle  12  Pass 1  IDiag  1:
 RMSU=  9.00D-08    CP:  1.00D+00  9.68D-01  6.46D-01  4.66D-01
 E= -619.341347022403     Delta-E=       -0.000000006240 Rises=F Damp=F
 DIIS: error= 4.03D-07 at cycle   5 NSaved=   5.
 NSaved= 5 IEnMin= 5 EnMin= -619.341347022403     IErMin= 5 ErrMin= 4.03D-07
 ErrMax= 4.03D-07  0.00D+00 EMaxC= 1.00D-01 BMatC= 8.10D-11 BMatP= 5.87D-09
 IDIUse=1 WtCom= 1.00D+00 WtEn= 0.00D+00
 Coeff-Com: -0.175D-02 0.909D-01 0.181D+00 0.219D+00 0.511D+00
 Coeff:     -0.175D-02 0.909D-01 0.181D+00 0.219D+00 0.511D+00
 Gap=     0.209 Goal=   None    Shift=    0.000
 RMSDP=4.22D-08 MaxDP=1.47D-06 DE=-6.24D-09 OVMax= 4.26D-06

 Cycle  13  Pass 1  IDiag  1:
 RMSU=  3.11D-08    CP:  1.00D+00  9.68D-01  6.47D-01  4.71D-01  6.87D-01
 E= -619.341347022474     Delta-E=       -0.000000000071 Rises=F Damp=F
 DIIS: error= 1.62D-07 at cycle   6 NSaved=   6.
 NSaved= 6 IEnMin= 6 EnMin= -619.341347022474     IErMin= 6 ErrMin= 1.62D-07
 ErrMax= 1.62D-07  0.00D+00 EMaxC= 1.00D-01 BMatC= 1.21D-11 BMatP= 8.10D-11
 IDIUse=1 WtCom= 1.00D+00 WtEn= 0.00D+00
 Coeff-Com: -0.768D-03 0.287D-01 0.583D-01 0.738D-01 0.297D+00 0.542D+00
 Coeff:     -0.768D-03 0.287D-01 0.583D-01 0.738D-01 0.297D+00 0.542D+00
 Gap=     0.209 Goal=   None    Shift=    0.000
 RMSDP=1.51D-08 MaxDP=3.76D-07 DE=-7.09D-11 OVMax= 1.52D-06

 Cycle  14  Pass 1  IDiag  1:
 RMSU=  9.65D-09    CP:  1.00D+00  9.68D-01  6.48D-01  4.72D-01  7.51D-01
                    CP:  6.82D-01
 E= -619.341347022486     Delta-E=       -0.000000000012 Rises=F Damp=F
 DIIS: error= 3.47D-08 at cycle   7 NSaved=   7.
 NSaved= 7 IEnMin= 7 EnMin= -619.341347022486     IErMin= 7 ErrMin= 3.47D-08
 ErrMax= 3.47D-08  0.00D+00 EMaxC= 1.00D-01 BMatC= 6.89D-13 BMatP= 1.21D-11
 IDIUse=1 WtCom= 1.00D+00 WtEn= 0.00D+00
 Coeff-Com: -0.103D-03 0.991D-03 0.252D-02 0.442D-02 0.633D-01 0.238D+00
 Coeff-Com:  0.691D+00
 Coeff:     -0.103D-03 0.991D-03 0.252D-02 0.442D-02 0.633D-01 0.238D+00
 Coeff:      0.691D+00
 Gap=     0.209 Goal=   None    Shift=    0.000
 RMSDP=4.16D-09 MaxDP=1.36D-07 DE=-1.23D-11 OVMax= 4.08D-07

 Cycle  15  Pass 1  IDiag  1:
 RMSU=  2.69D-09    CP:  1.00D+00  9.68D-01  6.48D-01  4.73D-01  7.54D-01
                    CP:  7.55D-01  7.76D-01
 E= -619.341347022497     Delta-E=       -0.000000000011 Rises=F Damp=F
 DIIS: error= 1.34D-08 at cycle   8 NSaved=   8.
 NSaved= 8 IEnMin= 8 EnMin= -619.341347022497     IErMin= 8 ErrMin= 1.34D-08
 ErrMax= 1.34D-08  0.00D+00 EMaxC= 1.00D-01 BMatC= 1.02D-13 BMatP= 6.89D-13
 IDIUse=1 WtCom= 1.00D+00 WtEn= 0.00D+00
 Coeff-Com:  0.650D-05-0.171D-02-0.321D-02-0.337D-02 0.109D-01 0.816D-01
 Coeff-Com:  0.372D+00 0.544D+00
 Coeff:      0.650D-05-0.171D-02-0.321D-02-0.337D-02 0.109D-01 0.816D-01
 Coeff:      0.372D+00 0.544D+00
 Gap=     0.209 Goal=   None    Shift=    0.000
 RMSDP=1.21D-09 MaxDP=4.47D-08 DE=-1.09D-11 OVMax= 1.01D-07

 Cycle  16  Pass 1  IDiag  1:
 RMSU=  8.65D-10    CP:  1.00D+00  9.68D-01  6.48D-01  4.73D-01  7.57D-01
                    CP:  7.57D-01  8.02D-01  7.25D-01
 E= -619.341347022489     Delta-E=        0.000000000008 Rises=F Damp=F
 DIIS: error= 2.45D-09 at cycle   9 NSaved=   9.
 NSaved= 9 IEnMin= 8 EnMin= -619.341347022497     IErMin= 9 ErrMin= 2.45D-09
 ErrMax= 2.45D-09  0.00D+00 EMaxC= 1.00D-01 BMatC= 4.79D-15 BMatP= 1.02D-13
 IDIUse=1 WtCom= 1.00D+00 WtEn= 0.00D+00
 Coeff-Com:  0.133D-04-0.872D-03-0.170D-02-0.197D-02-0.137D-02 0.989D-02
 Coeff-Com:  0.948D-01 0.225D+00 0.676D+00
 Coeff:      0.133D-04-0.872D-03-0.170D-02-0.197D-02-0.137D-02 0.989D-02
 Coeff:      0.948D-01 0.225D+00 0.676D+00
 Gap=     0.209 Goal=   None    Shift=    0.000
 RMSDP=3.29D-10 MaxDP=6.38D-09 DE= 8.19D-12 OVMax= 3.41D-08

 Cycle  17  Pass 1  IDiag  1:
 RMSU=  2.71D-10    CP:  1.00D+00  9.68D-01  6.48D-01  4.73D-01  7.57D-01
                    CP:  7.58D-01  8.14D-01  7.56D-01  8.92D-01
 E= -619.341347022483     Delta-E=        0.000000000005 Rises=F Damp=F
 DIIS: error= 8.63D-10 at cycle  10 NSaved=  10.
 NSaved=10 IEnMin= 8 EnMin= -619.341347022497     IErMin=10 ErrMin= 8.63D-10
 ErrMax= 8.63D-10  0.00D+00 EMaxC= 1.00D-01 BMatC= 2.95D-16 BMatP= 4.79D-15
 IDIUse=1 WtCom= 1.00D+00 WtEn= 0.00D+00
 Coeff-Com:  0.318D-05-0.942D-04-0.201D-03-0.253D-03-0.130D-02-0.506D-02
 Coeff-Com: -0.726D-02 0.142D-01 0.211D+00 0.789D+00
 Coeff:      0.318D-05-0.942D-04-0.201D-03-0.253D-03-0.130D-02-0.506D-02
 Coeff:     -0.726D-02 0.142D-01 0.211D+00 0.789D+00
 Gap=     0.209 Goal=   None    Shift=    0.000
 RMSDP=1.14D-10 MaxDP=2.26D-09 DE= 5.46D-12 OVMax= 1.42D-08

 Cycle  18  Pass 1  IDiag  1:
 RMSU=  7.74D-11    CP:  1.00D+00  9.68D-01  6.48D-01  4.73D-01  7.58D-01
                    CP:  7.58D-01  8.16D-01  7.72D-01  9.58D-01  9.16D-01
 E= -619.341347022490     Delta-E=       -0.000000000007 Rises=F Damp=F
 DIIS: error= 3.13D-10 at cycle  11 NSaved=  11.
 NSaved=11 IEnMin= 8 EnMin= -619.341347022497     IErMin=11 ErrMin= 3.13D-10
 ErrMax= 3.13D-10  0.00D+00 EMaxC= 1.00D-01 BMatC= 5.55D-17 BMatP= 2.95D-16
 IDIUse=1 WtCom= 1.00D+00 WtEn= 0.00D+00
 Coeff-Com:  0.308D-06 0.323D-04 0.548D-04 0.554D-04-0.472D-03-0.311D-02
 Coeff-Com: -0.119D-01-0.136D-01 0.387D-01 0.368D+00 0.622D+00
 Coeff:      0.308D-06 0.323D-04 0.548D-04 0.554D-04-0.472D-03-0.311D-02
 Coeff:     -0.119D-01-0.136D-01 0.387D-01 0.368D+00 0.622D+00
 Gap=     0.209 Goal=   None    Shift=    0.000
 RMSDP=3.89D-11 MaxDP=8.09D-10 DE=-6.59D-12 OVMax= 3.52D-09

 SCF Done:  E(RB3LYP) =  -619.341347022     A.U. after   18 cycles
            NFock= 18  Conv=0.39D-10     -V/T= 2.0099
 KE= 6.132660317935D+02 PE=-3.610140320622D+03 EE= 1.289205274003D+03
 Leave Link  502 at Mon Jul 28 11:50:27 2025, MaxMem=   104857600 cpu:             258.8 elap:               7.3
 (Enter /opt/linux/rocky/8/software/gaussian/16c01_avx2/g16/l601.exe)
 Copying SCF densities to generalized density rwf, IOpCl= 0 IROHF=0.

 **********************************************************************

            Population analysis using the SCF Density.

 **********************************************************************

 Orbital symmetries:
       Occupied  (A") (A') (A") (A') (A') (A") (A") (A') (A') (A')
                 (A") (A") (A') (A') (A") (A') (A') (A') (A") (A')
                 (A") (A') (A') (A") (A') (A") (A") (A') (A') (A")
                 (A') (A') (A') (A") (A") (A') (A') (A") (A') (A")
                 (A') (A') (A") (A") (A') (A') (A") (A') (A') (A")
                 (A") (A') (A') (A') (A") (A")
       Virtual   (A') (A") (A") (A') (A') (A") (A') (A') (A") (A')
                 (A") (A') (A') (A") (A') (A") (A") (A') (A') (A")
                 (A') (A") (A') (A") (A') (A") (A') (A") (A') (A")
                 (A') (A") (A') (A") (A") (A') (A") (A') (A') (A")
                 (A') (A') (A") (A') (A') (A") (A') (A') (A") (A")
                 (A') (A") (A') (A") (A') (A') (A") (A') (A") (A')
                 (A") (A') (A") (A") (A') (A") (A') (A') (A") (A')
                 (A') (A") (A') (A") (A") (A') (A") (A') (A") (A")
                 (A') (A') (A') (A") (A') (A') (A") (A") (A") (A')
                 (A') (A") (A') (A") (A") (A') (A") (A') (A") (A')
                 (A') (A") (A') (A") (A') (A') (A") (A') (A") (A")
                 (A') (A') (A") (A') (A") (A') (A') (A") (A') (A")
                 (A') (A') (A") (A") (A") (A') (A') (A") (A") (A')
                 (A') (A") (A") (A') (A') (A") (A') (A") (A') (A")
                 (A') (A') (A") (A') (A') (A") (A") (A') (A') (A')
                 (A") (A') (A') (A') (A") (A') (A") (A") (A") (A')
                 (A') (A') (A") (A") (A") (A') (A') (A") (A') (A")
                 (A') (A") (A") (A') (A') (A') (A") (A") (A") (A')
                 (A") (A') (A') (A") (A') (A') (A") (A') (A') (A")
                 (A') (A") (A") (A') (A') (A") (A') (A") (A") (A')
                 (A") (A') (A") (A") (A') (A") (A") (A') (A") (A")
                 (A") (A') (A') (A") (A') (A") (A") (A') (A') (A")
                 (A') (A") (A') (A") (A') (A') (A") (A") (A") (A')
                 (A') (A') (A') (A") (A') (A") (A") (A") (A') (A")
                 (A') (A') (A") (A") (A') (A") (A") (A') (A') (A")
                 (A') (A') (A") (A') (A') (A") (A') (A") (A') (A")
                 (A') (A") (A") (A')
 The electronic state is 1-A'.
 Alpha  occ. eigenvalues --  -10.19058 -10.19058 -10.18962 -10.18961 -10.18640
 Alpha  occ. eigenvalues --  -10.18640 -10.18446 -10.18445 -10.18163 -10.18150
 Alpha  occ. eigenvalues --  -10.18109 -10.17890 -10.17885 -10.17794 -10.17738
 Alpha  occ. eigenvalues --  -10.17227  -0.86101  -0.83982  -0.80666  -0.76286
 Alpha  occ. eigenvalues --   -0.74952  -0.73527  -0.72307  -0.68617  -0.64183
 Alpha  occ. eigenvalues --   -0.62077  -0.59739  -0.58734  -0.56104  -0.54854
 Alpha  occ. eigenvalues --   -0.49765  -0.48026  -0.46814  -0.46692  -0.44757
 Alpha  occ. eigenvalues --   -0.43545  -0.42724  -0.42283  -0.40915  -0.40623
 Alpha  occ. eigenvalues --   -0.39969  -0.38967  -0.38859  -0.36956  -0.35123
 Alpha  occ. eigenvalues --   -0.34817  -0.34689  -0.33191  -0.32348  -0.32299
 Alpha  occ. eigenvalues --   -0.32146  -0.30398  -0.23987  -0.23089  -0.22946
 Alpha  occ. eigenvalues --   -0.21721
 Alpha virt. eigenvalues --   -0.00835   0.00319   0.00559   0.00883   0.08973
 Alpha virt. eigenvalues --    0.10434   0.11208   0.11764   0.12333   0.13195
 Alpha virt. eigenvalues --    0.13738   0.15049   0.15784   0.16085   0.16626
 Alpha virt. eigenvalues --    0.17593   0.18751   0.18959   0.20082   0.20129
 Alpha virt. eigenvalues --    0.21112   0.21270   0.23033   0.23466   0.25410
 Alpha virt. eigenvalues --    0.26042   0.27016   0.28680   0.32833   0.33519
 Alpha virt. eigenvalues --    0.34265   0.34795   0.35511   0.35675   0.36453
 Alpha virt. eigenvalues --    0.37521   0.43721   0.46091   0.48213   0.50984
 Alpha virt. eigenvalues --    0.51720   0.51921   0.52945   0.53620   0.54090
 Alpha virt. eigenvalues --    0.54948   0.55717   0.57174   0.57652   0.57960
 Alpha virt. eigenvalues --    0.58709   0.58936   0.60379   0.61253   0.61407
 Alpha virt. eigenvalues --    0.62451   0.62483   0.63785   0.63984   0.65022
 Alpha virt. eigenvalues --    0.65104   0.66466   0.68050   0.71703   0.72154
 Alpha virt. eigenvalues --    0.72299   0.74247   0.76217   0.76900   0.77446
 Alpha virt. eigenvalues --    0.78698   0.79000   0.79623   0.81417   0.82036
 Alpha virt. eigenvalues --    0.82419   0.82980   0.83402   0.83557   0.84073
 Alpha virt. eigenvalues --    0.86040   0.87250   0.87617   0.88907   0.89210
 Alpha virt. eigenvalues --    0.89498   0.90909   0.92706   0.93368   0.93852
 Alpha virt. eigenvalues --    0.95389   0.95414   0.97086   0.98933   1.01437
 Alpha virt. eigenvalues --    1.02922   1.04129   1.04297   1.06815   1.06904
 Alpha virt. eigenvalues --    1.09971   1.12312   1.12434   1.13163   1.14496
 Alpha virt. eigenvalues --    1.19127   1.23502   1.24662   1.24830   1.27554
 Alpha virt. eigenvalues --    1.28704   1.32328   1.33539   1.35388   1.37275
 Alpha virt. eigenvalues --    1.38013   1.39891   1.39891   1.42842   1.43666
 Alpha virt. eigenvalues --    1.43801   1.44918   1.45240   1.47068   1.52583
 Alpha virt. eigenvalues --    1.54173   1.55988   1.60381   1.65841   1.67319
 Alpha virt. eigenvalues --    1.69389   1.71625   1.75434   1.76580   1.77332
 Alpha virt. eigenvalues --    1.78689   1.79616   1.79787   1.80091   1.81486
 Alpha virt. eigenvalues --    1.82274   1.85054   1.85332   1.86431   1.89215
 Alpha virt. eigenvalues --    1.89218   1.91760   1.92097   1.93412   1.94319
 Alpha virt. eigenvalues --    1.97189   1.97269   1.99065   2.00937   2.01098
 Alpha virt. eigenvalues --    2.01180   2.03327   2.04711   2.08796   2.08863
 Alpha virt. eigenvalues --    2.11436   2.11588   2.12001   2.12518   2.15125
 Alpha virt. eigenvalues --    2.16095   2.20382   2.20485   2.21754   2.23335
 Alpha virt. eigenvalues --    2.23494   2.23933   2.26442   2.27251   2.27380
 Alpha virt. eigenvalues --    2.29685   2.30848   2.32959   2.34124   2.34856
 Alpha virt. eigenvalues --    2.36123   2.37585   2.38176   2.39491   2.40818
 Alpha virt. eigenvalues --    2.42577   2.43569   2.44158   2.44280   2.45860
 Alpha virt. eigenvalues --    2.46657   2.48133   2.49866   2.50668   2.52184
 Alpha virt. eigenvalues --    2.53608   2.53678   2.54471   2.59121   2.60948
 Alpha virt. eigenvalues --    2.62077   2.62124   2.63448   2.63975   2.64000
 Alpha virt. eigenvalues --    2.65312   2.67149   2.67452   2.68345   2.70282
 Alpha virt. eigenvalues --    2.71351   2.72663   2.73685   2.76983   2.77078
 Alpha virt. eigenvalues --    2.81225   2.81881   2.83178   2.85986   2.86027
 Alpha virt. eigenvalues --    2.90480   2.91774   2.93241   2.93376   3.00772
 Alpha virt. eigenvalues --    3.06138   3.06774   3.08553   3.15884   3.19614
 Alpha virt. eigenvalues --    3.24460   3.25779   3.26157   3.26761   3.30172
 Alpha virt. eigenvalues --    3.30357   3.32115   3.32520   3.38626   3.42039
 Alpha virt. eigenvalues --    3.46791   3.48675   3.50110   3.50394   3.50458
 Alpha virt. eigenvalues --    3.52994   3.80448   3.83081   4.10689   4.15901
 Alpha virt. eigenvalues --    4.16419   4.25244   4.31033   4.31735   4.43164
 Alpha virt. eigenvalues --    4.47556   4.47999   4.49052   4.57186   4.66757
 Alpha virt. eigenvalues --    4.70806   4.74744   4.83705   4.85724
          Condensed to atoms (all electrons):
               1          2          3          4          5          6
     1  C    4.900848   0.498968  -0.035961  -0.047316  -0.036870   0.545985
     2  C    0.498968   4.900848   0.545985  -0.036870  -0.047316  -0.035961
     3  C   -0.035961   0.545985   4.758378   0.535728  -0.035140  -0.035259
     4  C   -0.047316  -0.036870   0.535728   4.943296   0.490272  -0.035140
     5  C   -0.036870  -0.047316  -0.035140   0.490272   4.943296   0.535728
     6  C    0.545985  -0.035961  -0.035259  -0.035140   0.535728   4.758378
     7  H    0.364025  -0.039646   0.004703   0.000484   0.005832  -0.044769
     8  H   -0.039646   0.364025  -0.044769   0.005832   0.000484   0.004703
     9  H    0.000540   0.005487  -0.046077   0.365821  -0.041387   0.004269
    10  H    0.005487   0.000540   0.004269  -0.041387   0.365821  -0.046077
    11  C    0.007010  -0.052163   0.377648  -0.059141   0.005580   0.000496
    12  H   -0.000236   0.004265  -0.026352  -0.004353  -0.000140  -0.000022
    13  H   -0.000061  -0.006129  -0.032515   0.005204  -0.000219  -0.000012
    14  C   -0.052163   0.007010   0.000496   0.005580  -0.059141   0.377648
    15  H    0.004265  -0.000236  -0.000022  -0.000140  -0.004353  -0.026352
    16  H   -0.006129  -0.000061  -0.000012  -0.000219   0.005204  -0.032515
    17  C    0.000095  -0.012814  -0.051316  -0.005397   0.000942   0.000200
    18  H   -0.000023   0.000310   0.005350   0.000129  -0.000004  -0.000005
    19  H    0.000005   0.000150  -0.005089   0.003515  -0.000276  -0.000013
    20  C   -0.012814   0.000095   0.000200   0.000942  -0.005397  -0.051316
    21  H    0.000150   0.000005  -0.000013  -0.000276   0.003515  -0.005089
    22  H    0.000310  -0.000023  -0.000005  -0.000004   0.000129   0.005350
    23  C    0.007615  -0.001607   0.000625  -0.000488  -0.006216  -0.012740
    24  C   -0.004210  -0.004210   0.001930  -0.003469  -0.003469   0.001930
    25  C    0.001707  -0.000439   0.000265   0.000026   0.000171  -0.003754
    26  C   -0.001607   0.007615  -0.012740  -0.006216  -0.000488   0.000625
    27  H   -0.000290  -0.000290  -0.001992   0.003447   0.003447  -0.001992
    28  C    0.000100   0.000100  -0.000110  -0.000014  -0.000014  -0.000110
    29  H   -0.000117  -0.000015   0.000004  -0.000000   0.000000   0.000109
    30  C   -0.000439   0.001707  -0.003754   0.000171   0.000026   0.000265
    31  H    0.000001   0.000001  -0.000002   0.000000   0.000000  -0.000002
    32  H   -0.000015  -0.000117   0.000109   0.000000  -0.000000   0.000004
               7          8          9         10         11         12
     1  C    0.364025  -0.039646   0.000540   0.005487   0.007010  -0.000236
     2  C   -0.039646   0.364025   0.005487   0.000540  -0.052163   0.004265
     3  C    0.004703  -0.044769  -0.046077   0.004269   0.377648  -0.026352
     4  C    0.000484   0.005832   0.365821  -0.041387  -0.059141  -0.004353
     5  C    0.005832   0.000484  -0.041387   0.365821   0.005580  -0.000140
     6  C   -0.044769   0.004703   0.004269  -0.046077   0.000496  -0.000022
     7  H    0.639674  -0.007174   0.000017  -0.000207  -0.000166   0.000003
     8  H   -0.007174   0.639674  -0.000207   0.000017  -0.009853   0.000081
     9  H    0.000017  -0.000207   0.645043  -0.006834  -0.007010   0.003830
    10  H   -0.000207   0.000017  -0.006834   0.645043  -0.000179  -0.000004
    11  C   -0.000166  -0.009853  -0.007010  -0.000179   5.023710   0.358241
    12  H    0.000003   0.000081   0.003830  -0.000004   0.358241   0.638194
    13  H   -0.000014   0.006366  -0.000004   0.000003   0.369173  -0.034185
    14  C   -0.009853  -0.000166  -0.000179  -0.007010   0.000010  -0.000000
    15  H    0.000081   0.000003  -0.000004   0.003830  -0.000000  -0.000000
    16  H    0.006366  -0.000014   0.000003  -0.000004  -0.000000  -0.000000
    17  C    0.000000   0.000278  -0.000411   0.000010   0.339690  -0.036370
    18  H   -0.000001  -0.000019  -0.000019  -0.000000  -0.035097   0.001526
    19  H   -0.000000   0.000004   0.000594  -0.000001  -0.034281  -0.007760
    20  C    0.000278   0.000000   0.000010  -0.000411  -0.000003  -0.000000
    21  H    0.000004  -0.000000  -0.000001   0.000594   0.000000  -0.000000
    22  H   -0.000019  -0.000001  -0.000000  -0.000019  -0.000000  -0.000000
    23  C   -0.000586  -0.000098  -0.000013   0.000316   0.000014  -0.000001
    24  C   -0.000155  -0.000155  -0.000456  -0.000456  -0.009801   0.000251
    25  C    0.001844  -0.000060   0.000001  -0.000000   0.000041  -0.000000
    26  C   -0.000098  -0.000586   0.000316  -0.000013  -0.044457   0.004512
    27  H   -0.000020  -0.000020   0.000518   0.000518   0.000268  -0.000062
    28  C    0.000266   0.000266  -0.000000  -0.000000   0.000064   0.000002
    29  H    0.000140  -0.000002  -0.000000   0.000000   0.000000   0.000000
    30  C   -0.000060   0.001844  -0.000000   0.000001  -0.001037  -0.000052
    31  H   -0.000007  -0.000007  -0.000000  -0.000000   0.000002  -0.000000
    32  H   -0.000002   0.000140   0.000000  -0.000000   0.000018  -0.000020
              13         14         15         16         17         18
     1  C   -0.000061  -0.052163   0.004265  -0.006129   0.000095  -0.000023
     2  C   -0.006129   0.007010  -0.000236  -0.000061  -0.012814   0.000310
     3  C   -0.032515   0.000496  -0.000022  -0.000012  -0.051316   0.005350
     4  C    0.005204   0.005580  -0.000140  -0.000219  -0.005397   0.000129
     5  C   -0.000219  -0.059141  -0.004353   0.005204   0.000942  -0.000004
     6  C   -0.000012   0.377648  -0.026352  -0.032515   0.000200  -0.000005
     7  H   -0.000014  -0.009853   0.000081   0.006366   0.000000  -0.000001
     8  H    0.006366  -0.000166   0.000003  -0.000014   0.000278  -0.000019
     9  H   -0.000004  -0.000179  -0.000004   0.000003  -0.000411  -0.000019
    10  H    0.000003  -0.007010   0.003830  -0.000004   0.000010  -0.000000
    11  C    0.369173   0.000010  -0.000000  -0.000000   0.339690  -0.035097
    12  H   -0.034185  -0.000000  -0.000000  -0.000000  -0.036370   0.001526
    13  H    0.632054  -0.000000  -0.000000   0.000000  -0.035924  -0.007162
    14  C   -0.000000   5.023710   0.358241   0.369173  -0.000003  -0.000000
    15  H   -0.000000   0.358241   0.638194  -0.034185  -0.000000  -0.000000
    16  H    0.000000   0.369173  -0.034185   0.632054   0.000000  -0.000000
    17  C   -0.035924  -0.000003  -0.000000   0.000000   5.060879   0.359810
    18  H   -0.007162  -0.000000  -0.000000  -0.000000   0.359810   0.635347
    19  H    0.005394   0.000000  -0.000000  -0.000000   0.366045  -0.034136
    20  C    0.000000   0.339690  -0.036370  -0.035924  -0.000183   0.000002
    21  H   -0.000000  -0.034281  -0.007760   0.005394   0.000002  -0.000000
    22  H   -0.000000  -0.035097   0.001526  -0.007162   0.000002  -0.000000
    23  C    0.000019  -0.044457   0.004512  -0.003818   0.006215  -0.000184
    24  C   -0.000039  -0.009801   0.000251  -0.000039  -0.048348   0.004010
    25  C   -0.000002  -0.001037  -0.000052   0.002207   0.000593  -0.000005
    26  C   -0.003818   0.000014  -0.000001   0.000019   0.363928  -0.027307
    27  H    0.000005   0.000268  -0.000062   0.000005  -0.010187   0.000101
    28  C   -0.000061   0.000064   0.000002  -0.000061   0.005911   0.000041
    29  H   -0.000000   0.000018  -0.000020   0.000265   0.000009  -0.000000
    30  C    0.002207   0.000041  -0.000000  -0.000002  -0.058107  -0.005528
    31  H    0.000000   0.000002  -0.000000   0.000000  -0.000186  -0.000002
    32  H    0.000265   0.000000   0.000000  -0.000000  -0.008374   0.004431
              19         20         21         22         23         24
     1  C    0.000005  -0.012814   0.000150   0.000310   0.007615  -0.004210
     2  C    0.000150   0.000095   0.000005  -0.000023  -0.001607  -0.004210
     3  C   -0.005089   0.000200  -0.000013  -0.000005   0.000625   0.001930
     4  C    0.003515   0.000942  -0.000276  -0.000004  -0.000488  -0.003469
     5  C   -0.000276  -0.005397   0.003515   0.000129  -0.006216  -0.003469
     6  C   -0.000013  -0.051316  -0.005089   0.005350  -0.012740   0.001930
     7  H   -0.000000   0.000278   0.000004  -0.000019  -0.000586  -0.000155
     8  H    0.000004   0.000000  -0.000000  -0.000001  -0.000098  -0.000155
     9  H    0.000594   0.000010  -0.000001  -0.000000  -0.000013  -0.000456
    10  H   -0.000001  -0.000411   0.000594  -0.000019   0.000316  -0.000456
    11  C   -0.034281  -0.000003   0.000000  -0.000000   0.000014  -0.009801
    12  H   -0.007760  -0.000000  -0.000000  -0.000000  -0.000001   0.000251
    13  H    0.005394   0.000000  -0.000000  -0.000000   0.000019  -0.000039
    14  C    0.000000   0.339690  -0.034281  -0.035097  -0.044457  -0.009801
    15  H   -0.000000  -0.036370  -0.007760   0.001526   0.004512   0.000251
    16  H   -0.000000  -0.035924   0.005394  -0.007162  -0.003818  -0.000039
    17  C    0.366045  -0.000183   0.000002   0.000002   0.006215  -0.048348
    18  H   -0.034136   0.000002  -0.000000  -0.000000  -0.000184   0.004010
    19  H    0.630955   0.000002  -0.000006  -0.000000   0.000073  -0.006624
    20  C    0.000002   5.060879   0.366045   0.359810   0.363928  -0.048348
    21  H   -0.000006   0.366045   0.630955  -0.034136  -0.030568  -0.006624
    22  H   -0.000000   0.359810  -0.034136   0.635347  -0.027307   0.004010
    23  C    0.000073   0.363928  -0.030568  -0.027307   4.735154   0.517671
    24  C   -0.006624  -0.048348  -0.006624   0.004010   0.517671   4.992791
    25  C   -0.000004  -0.058107   0.004630  -0.005528   0.539547  -0.042684
    26  C   -0.030568   0.006215   0.000073  -0.000184  -0.021419   0.517671
    27  H    0.005562  -0.010187   0.005562   0.000101  -0.047007   0.363285
    28  C   -0.000220   0.005911  -0.000220   0.000041  -0.020413  -0.051086
    29  H   -0.000000  -0.008374   0.000036   0.004431  -0.045470   0.005880
    30  C    0.004630   0.000593  -0.000004  -0.000005  -0.040460  -0.042684
    31  H    0.000003  -0.000186   0.000003  -0.000002   0.003633   0.001113
    32  H    0.000036   0.000009  -0.000000  -0.000000   0.000619   0.005880
              25         26         27         28         29         30
     1  C    0.001707  -0.001607  -0.000290   0.000100  -0.000117  -0.000439
     2  C   -0.000439   0.007615  -0.000290   0.000100  -0.000015   0.001707
     3  C    0.000265  -0.012740  -0.001992  -0.000110   0.000004  -0.003754
     4  C    0.000026  -0.006216   0.003447  -0.000014  -0.000000   0.000171
     5  C    0.000171  -0.000488   0.003447  -0.000014   0.000000   0.000026
     6  C   -0.003754   0.000625  -0.001992  -0.000110   0.000109   0.000265
     7  H    0.001844  -0.000098  -0.000020   0.000266   0.000140  -0.000060
     8  H   -0.000060  -0.000586  -0.000020   0.000266  -0.000002   0.001844
     9  H    0.000001   0.000316   0.000518  -0.000000  -0.000000  -0.000000
    10  H   -0.000000  -0.000013   0.000518  -0.000000   0.000000   0.000001
    11  C    0.000041  -0.044457   0.000268   0.000064   0.000000  -0.001037
    12  H   -0.000000   0.004512  -0.000062   0.000002   0.000000  -0.000052
    13  H   -0.000002  -0.003818   0.000005  -0.000061  -0.000000   0.002207
    14  C   -0.001037   0.000014   0.000268   0.000064   0.000018   0.000041
    15  H   -0.000052  -0.000001  -0.000062   0.000002  -0.000020  -0.000000
    16  H    0.002207   0.000019   0.000005  -0.000061   0.000265  -0.000002
    17  C    0.000593   0.363928  -0.010187   0.005911   0.000009  -0.058107
    18  H   -0.000005  -0.027307   0.000101   0.000041  -0.000000  -0.005528
    19  H   -0.000004  -0.030568   0.005562  -0.000220  -0.000000   0.004630
    20  C   -0.058107   0.006215  -0.010187   0.005911  -0.008374   0.000593
    21  H    0.004630   0.000073   0.005562  -0.000220   0.000036  -0.000004
    22  H   -0.005528  -0.000184   0.000101   0.000041   0.004431  -0.000005
    23  C    0.539547  -0.021419  -0.047007  -0.020413  -0.045470  -0.040460
    24  C   -0.042684   0.517671   0.363285  -0.051086   0.005880  -0.042684
    25  C    4.910068  -0.040460   0.006482   0.521303   0.364168  -0.041861
    26  C   -0.040460   4.735154  -0.047007  -0.020413   0.000619   0.539547
    27  H    0.006482  -0.047007   0.651380   0.000206  -0.000197   0.006482
    28  C    0.521303  -0.020413   0.000206   4.846744  -0.043745   0.521303
    29  H    0.364168   0.000619  -0.000197  -0.043745   0.651599   0.004740
    30  C   -0.041861   0.539547   0.006482   0.521303   0.004740   4.910068
    31  H   -0.038387   0.003633   0.000019   0.361884  -0.006025  -0.038387
    32  H    0.004740  -0.045470  -0.000197  -0.043745  -0.000193   0.364168
              31         32
     1  C    0.000001  -0.000015
     2  C    0.000001  -0.000117
     3  C   -0.000002   0.000109
     4  C    0.000000   0.000000
     5  C    0.000000  -0.000000
     6  C   -0.000002   0.000004
     7  H   -0.000007  -0.000002
     8  H   -0.000007   0.000140
     9  H   -0.000000   0.000000
    10  H   -0.000000  -0.000000
    11  C    0.000002   0.000018
    12  H   -0.000000  -0.000020
    13  H    0.000000   0.000265
    14  C    0.000002   0.000000
    15  H   -0.000000   0.000000
    16  H    0.000000  -0.000000
    17  C   -0.000186  -0.008374
    18  H   -0.000002   0.004431
    19  H    0.000003   0.000036
    20  C   -0.000186   0.000009
    21  H    0.000003  -0.000000
    22  H   -0.000002  -0.000000
    23  C    0.003633   0.000619
    24  C    0.001113   0.005880
    25  C   -0.038387   0.004740
    26  C    0.003633  -0.045470
    27  H    0.000019  -0.000197
    28  C    0.361884  -0.043745
    29  H   -0.006025  -0.000193
    30  C   -0.038387   0.364168
    31  H    0.640449  -0.006025
    32  H   -0.006025   0.651599
 Mulliken charges:
               1
     1  C   -0.099214
     2  C   -0.099214
     3  C    0.095439
     4  C   -0.120019
     5  C   -0.120019
     6  C    0.095439
     7  H    0.079060
     8  H    0.079060
     9  H    0.076151
    10  H    0.076151
    11  C   -0.228776
    12  H    0.098652
    13  H    0.099455
    14  C   -0.228776
    15  H    0.098652
    16  H    0.099455
    17  C   -0.236990
    18  H    0.098434
    19  H    0.102011
    20  C   -0.236990
    21  H    0.102011
    22  H    0.098434
    23  C    0.122911
    24  C   -0.134015
    25  C   -0.125412
    26  C    0.122911
    27  H    0.071855
    28  C   -0.084000
    29  H    0.072142
    30  C   -0.125412
    31  H    0.078475
    32  H    0.072142
 Sum of Mulliken charges =  -0.00000
 Mulliken charges with hydrogens summed into heavy atoms:
               1
     1  C   -0.020154
     2  C   -0.020154
     3  C    0.095439
     4  C   -0.043868
     5  C   -0.043868
     6  C    0.095439
    11  C   -0.030670
    14  C   -0.030670
    17  C   -0.036545
    20  C   -0.036545
    23  C    0.122911
    24  C   -0.062161
    25  C   -0.053270
    26  C    0.122911
    28  C   -0.005525
    30  C   -0.053270
 Electronic spatial extent (au):  <R**2>=           2718.6167
 Charge=             -0.0000 electrons
 Dipole moment (field-independent basis, Debye):
    X=             -0.1982    Y=             -0.2411    Z=             -0.0000  Tot=              0.3121
 Quadrupole moment (field-independent basis, Debye-Ang):
   XX=            -97.3151   YY=            -92.5404   ZZ=            -86.6648
   XY=             -6.9257   XZ=             -0.0000   YZ=              0.0000
 Traceless Quadrupole moment (field-independent basis, Debye-Ang):
   XX=             -5.1416   YY=             -0.3670   ZZ=              5.5086
   XY=             -6.9257   XZ=             -0.0000   YZ=              0.0000
 Octapole moment (field-independent basis, Debye-Ang**2):
  XXX=             -9.0375  YYY=              0.9785  ZZZ=              0.0000  XYY=              1.2844
  XXY=             -0.3666  XXZ=             -0.0000  XZZ=             -3.4708  YZZ=             -0.2724
  YYZ=              0.0000  XYZ=              0.0000
 Hexadecapole moment (field-independent basis, Debye-Ang**3):
 XXXX=          -1543.1805 YYYY=           -545.6816 ZZZZ=          -1666.8721 XXXY=            -68.1414
 XXXZ=             -0.0000 YYYX=            -20.3660 YYYZ=             -0.0000 ZZZX=              0.0000
 ZZZY=              0.0000 XXYY=           -345.6972 XXZZ=           -524.7497 YYZZ=           -371.2542
 XXYZ=             -0.0000 YYXZ=              0.0000 ZZXY=            -17.1771
 N-N= 1.088327667803D+03 E-N=-3.610140320679D+03  KE= 6.132660317935D+02
 Symmetry A'   KE= 3.450717598646D+02
 Symmetry A"   KE= 2.681942719289D+02
 No NMR shielding tensors so no spin-rotation constants.
 Leave Link  601 at Mon Jul 28 11:50:28 2025, MaxMem=   104857600 cpu:               4.5 elap:               0.2
 (Enter /opt/linux/rocky/8/software/gaussian/16c01_avx2/g16/l701.exe)
 ... and contract with generalized density number  0.
 Compute integral first derivatives.
 PrsmSu:  requested number of processors reduced to:  29 ShMem   1 Linda.
 Leave Link  701 at Mon Jul 28 11:50:28 2025, MaxMem=   104857600 cpu:               5.9 elap:               0.2
 (Enter /opt/linux/rocky/8/software/gaussian/16c01_avx2/g16/l702.exe)
 L702 exits ... SP integral derivatives will be done elsewhere.
 Leave Link  702 at Mon Jul 28 11:50:28 2025, MaxMem=   104857600 cpu:               0.2 elap:               0.0
 (Enter /opt/linux/rocky/8/software/gaussian/16c01_avx2/g16/l703.exe)
 Integral derivatives from FoFJK, PRISM(SPDF).
 Compute integral first derivatives, UseDBF=F ICtDFT=           0.
 Calling FoFJK, ICntrl=      2127 FMM=F ISym2X=1 I1Cent= 0 IOpClX= 0 NMat=1 NMatS=1 NMatT=0.
 FoFJK:  IHMeth= 1 ICntrl=    2127 DoSepK=F KAlg= 0 I1Cent=           0 FoldK=F
 IRaf=         0 NMat=       1 IRICut=       1 DoRegI=T DoRafI=F ISym2E= 1 IDoP0=0 IntGTp=1.
 FoFCou: FMM=F IPFlag=           0 FMFlag=      100000 FMFlg1=         800
         NFxFlg=           0 DoJE=F BraDBF=F KetDBF=F FulRan=T
         wScrn=  0.000000 ICntrl=      2127 IOpCl=  0 I1Cent=           0 NGrid=           0
         NMat0=    1 NMatS0=      1 NMatT0=    0 NMatD0=    1 NMtDS0=    0 NMtDT0=    0
 Petite list used in FoFCou.
 Leave Link  703 at Mon Jul 28 11:50:29 2025, MaxMem=   104857600 cpu:              35.0 elap:               1.0
 (Enter /opt/linux/rocky/8/software/gaussian/16c01_avx2/g16/l716.exe)
 Dipole        =-7.79615573D-02-9.48742908D-02 0.00000000D+00
 ***** Axes restored to original set *****
 -------------------------------------------------------------------
 Center     Atomic                   Forces (Hartrees/Bohr)
 Number     Number              X              Y              Z
 -------------------------------------------------------------------
      1        6           0.000000719    0.000000072    0.000000039
      2        6           0.000000719    0.000000072   -0.000000039
      3        6           0.000000369   -0.000001382   -0.000000457
      4        6          -0.000000641   -0.000000503   -0.000001901
      5        6          -0.000000641   -0.000000503    0.000001901
      6        6           0.000000369   -0.000001382    0.000000457
      7        1           0.000001254   -0.000000462   -0.000000264
      8        1           0.000001254   -0.000000462    0.000000264
      9        1          -0.000000573   -0.000001503    0.000000200
     10        1          -0.000000573   -0.000001503   -0.000000200
     11        6          -0.000000492   -0.000000902    0.000000435
     12        1          -0.000000069   -0.000000597   -0.000000060
     13        1           0.000000830   -0.000000370    0.000000150
     14        6          -0.000000492   -0.000000902   -0.000000435
     15        1          -0.000000069   -0.000000597    0.000000060
     16        1           0.000000830   -0.000000370   -0.000000150
     17        6           0.000000763    0.000001161   -0.000000991
     18        1          -0.000000693    0.000000204    0.000000249
     19        1          -0.000001036   -0.000000460    0.000000026
     20        6           0.000000763    0.000001161    0.000000991
     21        1          -0.000001036   -0.000000460   -0.000000026
     22        1          -0.000000693    0.000000204   -0.000000249
     23        6          -0.000000289    0.000000224   -0.000001656
     24        6          -0.000001264    0.000000818    0.000000000
     25        6           0.000000470    0.000000691    0.000000775
     26        6          -0.000000289    0.000000224    0.000001656
     27        1          -0.000000983    0.000000218   -0.000000000
     28        6          -0.000000217    0.000001717   -0.000000000
     29        1           0.000000285    0.000001483   -0.000000104
     30        6           0.000000470    0.000000691   -0.000000775
     31        1           0.000000671    0.000001932    0.000000000
     32        1           0.000000285    0.000001483    0.000000104
 -------------------------------------------------------------------
 Cartesian Forces:  Max     0.000001932 RMS     0.000000797
 Leave Link  716 at Mon Jul 28 11:50:30 2025, MaxMem=   104857600 cpu:               0.4 elap:               0.0
 (Enter /opt/linux/rocky/8/software/gaussian/16c01_avx2/g16/l103.exe)

 GradGradGradGradGradGradGradGradGradGradGradGradGradGradGradGradGradGrad
 Berny optimization.
 FormGI is forming the generalized inverse of G from B-inverse, IUseBI=4.
 Internal  Forces:  Max     0.000001333 RMS     0.000000241
 Search for a local minimum.
 Step number   1 out of a maximum of  192
 All quantities printed in internal units (Hartrees-Bohrs-Radians)
 RMS Force = .24115D-06 SwitMx=.10000D-02 MixMth= 2
 Mixed Optimization -- En-DIIS/RFO-DIIS
 Second derivative matrix not updated -- first step.
 ITU=  0
     Eigenvalues ---    0.00453   0.00484   0.00641   0.01504   0.01653
     Eigenvalues ---    0.01666   0.01925   0.01986   0.02044   0.02095
     Eigenvalues ---    0.02098   0.02100   0.02116   0.02121   0.02122
     Eigenvalues ---    0.02128   0.02133   0.02168   0.02172   0.02447
     Eigenvalues ---    0.03135   0.04021   0.04089   0.04814   0.05198
     Eigenvalues ---    0.05421   0.06013   0.06184   0.07288   0.08305
     Eigenvalues ---    0.08476   0.08789   0.09042   0.09389   0.09417
     Eigenvalues ---    0.10561   0.12771   0.14497   0.15653   0.15695
     Eigenvalues ---    0.15813   0.15846   0.15871   0.15977   0.15996
     Eigenvalues ---    0.15996   0.16398   0.19983   0.21996   0.22053
     Eigenvalues ---    0.22588   0.22757   0.22958   0.23244   0.23614
     Eigenvalues ---    0.23881   0.24749   0.24840   0.28906   0.29931
     Eigenvalues ---    0.30726   0.31047   0.34084   0.34084   0.34102
     Eigenvalues ---    0.34102   0.34171   0.34171   0.34188   0.34188
     Eigenvalues ---    0.35027   0.35027   0.35088   0.35088   0.35180
     Eigenvalues ---    0.35180   0.35198   0.35507   0.39365   0.40593
     Eigenvalues ---    0.41045   0.41590   0.43626   0.44468   0.45279
     Eigenvalues ---    0.45444   0.45468   0.45696   0.45958   0.46404
 RFO step:  Lambda= 0.00000000D+00 EMin= 4.52585216D-03
 Linear search not attempted -- first point.
 Iteration  1 RMS(Cart)=  0.00000223 RMS(Int)=  0.00000000
 Iteration  2 RMS(Cart)=  0.00000000 RMS(Int)=  0.00000000
 ITry= 1 IFail=0 DXMaxC= 9.92D-06 DCOld= 1.00D+10 DXMaxT= 3.00D-01 DXLimC= 3.00D+00 Rises=F
 ClnCor:  largest displacement from symmetrization is 7.40D-09 for atom     5.
 Variable       Old X    -DE/DX   Delta X   Delta X   Delta X     New X
                                 (Linear)    (Quad)   (Total)
    R1        2.63081   0.00000   0.00000   0.00000   0.00000   2.63081
    R2        2.64768   0.00000   0.00000   0.00000   0.00000   2.64768
    R3        2.05384  -0.00000   0.00000  -0.00000  -0.00000   2.05384
    R4        2.64768   0.00000   0.00000   0.00000   0.00000   2.64768
    R5        2.05384  -0.00000   0.00000  -0.00000  -0.00000   2.05384
    R6        2.64938  -0.00000   0.00000  -0.00000  -0.00000   2.64938
    R7        2.85797  -0.00000   0.00000  -0.00000  -0.00000   2.85796
    R8        2.64106   0.00000   0.00000   0.00000   0.00000   2.64107
    R9        2.05631   0.00000   0.00000   0.00000   0.00000   2.05631
   R10        2.64938  -0.00000   0.00000  -0.00000  -0.00000   2.64938
   R11        2.05631   0.00000   0.00000   0.00000   0.00000   2.05631
   R12        2.85797  -0.00000   0.00000  -0.00000  -0.00000   2.85796
   R13        2.07189   0.00000   0.00000   0.00000   0.00000   2.07189
   R14        2.07014  -0.00000   0.00000  -0.00000  -0.00000   2.07014
   R15        2.99598  -0.00000   0.00000  -0.00000  -0.00000   2.99597
   R16        2.07189   0.00000   0.00000   0.00000   0.00000   2.07189
   R17        2.07014  -0.00000   0.00000  -0.00000  -0.00000   2.07014
   R18        2.99598  -0.00000   0.00000  -0.00000  -0.00000   2.99597
   R19        2.07158  -0.00000   0.00000  -0.00000  -0.00000   2.07158
   R20        2.07043   0.00000   0.00000   0.00000   0.00000   2.07043
   R21        2.87550   0.00000   0.00000   0.00000   0.00000   2.87550
   R22        2.07043   0.00000   0.00000   0.00000   0.00000   2.07043
   R23        2.07158  -0.00000   0.00000  -0.00000  -0.00000   2.07158
   R24        2.87550   0.00000   0.00000   0.00000   0.00000   2.87550
   R25        2.64790  -0.00000   0.00000  -0.00000  -0.00000   2.64790
   R26        2.64763   0.00000   0.00000   0.00000   0.00000   2.64763
   R27        2.64790  -0.00000   0.00000  -0.00000  -0.00000   2.64790
   R28        2.04859  -0.00000   0.00000  -0.00000  -0.00000   2.04859
   R29        2.64045   0.00000   0.00000   0.00000   0.00000   2.64046
   R30        2.05532   0.00000   0.00000   0.00000   0.00000   2.05532
   R31        2.64763   0.00000   0.00000   0.00000   0.00000   2.64763
   R32        2.64045   0.00000   0.00000   0.00000   0.00000   2.64046
   R33        2.05355   0.00000   0.00000   0.00000   0.00000   2.05355
   R34        2.05532   0.00000   0.00000   0.00000   0.00000   2.05532
    A1        2.10236   0.00000   0.00000   0.00000   0.00000   2.10236
    A2        2.08071  -0.00000   0.00000  -0.00000  -0.00000   2.08071
    A3        2.08590   0.00000   0.00000   0.00000   0.00000   2.08590
    A4        2.10236   0.00000   0.00000   0.00000   0.00000   2.10236
    A5        2.08071  -0.00000   0.00000  -0.00000  -0.00000   2.08071
    A6        2.08590   0.00000   0.00000   0.00000   0.00000   2.08590
    A7        2.04858  -0.00000   0.00000  -0.00000  -0.00000   2.04858
    A8        2.07411   0.00000   0.00000   0.00000   0.00000   2.07411
    A9        2.11590  -0.00000   0.00000  -0.00000  -0.00000   2.11590
   A10        2.09973   0.00000   0.00000   0.00000   0.00000   2.09974
   A11        2.08958   0.00000   0.00000   0.00000   0.00000   2.08958
   A12        2.08085  -0.00000   0.00000  -0.00000  -0.00000   2.08085
   A13        2.09973   0.00000   0.00000   0.00000   0.00000   2.09974
   A14        2.08085  -0.00000   0.00000  -0.00000  -0.00000   2.08085
   A15        2.08958   0.00000   0.00000   0.00000   0.00000   2.08958
   A16        2.04858  -0.00000   0.00000  -0.00000  -0.00000   2.04858
   A17        2.07411   0.00000   0.00000   0.00000   0.00000   2.07411
   A18        2.11590  -0.00000   0.00000  -0.00000  -0.00000   2.11590
   A19        1.96947  -0.00000   0.00000  -0.00000  -0.00000   1.96947
   A20        1.91861  -0.00000   0.00000  -0.00000  -0.00000   1.91861
   A21        1.91347  -0.00000   0.00000   0.00000   0.00000   1.91347
   A22        1.87259  -0.00000   0.00000  -0.00000  -0.00000   1.87259
   A23        1.88728   0.00000   0.00000   0.00000   0.00000   1.88728
   A24        1.90083   0.00000   0.00000   0.00000   0.00000   1.90083
   A25        1.96947  -0.00000   0.00000  -0.00000  -0.00000   1.96947
   A26        1.91861  -0.00000   0.00000  -0.00000  -0.00000   1.91861
   A27        1.91347  -0.00000   0.00000   0.00000   0.00000   1.91347
   A28        1.87259  -0.00000   0.00000  -0.00000  -0.00000   1.87259
   A29        1.88728   0.00000   0.00000   0.00000   0.00000   1.88728
   A30        1.90083   0.00000   0.00000   0.00000   0.00000   1.90083
   A31        1.88969   0.00000   0.00000   0.00000   0.00000   1.88970
   A32        1.88222   0.00000   0.00000   0.00000   0.00000   1.88222
   A33        1.98237   0.00000   0.00000   0.00000   0.00000   1.98237
   A34        1.86589  -0.00000   0.00000  -0.00000  -0.00000   1.86589
   A35        1.93852  -0.00000   0.00000  -0.00000  -0.00000   1.93852
   A36        1.90083  -0.00000   0.00000  -0.00000  -0.00000   1.90083
   A37        1.88222   0.00000   0.00000   0.00000   0.00000   1.88222
   A38        1.88969   0.00000   0.00000   0.00000   0.00000   1.88970
   A39        1.98237   0.00000   0.00000   0.00000   0.00000   1.98237
   A40        1.86589  -0.00000   0.00000  -0.00000  -0.00000   1.86589
   A41        1.90083  -0.00000   0.00000  -0.00000  -0.00000   1.90083
   A42        1.93852  -0.00000   0.00000  -0.00000  -0.00000   1.93852
   A43        2.08206   0.00000   0.00000  -0.00000  -0.00000   2.08206
   A44        2.13698  -0.00000   0.00000  -0.00000  -0.00000   2.13698
   A45        2.05468   0.00000   0.00000   0.00000   0.00000   2.05468
   A46        2.13809   0.00000   0.00000   0.00000   0.00000   2.13809
   A47        2.06818  -0.00000   0.00000  -0.00000  -0.00000   2.06818
   A48        2.06818  -0.00000   0.00000  -0.00000  -0.00000   2.06818
   A49        2.09936  -0.00000   0.00000  -0.00000  -0.00000   2.09936
   A50        2.09270   0.00000   0.00000   0.00000   0.00000   2.09270
   A51        2.09088  -0.00000   0.00000  -0.00000  -0.00000   2.09088
   A52        2.08206   0.00000   0.00000  -0.00000  -0.00000   2.08206
   A53        2.13698  -0.00000   0.00000  -0.00000  -0.00000   2.13698
   A54        2.05468   0.00000   0.00000   0.00000   0.00000   2.05468
   A55        2.10375  -0.00000   0.00000  -0.00000  -0.00000   2.10375
   A56        2.08909   0.00000   0.00000   0.00000   0.00000   2.08909
   A57        2.08909   0.00000   0.00000   0.00000   0.00000   2.08909
   A58        2.09936  -0.00000   0.00000  -0.00000  -0.00000   2.09936
   A59        2.09270   0.00000   0.00000   0.00000   0.00000   2.09270
   A60        2.09088  -0.00000   0.00000  -0.00000  -0.00000   2.09088
    D1       -0.00000  -0.00000   0.00000  -0.00000   0.00000   0.00000
    D2        2.96035  -0.00000   0.00000  -0.00000  -0.00000   2.96035
    D3       -2.96035   0.00000   0.00000   0.00000   0.00000  -2.96035
    D4        0.00000  -0.00000   0.00000  -0.00000  -0.00000   0.00000
    D5        0.27033   0.00000   0.00000   0.00000   0.00000   0.27033
    D6       -2.55905   0.00000   0.00000   0.00000   0.00000  -2.55905
    D7       -3.05304  -0.00000   0.00000  -0.00000  -0.00000  -3.05304
    D8        0.40077  -0.00000   0.00000  -0.00000  -0.00000   0.40076
    D9       -0.27033  -0.00000   0.00000  -0.00000  -0.00000  -0.27033
   D10        2.55905  -0.00000   0.00000  -0.00000  -0.00000   2.55905
   D11        3.05304   0.00000   0.00000   0.00000   0.00000   3.05304
   D12       -0.40077   0.00000   0.00000   0.00000   0.00000  -0.40076
   D13        0.26991   0.00000   0.00000   0.00000   0.00000   0.26991
   D14       -3.04566  -0.00000   0.00000  -0.00000  -0.00000  -3.04566
   D15       -2.55157   0.00000   0.00000   0.00000   0.00000  -2.55157
   D16        0.41605  -0.00000   0.00000  -0.00000  -0.00000   0.41605
   D17        2.62007  -0.00000   0.00000  -0.00000  -0.00000   2.62006
   D18        0.53052   0.00000   0.00000   0.00000   0.00000   0.53052
   D19       -1.55850   0.00000   0.00000   0.00000   0.00000  -1.55850
   D20       -0.84620  -0.00000   0.00000  -0.00000  -0.00000  -0.84620
   D21       -2.93574   0.00000   0.00000   0.00000   0.00000  -2.93574
   D22        1.25842  -0.00000   0.00000   0.00000   0.00000   1.25843
   D23       -0.00000  -0.00000   0.00000  -0.00000   0.00000   0.00000
   D24        2.96849  -0.00000   0.00000  -0.00000  -0.00000   2.96848
   D25       -2.96849   0.00000   0.00000   0.00000   0.00000  -2.96848
   D26        0.00000  -0.00000   0.00000   0.00000   0.00000   0.00000
   D27       -0.26991  -0.00000   0.00000  -0.00000  -0.00000  -0.26991
   D28        2.55157  -0.00000   0.00000  -0.00000  -0.00000   2.55157
   D29        3.04566   0.00000   0.00000   0.00000   0.00000   3.04566
   D30       -0.41605   0.00000   0.00000   0.00000   0.00000  -0.41605
   D31       -2.62007   0.00000   0.00000   0.00000   0.00000  -2.62006
   D32       -0.53052  -0.00000   0.00000  -0.00000  -0.00000  -0.53052
   D33        1.55850  -0.00000   0.00000  -0.00000  -0.00000   1.55850
   D34        0.84620   0.00000   0.00000   0.00000   0.00000   0.84620
   D35        2.93574  -0.00000   0.00000  -0.00000  -0.00000   2.93574
   D36       -1.25842   0.00000   0.00000  -0.00000  -0.00000  -1.25843
   D37        2.81896  -0.00000   0.00000  -0.00000  -0.00000   2.81896
   D38       -1.45112  -0.00000   0.00000  -0.00000  -0.00000  -1.45113
   D39        0.65716  -0.00000   0.00000  -0.00000  -0.00000   0.65716
   D40       -1.31043  -0.00000   0.00000  -0.00000  -0.00000  -1.31043
   D41        0.70267   0.00000   0.00000   0.00000   0.00000   0.70267
   D42        2.81096   0.00000   0.00000   0.00000   0.00000   2.81096
   D43        0.71908  -0.00000   0.00000   0.00000   0.00000   0.71908
   D44        2.73218   0.00000   0.00000   0.00000   0.00000   2.73218
   D45       -1.44272   0.00000   0.00000   0.00000   0.00000  -1.44272
   D46        1.45112   0.00000   0.00000   0.00000   0.00000   1.45113
   D47       -2.81896   0.00000   0.00000   0.00000   0.00000  -2.81896
   D48       -0.65716   0.00000   0.00000   0.00000   0.00000  -0.65716
   D49       -0.70267  -0.00000   0.00000  -0.00000  -0.00000  -0.70267
   D50        1.31043   0.00000   0.00000   0.00000   0.00000   1.31043
   D51       -2.81096  -0.00000   0.00000  -0.00000  -0.00000  -2.81096
   D52       -2.73218  -0.00000   0.00000  -0.00000  -0.00000  -2.73218
   D53       -0.71908   0.00000   0.00000  -0.00000  -0.00000  -0.71908
   D54        1.44272  -0.00000   0.00000  -0.00000  -0.00000   1.44272
   D55       -1.49785  -0.00000   0.00000  -0.00000  -0.00000  -1.49785
   D56        1.49297   0.00000   0.00000  -0.00000  -0.00000   1.49297
   D57        2.65032  -0.00000   0.00000  -0.00000  -0.00000   2.65032
   D58       -0.64204  -0.00000   0.00000  -0.00000  -0.00000  -0.64204
   D59        0.59994   0.00000   0.00000  -0.00000  -0.00000   0.59994
   D60       -2.69242   0.00000   0.00000  -0.00000  -0.00000  -2.69242
   D61        1.49785   0.00000   0.00000   0.00000   0.00000   1.49785
   D62       -1.49297  -0.00000   0.00000   0.00000   0.00000  -1.49297
   D63       -0.59994  -0.00000   0.00000   0.00000   0.00000  -0.59994
   D64        2.69242  -0.00000   0.00000   0.00000   0.00000   2.69242
   D65       -2.65032   0.00000   0.00000   0.00000   0.00000  -2.65032
   D66        0.64204   0.00000   0.00000   0.00000   0.00000   0.64204
   D67       -2.81586   0.00000   0.00000   0.00000   0.00000  -2.81586
   D68        0.18190  -0.00000   0.00000  -0.00000  -0.00000   0.18189
   D69        0.18204   0.00000   0.00000   0.00000   0.00000   0.18204
   D70       -3.10339  -0.00000   0.00000  -0.00000  -0.00000  -3.10339
   D71        2.94280   0.00000   0.00000  -0.00000  -0.00000   2.94280
   D72       -0.17483   0.00000   0.00000   0.00000   0.00000  -0.17483
   D73       -0.05027   0.00000   0.00000  -0.00000  -0.00000  -0.05027
   D74        3.11529   0.00000   0.00000   0.00000   0.00000   3.11529
   D75        2.81586  -0.00000   0.00000  -0.00000  -0.00000   2.81586
   D76       -0.18204  -0.00000   0.00000  -0.00000  -0.00000  -0.18204
   D77       -0.18190   0.00000   0.00000   0.00000   0.00000  -0.18189
   D78        3.10339   0.00000   0.00000   0.00000   0.00000   3.10339
   D79       -0.07449   0.00000   0.00000   0.00000   0.00000  -0.07449
   D80        3.12105   0.00000   0.00000   0.00000   0.00000   3.12106
   D81        3.04317  -0.00000   0.00000  -0.00000  -0.00000   3.04316
   D82       -0.04448   0.00000   0.00000  -0.00000  -0.00000  -0.04448
   D83       -2.94280  -0.00000   0.00000   0.00000   0.00000  -2.94280
   D84        0.17483  -0.00000   0.00000  -0.00000  -0.00000   0.17483
   D85        0.05027  -0.00000   0.00000   0.00000   0.00000   0.05027
   D86       -3.11529  -0.00000   0.00000  -0.00000  -0.00000  -3.11529
   D87        0.07449  -0.00000   0.00000  -0.00000  -0.00000   0.07449
   D88       -3.04317   0.00000   0.00000   0.00000   0.00000  -3.04316
   D89       -3.12105  -0.00000   0.00000  -0.00000  -0.00000  -3.12106
   D90        0.04448  -0.00000   0.00000   0.00000   0.00000   0.04448
         Item               Value     Threshold  Converged?
 Maximum Force            0.000001     0.000002     YES
 RMS     Force            0.000000     0.000001     YES
 Maximum Displacement     0.000010     0.000006     NO 
 RMS     Displacement     0.000002     0.000004     YES
 Predicted change in Energy=-2.184288D-11
 Lowest energy point so far.  Saving SCF results.
 GradGradGradGradGradGradGradGradGradGradGradGradGradGradGradGradGradGrad

 Leave Link  103 at Mon Jul 28 11:50:30 2025, MaxMem=   104857600 cpu:               3.4 elap:               0.1
 (Enter /opt/linux/rocky/8/software/gaussian/16c01_avx2/g16/l202.exe)
                          Input orientation:                          
 ---------------------------------------------------------------------
 Center     Atomic      Atomic             Coordinates (Angstroms)
 Number     Number       Type             X           Y           Z
 ---------------------------------------------------------------------
      1          6           0        0.965864    1.549295    0.696083
      2          6           0        0.965864    1.549295   -0.696083
      3          6           0        1.469348    0.451480   -1.406266
      4          6           0        2.256734   -0.467810   -0.698796
      5          6           0        2.256734   -0.467810    0.698796
      6          6           0        1.469348    0.451480    1.406266
      7          1           0        0.421484    2.326121    1.226573
      8          1           0        0.421484    2.326121   -1.226573
      9          1           0        2.741034   -1.284691   -1.230059
     10          1           0        2.741034   -1.284691    1.230059
     11          6           0        0.835218    0.085791   -2.729675
     12          1           0        1.541993   -0.381279   -3.425663
     13          1           0        0.444128    0.985292   -3.217533
     14          6           0        0.835218    0.085791    2.729675
     15          1           0        1.541993   -0.381279    3.425663
     16          1           0        0.444128    0.985292    3.217533
     17          6           0       -0.359686   -0.927275   -2.485952
     18          1           0       -1.001750   -0.921587   -3.374458
     19          1           0        0.064832   -1.934145   -2.406037
     20          6           0       -0.359686   -0.927275    2.485952
     21          1           0        0.064832   -1.934145    2.406037
     22          1           0       -1.001750   -0.921587    3.374458
     23          6           0       -1.163204   -0.629658    1.228496
     24          6           0       -0.730317   -1.146175    0.000000
     25          6           0       -2.223551    0.285997    1.213323
     26          6           0       -1.163204   -0.629658   -1.228496
     27          1           0        0.065137   -1.882694    0.000000
     28          6           0       -2.776055    0.704265    0.000000
     29          1           0       -2.604125    0.690439    2.148482
     30          6           0       -2.223551    0.285997   -1.213323
     31          1           0       -3.610793    1.400043    0.000000
     32          1           0       -2.604125    0.690439   -2.148482
 ---------------------------------------------------------------------
                    Distance matrix (angstroms):
                    1          2          3          4          5
     1  C    0.000000
     2  C    1.392166   0.000000
     3  C    2.424575   1.401090   0.000000
     4  C    2.771415   2.394799   1.401993   0.000000
     5  C    2.394799   2.771415   2.428241   1.397592   0.000000
     6  C    1.401090   2.424575   2.812532   2.428241   1.401993
     7  H    1.086843   2.143925   3.397667   3.857621   3.384190
     8  H    2.143925   1.086843   2.155131   3.384190   3.857621
     9  H    3.859109   3.386419   2.159287   1.088155   2.149958
    10  H    3.386419   3.859109   3.403187   2.149958   1.088155
    11  C    3.727564   2.508866   1.512369   2.540010   3.752545
    12  H    4.587791   3.392586   2.185573   2.820309   4.186824
    13  H    3.988320   2.635909   2.148656   3.426527   4.553535
    14  C    2.508866   3.727564   4.200221   3.752545   2.540010
    15  H    3.392586   4.587791   4.903702   4.186824   2.820309
    16  H    2.635909   3.988320   4.766083   4.553535   3.426527
    17  C    4.244505   3.330782   2.532203   3.201669   4.147213
    18  H    5.152288   4.141311   3.444622   4.240613   5.235936
    19  H    4.750722   3.983736   2.943368   3.141535   4.073642
    20  C    3.330782   4.244505   4.516158   4.147213   3.201669
    21  H    3.983736   4.750722   4.711425   4.073642   3.141535
    22  H    4.141311   5.152288   5.554004   5.235936   4.240613
    23  C    3.092609   3.603439   3.878294   3.928947   3.464499
    24  C    3.259926   3.259926   3.060819   3.141810   3.141810
    25  C    3.469270   3.926083   4.530689   4.929238   4.572300
    26  C    3.603439   3.092609   2.851454   3.464499   3.928947
    27  H    3.615852   3.615852   3.065576   2.700613   2.700613
    28  C    3.898790   3.898790   4.479389   5.214502   5.214502
    29  H    3.948661   4.644783   5.411702   5.751216   5.202988
    30  C    3.926083   3.469270   3.701637   4.572300   4.929238
    31  H    4.631695   4.631695   5.355856   6.197182   6.197182
    32  H    4.644783   3.948661   4.147430   5.202988   5.751216
                    6          7          8          9         10
     6  C    0.000000
     7  H    2.155131   0.000000
     8  H    3.397667   2.453146   0.000000
     9  H    3.403187   4.945029   4.291653   0.000000
    10  H    2.159287   4.291653   4.945029   2.460118   0.000000
    11  C    4.200221   4.565321   2.729390   2.785534   4.603243
    12  H    4.903702   5.498077   3.663544   2.659798   4.891788
    13  H    4.766083   4.642027   2.400470   3.791919   5.496333
    14  C    1.512369   2.729390   4.565321   4.603243   2.785534
    15  H    2.185573   3.663544   5.498077   4.891788   2.659798
    16  H    2.148656   2.400470   4.642027   5.496333   3.791919
    17  C    4.516158   4.997764   3.575031   3.364442   4.852931
    18  H    5.554004   5.808846   4.145674   4.328824   5.944901
    19  H    4.711425   5.610073   4.434885   2.994456   4.561254
    20  C    2.532203   3.575031   4.997764   4.852931   3.364442
    21  H    2.943368   4.434885   5.610073   4.561254   2.994456
    22  H    3.444622   4.145674   5.808846   5.944901   4.328824
    23  C    2.851454   3.353784   4.156348   4.660111   3.958806
    24  C    3.060819   3.858493   3.858493   3.685445   3.685445
    25  C    3.701637   3.340433   4.136594   5.751894   5.207153
    26  C    3.878294   4.156348   3.353784   3.958806   4.660111
    27  H    3.065576   4.398361   4.398361   3.005175   3.005175
    28  C    4.479389   3.789347   3.789347   5.992266   5.992266
    29  H    4.147430   3.560854   4.818792   6.624681   5.771946
    30  C    4.530689   4.136594   3.340433   5.207153   5.751894
    31  H    5.355856   4.315247   4.315247   7.004751   7.004751
    32  H    5.411702   4.818792   3.560854   5.771946   6.624681
                   11         12         13         14         15
    11  C    0.000000
    12  H    1.096396   0.000000
    13  H    1.095473   1.765260   0.000000
    14  C    5.459350   6.213362   6.027548   0.000000
    15  H    6.213362   6.851325   6.870580   1.096396   0.000000
    16  H    6.027548   6.870580   6.435066   1.095473   1.765260
    17  C    1.585402   2.190331   2.199828   5.445811   6.233913
    18  H    2.192033   2.600997   2.398203   6.453658   7.280398
    19  H    2.185950   2.373401   3.053769   5.572178   6.213060
    20  C    5.445811   6.233913   6.069083   1.585402   2.190331
    21  H    5.572178   6.213060   6.347560   2.185950   2.373401
    22  H    6.453658   7.280398   7.012924   2.192033   2.600997
    23  C    4.491400   5.388968   4.995874   2.599826   3.493898
    24  C    3.379314   4.181342   4.034228   3.379314   4.181342
    25  C    4.994336   6.012053   5.219005   3.419865   4.418035
    26  C    2.599826   3.493898   3.024541   4.491400   5.388968
    27  H    3.452402   4.021258   4.326835   3.452402   4.021258
    28  C    4.568908   5.617749   4.560819   4.568908   5.617749
    29  H    5.999258   7.029222   6.178423   3.540123   4.468788
    30  C    3.419865   4.418035   3.409162   4.994336   6.012053
    31  H    5.380093   6.438903   5.192969   5.380093   6.438903
    32  H    3.540123   4.468788   3.243711   5.999258   7.029222
                   16         17         18         19         20
    16  H    0.000000
    17  C    6.069083   0.000000
    18  H    7.012924   1.096231   0.000000
    19  H    6.347560   1.095623   1.760883   0.000000
    20  C    2.199828   4.971903   5.895479   5.012540   0.000000
    21  H    3.053769   5.012540   5.964645   4.812074   1.095623
    22  H    2.398203   5.895479   6.748916   5.964645   1.096231
    23  C    3.024541   3.811999   4.615027   4.052110   1.521648
    24  C    4.034228   2.522943   3.392798   2.653709   2.522943
    25  C    3.409162   4.316325   4.898857   4.823433   2.562344
    26  C    4.995874   1.521648   2.171737   2.143913   3.811999
    27  H    4.326835   2.696897   3.667279   2.406587   2.696897
    28  C    4.560819   3.831542   4.144698   4.562988   3.831542
    29  H    3.243711   5.397451   5.972361   5.895372   2.787184
    30  C    5.219005   2.562344   2.760718   3.404159   4.316325
    31  H    5.192969   4.708085   4.856340   5.515074   4.708085
    32  H    6.178423   2.787184   2.582490   3.752081   5.397451
                   21         22         23         24         25
    21  H    0.000000
    22  H    1.760883   0.000000
    23  C    2.143913   2.171737   0.000000
    24  C    2.653709   3.392798   1.401208   0.000000
    25  C    3.404159   2.760718   1.401068   2.398545   0.000000
    26  C    4.052110   4.615027   2.456992   1.401208   2.815181
    27  H    2.406587   3.667279   2.141991   1.084069   3.378382
    28  C    4.562988   4.144698   2.426899   2.758472   1.397269
    29  H    3.752081   2.582490   2.159926   3.391206   1.087626
    30  C    4.823433   4.898857   2.815181   2.398545   2.426647
    31  H    5.515074   4.856340   3.408750   3.844524   2.153530
    32  H    5.895372   5.972361   3.901652   3.391206   3.407366
                   26         27         28         29         30
    26  C    0.000000
    27  H    2.141991   0.000000
    28  C    2.426899   3.842489   0.000000
    29  H    3.901652   4.285084   2.155394   0.000000
    30  C    1.401068   3.378382   1.397269   3.407366   0.000000
    31  H    3.408750   4.928369   1.086690   2.476468   2.153530
    32  H    2.159926   4.285084   2.155394   4.296963   1.087626
                   31         32
    31  H    0.000000
    32  H    2.476468   0.000000
 Stoichiometry    C16H16
 Framework group  CS[SG(C2H2),X(C14H14)]
 Deg. of freedom    47
 Full point group                 CS      NOp   2
 RotChk:  IX=0 Diff= 3.23D-09
 Largest Abelian subgroup         CS      NOp   2
 Largest concise Abelian subgroup CS      NOp   2
                         Standard orientation:                         
 ---------------------------------------------------------------------
 Center     Atomic      Atomic             Coordinates (Angstroms)
 Number     Number       Type             X           Y           Z
 ---------------------------------------------------------------------
      1          6           0        0.965864    1.549295    0.696083
      2          6           0        0.965864    1.549295   -0.696083
      3          6           0        1.469348    0.451480   -1.406266
      4          6           0        2.256734   -0.467810   -0.698796
      5          6           0        2.256734   -0.467810    0.698796
      6          6           0        1.469348    0.451480    1.406266
      7          1           0        0.421484    2.326121    1.226573
      8          1           0        0.421484    2.326121   -1.226573
      9          1           0        2.741034   -1.284691   -1.230059
     10          1           0        2.741034   -1.284691    1.230059
     11          6           0        0.835218    0.085791   -2.729675
     12          1           0        1.541994   -0.381279   -3.425663
     13          1           0        0.444128    0.985292   -3.217533
     14          6           0        0.835218    0.085791    2.729675
     15          1           0        1.541994   -0.381279    3.425663
     16          1           0        0.444128    0.985292    3.217533
     17          6           0       -0.359685   -0.927275   -2.485952
     18          1           0       -1.001750   -0.921588   -3.374458
     19          1           0        0.064833   -1.934145   -2.406037
     20          6           0       -0.359685   -0.927275    2.485952
     21          1           0        0.064833   -1.934145    2.406037
     22          1           0       -1.001750   -0.921588    3.374458
     23          6           0       -1.163204   -0.629658    1.228496
     24          6           0       -0.730317   -1.146175    0.000000
     25          6           0       -2.223551    0.285997    1.213323
     26          6           0       -1.163204   -0.629658   -1.228496
     27          1           0        0.065137   -1.882694   -0.000000
     28          6           0       -2.776054    0.704264    0.000000
     29          1           0       -2.604125    0.690438    2.148482
     30          6           0       -2.223551    0.285997   -1.213323
     31          1           0       -3.610793    1.400043    0.000000
     32          1           0       -2.604125    0.690438   -2.148482
 ---------------------------------------------------------------------
 Rotational constants (GHZ):           0.7544990           0.7042621           0.4678162
 Leave Link  202 at Mon Jul 28 11:50:30 2025, MaxMem=   104857600 cpu:               0.1 elap:               0.0
 (Enter /opt/linux/rocky/8/software/gaussian/16c01_avx2/g16/l301.exe)
 Standard basis: 6-31G(d,p) (6D, 7F)
 Ernie: Thresh=  0.10000D-02 Tol=  0.10000D-05 Strict=F.
 There are   170 symmetry adapted cartesian basis functions of A'  symmetry.
 There are   150 symmetry adapted cartesian basis functions of A"  symmetry.
 There are   170 symmetry adapted basis functions of A'  symmetry.
 There are   150 symmetry adapted basis functions of A"  symmetry.
   320 basis functions,   560 primitive gaussians,   320 cartesian basis functions
    56 alpha electrons       56 beta electrons
       nuclear repulsion energy      1088.3276983285 Hartrees.
 IExCor=  402 DFT=T Ex+Corr=B3LYP ExCW=0 ScaHFX=  0.200000
 ScaDFX=  0.800000  0.720000  1.000000  0.810000 ScalE2=  1.000000  1.000000
 IRadAn=      5 IRanWt=     -1 IRanGd=            0 ICorTp=0 IEmpDi=  4
 NAtoms=   32 NActive=   32 NUniq=   18 SFac= 3.16D+00 NAtFMM=   60 NAOKFM=F Big=F
 Integral buffers will be    131072 words long.
 Raffenetti 2 integral format.
 Two-electron integral symmetry is turned on.
 Leave Link  301 at Mon Jul 28 11:50:30 2025, MaxMem=   104857600 cpu:               0.7 elap:               0.0
 (Enter /opt/linux/rocky/8/software/gaussian/16c01_avx2/g16/l302.exe)
 NPDir=0 NMtPBC=     1 NCelOv=     1 NCel=       1 NClECP=     1 NCelD=      1
         NCelK=      1 NCelE2=     1 NClLst=     1 CellRange=     0.0.
 One-electron integrals computed using PRISM.
 One-electron integral symmetry used in STVInt
 PrsmSu:  requested number of processors reduced to:  28 ShMem   1 Linda.
 NBasis=   320 RedAO= T EigKep=  4.49D-04  NBF=   170   150
 NBsUse=   320 1.00D-06 EigRej= -1.00D+00 NBFU=   170   150
 Precomputing XC quadrature grid using
 IXCGrd= 4 IRadAn=           5 IRanWt=          -1 IRanGd=           0 AccXCQ= 0.00D+00.
 Generated NRdTot=       0 NPtTot=           0 NUsed=           0 NTot=          32
 NSgBfM=   320   320   320   320   320 MxSgAt=    32 MxSgA2=    32.
 Leave Link  302 at Mon Jul 28 11:50:30 2025, MaxMem=   104857600 cpu:               6.1 elap:               0.2
 (Enter /opt/linux/rocky/8/software/gaussian/16c01_avx2/g16/l303.exe)
 DipDrv:  MaxL=1.
 Leave Link  303 at Mon Jul 28 11:50:31 2025, MaxMem=   104857600 cpu:               0.7 elap:               0.0
 (Enter /opt/linux/rocky/8/software/gaussian/16c01_avx2/g16/l401.exe)
 Initial guess from the checkpoint file:  "metapara_b3lyp631gdp_vtight.chk"
 B after Tr=    -0.000000   -0.000000   -0.000000
         Rot=    1.000000    0.000000    0.000000   -0.000000 Ang=  -0.00 deg.
 Guess basis will be translated and rotated to current coordinates.
 JPrj=2 DoOrth=T DoCkMO=T.
 Initial guess orbital symmetries:
       Occupied  (A") (A') (A") (A') (A') (A") (A") (A') (A') (A')
                 (A") (A") (A') (A') (A") (A') (A') (A') (A") (A')
                 (A") (A') (A') (A") (A') (A") (A") (A') (A') (A")
                 (A') (A') (A') (A") (A") (A') (A') (A") (A') (A")
                 (A') (A') (A") (A") (A') (A') (A") (A') (A') (A")
                 (A") (A') (A') (A') (A") (A")
       Virtual   (A') (A") (A") (A') (A') (A") (A') (A') (A") (A')
                 (A") (A') (A') (A") (A') (A") (A") (A') (A') (A")
                 (A') (A") (A') (A") (A') (A") (A') (A") (A') (A")
                 (A') (A") (A') (A") (A") (A') (A") (A') (A') (A")
                 (A') (A') (A") (A') (A') (A") (A') (A') (A") (A")
                 (A') (A") (A') (A") (A') (A') (A") (A') (A") (A')
                 (A") (A') (A") (A") (A') (A") (A') (A') (A") (A')
                 (A') (A") (A') (A") (A") (A') (A") (A') (A") (A")
                 (A') (A') (A') (A") (A') (A') (A") (A") (A") (A')
                 (A') (A") (A') (A") (A") (A') (A") (A') (A") (A')
                 (A') (A") (A') (A") (A') (A') (A") (A') (A") (A")
                 (A') (A') (A") (A') (A") (A') (A') (A") (A') (A")
                 (A') (A') (A") (A") (A") (A') (A') (A") (A") (A')
                 (A') (A") (A") (A') (A') (A") (A') (A") (A') (A")
                 (A') (A') (A") (A') (A') (A") (A") (A') (A') (A')
                 (A") (A') (A') (A') (A") (A') (A") (A") (A") (A')
                 (A') (A') (A") (A") (A") (A') (A') (A") (A') (A")
                 (A') (A") (A") (A') (A') (A') (A") (A") (A") (A')
                 (A") (A') (A') (A") (A') (A') (A") (A') (A') (A")
                 (A') (A") (A") (A') (A') (A") (A') (A") (A") (A')
                 (A") (A') (A") (A") (A') (A") (A") (A') (A") (A")
                 (A") (A') (A') (A") (A') (A") (A") (A') (A') (A")
                 (A') (A") (A') (A") (A') (A') (A") (A") (A") (A')
                 (A') (A') (A') (A") (A') (A") (A") (A") (A') (A")
                 (A') (A') (A") (A") (A') (A") (A") (A') (A') (A")
                 (A') (A') (A") (A') (A') (A") (A') (A") (A') (A")
                 (A') (A") (A") (A')
 The electronic state of the initial guess is 1-A'.
 Leave Link  401 at Mon Jul 28 11:50:31 2025, MaxMem=   104857600 cpu:               5.6 elap:               0.2
 (Enter /opt/linux/rocky/8/software/gaussian/16c01_avx2/g16/l502.exe)
 Integral symmetry usage will be decided dynamically.
 Closed shell SCF:
 Using DIIS extrapolation, IDIIS=  1040.
 NGot=   104857600 LenX=   104636278 LenY=   104533437
 Requested convergence on RMS density matrix=1.00D-10 within 128 cycles.
 Requested convergence on MAX density matrix=1.00D-08.
 Requested convergence on             energy=1.00D-08.
 No special actions if energy rises.
 Fock matrices will be formed incrementally for  20 cycles.

 Cycle   1  Pass 1  IDiag  1:
 FoFJK:  IHMeth= 1 ICntrl=       0 DoSepK=F KAlg= 0 I1Cent=           0 FoldK=F
 IRaf= 910000000 NMat=       1 IRICut=       1 DoRegI=T DoRafI=F ISym2E= 1 IDoP0=0 IntGTp=1.
 FoFCou: FMM=F IPFlag=           0 FMFlag=      100000 FMFlg1=           0
         NFxFlg=           0 DoJE=F BraDBF=F KetDBF=F FulRan=T
         wScrn=  0.000000 ICntrl=         0 IOpCl=  0 I1Cent=           0 NGrid=           0
         NMat0=    1 NMatS0=      1 NMatT0=    0 NMatD0=    1 NMtDS0=    0 NMtDT0=    0
 Petite list used in FoFCou.
 E= -619.341347022481    
 DIIS: error= 1.42D-07 at cycle   1 NSaved=   1.
 NSaved= 1 IEnMin= 1 EnMin= -619.341347022481     IErMin= 1 ErrMin= 1.42D-07
 ErrMax= 1.42D-07  0.00D+00 EMaxC= 1.00D-01 BMatC= 9.74D-12 BMatP= 9.74D-12
 IDIUse=1 WtCom= 1.00D+00 WtEn= 0.00D+00
 Coeff-Com:  0.100D+01
 Coeff:      0.100D+01
 Gap=     0.209 Goal=   None    Shift=    0.000
 RMSDP=1.92D-08 MaxDP=3.97D-07              OVMax= 1.04D-06

 Cycle   2  Pass 1  IDiag  1:
 RMSU=  1.92D-08    CP:  1.00D+00
 E= -619.341347022506     Delta-E=       -0.000000000025 Rises=F Damp=F
 DIIS: error= 4.22D-08 at cycle   2 NSaved=   2.
 NSaved= 2 IEnMin= 2 EnMin= -619.341347022506     IErMin= 2 ErrMin= 4.22D-08
 ErrMax= 4.22D-08  0.00D+00 EMaxC= 1.00D-01 BMatC= 1.16D-12 BMatP= 9.74D-12
 IDIUse=1 WtCom= 1.00D+00 WtEn= 0.00D+00
 Coeff-Com:  0.111D+00 0.889D+00
 Coeff:      0.111D+00 0.889D+00
 Gap=     0.209 Goal=   None    Shift=    0.000
 RMSDP=7.68D-09 MaxDP=3.53D-07 DE=-2.48D-11 OVMax= 8.65D-07

 Cycle   3  Pass 1  IDiag  1:
 RMSU=  7.68D-09    CP:  1.00D+00  9.88D-01
 E= -619.341347022506     Delta-E=       -0.000000000000 Rises=F Damp=F
 DIIS: error= 6.13D-08 at cycle   3 NSaved=   3.
 NSaved= 3 IEnMin= 3 EnMin= -619.341347022506     IErMin= 2 ErrMin= 4.22D-08
 ErrMax= 6.13D-08  0.00D+00 EMaxC= 1.00D-01 BMatC= 1.93D-12 BMatP= 1.16D-12
 IDIUse=1 WtCom= 1.00D+00 WtEn= 0.00D+00
 Coeff-Com: -0.376D-01 0.581D+00 0.457D+00
 Coeff:     -0.376D-01 0.581D+00 0.457D+00
 Gap=     0.209 Goal=   None    Shift=    0.000
 RMSDP=5.15D-09 MaxDP=2.23D-07 DE=-4.55D-13 OVMax= 6.19D-07

 Cycle   4  Pass 1  IDiag  1:
 RMSU=  1.72D-09    CP:  1.00D+00  1.05D+00  3.88D-01
 E= -619.341347022511     Delta-E=       -0.000000000005 Rises=F Damp=F
 DIIS: error= 1.09D-08 at cycle   4 NSaved=   4.
 NSaved= 4 IEnMin= 4 EnMin= -619.341347022511     IErMin= 4 ErrMin= 1.09D-08
 ErrMax= 1.09D-08  0.00D+00 EMaxC= 1.00D-01 BMatC= 5.55D-14 BMatP= 1.16D-12
 IDIUse=1 WtCom= 1.00D+00 WtEn= 0.00D+00
 Coeff-Com: -0.230D-01 0.267D+00 0.247D+00 0.509D+00
 Coeff:     -0.230D-01 0.267D+00 0.247D+00 0.509D+00
 Gap=     0.209 Goal=   None    Shift=    0.000
 RMSDP=1.10D-09 MaxDP=2.91D-08 DE=-5.23D-12 OVMax= 1.22D-07

 Cycle   5  Pass 1  IDiag  1:
 RMSU=  7.17D-10    CP:  1.00D+00  1.05D+00  4.53D-01  6.10D-01
 E= -619.341347022507     Delta-E=        0.000000000004 Rises=F Damp=F
 DIIS: error= 3.32D-09 at cycle   5 NSaved=   5.
 NSaved= 5 IEnMin= 4 EnMin= -619.341347022511     IErMin= 5 ErrMin= 3.32D-09
 ErrMax= 3.32D-09  0.00D+00 EMaxC= 1.00D-01 BMatC= 5.97D-15 BMatP= 5.55D-14
 IDIUse=1 WtCom= 1.00D+00 WtEn= 0.00D+00
 Coeff-Com: -0.645D-02 0.516D-01 0.653D-01 0.276D+00 0.614D+00
 Coeff:     -0.645D-02 0.516D-01 0.653D-01 0.276D+00 0.614D+00
 Gap=     0.209 Goal=   None    Shift=    0.000
 RMSDP=3.14D-10 MaxDP=9.41D-09 DE= 4.32D-12 OVMax= 3.23D-08

 Cycle   6  Pass 1  IDiag  1:
 RMSU=  1.95D-10    CP:  1.00D+00  1.05D+00  4.55D-01  7.10D-01  7.57D-01
 E= -619.341347022507     Delta-E=        0.000000000000 Rises=F Damp=F
 DIIS: error= 1.28D-09 at cycle   6 NSaved=   6.
 NSaved= 6 IEnMin= 4 EnMin= -619.341347022511     IErMin= 6 ErrMin= 1.28D-09
 ErrMax= 1.28D-09  0.00D+00 EMaxC= 1.00D-01 BMatC= 5.70D-16 BMatP= 5.97D-15
 IDIUse=1 WtCom= 1.00D+00 WtEn= 0.00D+00
 Coeff-Com: -0.153D-02 0.492D-02 0.145D-01 0.106D+00 0.328D+00 0.548D+00
 Coeff:     -0.153D-02 0.492D-02 0.145D-01 0.106D+00 0.328D+00 0.548D+00
 Gap=     0.209 Goal=   None    Shift=    0.000
 RMSDP=1.10D-10 MaxDP=3.31D-09 DE= 4.55D-13 OVMax= 1.36D-08

 Cycle   7  Pass 1  IDiag  1:
 RMSU=  7.76D-11    CP:  1.00D+00  1.05D+00  4.56D-01  7.13D-01  8.07D-01
                    CP:  6.53D-01
 E= -619.341347022509     Delta-E=       -0.000000000003 Rises=F Damp=F
 DIIS: error= 7.95D-10 at cycle   7 NSaved=   7.
 NSaved= 7 IEnMin= 4 EnMin= -619.341347022511     IErMin= 7 ErrMin= 7.95D-10
 ErrMax= 7.95D-10  0.00D+00 EMaxC= 1.00D-01 BMatC= 1.02D-16 BMatP= 5.70D-16
 IDIUse=1 WtCom= 1.00D+00 WtEn= 0.00D+00
 Coeff-Com:  0.342D-03-0.787D-02-0.438D-02 0.125D-01 0.880D-01 0.328D+00
 Coeff-Com:  0.583D+00
 Coeff:      0.342D-03-0.787D-02-0.438D-02 0.125D-01 0.880D-01 0.328D+00
 Coeff:      0.583D+00
 Gap=     0.209 Goal=   None    Shift=    0.000
 RMSDP=4.98D-11 MaxDP=1.35D-09 DE=-2.50D-12 OVMax= 7.12D-09

 SCF Done:  E(RB3LYP) =  -619.341347023     A.U. after    7 cycles
            NFock=  7  Conv=0.50D-10     -V/T= 2.0099
 KE= 6.132660325821D+02 PE=-3.610140380669D+03 EE= 1.289205302736D+03
 Leave Link  502 at Mon Jul 28 11:50:34 2025, MaxMem=   104857600 cpu:             125.2 elap:               3.5
 (Enter /opt/linux/rocky/8/software/gaussian/16c01_avx2/g16/l701.exe)
 ... and contract with generalized density number  0.
 Compute integral first derivatives.
 PrsmSu:  requested number of processors reduced to:  29 ShMem   1 Linda.
 Leave Link  701 at Mon Jul 28 11:50:35 2025, MaxMem=   104857600 cpu:               5.0 elap:               0.2
 (Enter /opt/linux/rocky/8/software/gaussian/16c01_avx2/g16/l702.exe)
 L702 exits ... SP integral derivatives will be done elsewhere.
 Leave Link  702 at Mon Jul 28 11:50:35 2025, MaxMem=   104857600 cpu:               0.3 elap:               0.0
 (Enter /opt/linux/rocky/8/software/gaussian/16c01_avx2/g16/l703.exe)
 Integral derivatives from FoFJK, PRISM(SPDF).
 Compute integral first derivatives, UseDBF=F ICtDFT=           0.
 Calling FoFJK, ICntrl=      2127 FMM=F ISym2X=1 I1Cent= 0 IOpClX= 0 NMat=1 NMatS=1 NMatT=0.
 FoFJK:  IHMeth= 1 ICntrl=    2127 DoSepK=F KAlg= 0 I1Cent=           0 FoldK=F
 IRaf=         0 NMat=       1 IRICut=       1 DoRegI=T DoRafI=F ISym2E= 1 IDoP0=0 IntGTp=1.
 FoFCou: FMM=F IPFlag=           0 FMFlag=      100000 FMFlg1=         800
         NFxFlg=           0 DoJE=F BraDBF=F KetDBF=F FulRan=T
         wScrn=  0.000000 ICntrl=      2127 IOpCl=  0 I1Cent=           0 NGrid=           0
         NMat0=    1 NMatS0=      1 NMatT0=    0 NMatD0=    1 NMtDS0=    0 NMtDT0=    0
 Petite list used in FoFCou.
 Leave Link  703 at Mon Jul 28 11:50:36 2025, MaxMem=   104857600 cpu:              33.6 elap:               1.0
 (Enter /opt/linux/rocky/8/software/gaussian/16c01_avx2/g16/l716.exe)
 Dipole        =-7.79618782D-02-9.48731267D-02 4.44089210D-15
 ***** Axes restored to original set *****
 -------------------------------------------------------------------
 Center     Atomic                   Forces (Hartrees/Bohr)
 Number     Number              X              Y              Z
 -------------------------------------------------------------------
      1        6           0.000000733   -0.000000395   -0.000000245
      2        6           0.000000733   -0.000000395    0.000000245
      3        6           0.000000402   -0.000001075    0.000000098
      4        6          -0.000000339   -0.000000924   -0.000000523
      5        6          -0.000000339   -0.000000924    0.000000523
      6        6           0.000000402   -0.000001075   -0.000000098
      7        1           0.000001172   -0.000000171   -0.000000034
      8        1           0.000001172   -0.000000171    0.000000034
      9        1          -0.000000601   -0.000001434    0.000000118
     10        1          -0.000000601   -0.000001434   -0.000000118
     11        6          -0.000000352   -0.000000689    0.000000122
     12        1          -0.000000127   -0.000000723   -0.000000003
     13        1           0.000000522   -0.000000196   -0.000000075
     14        6          -0.000000352   -0.000000689   -0.000000122
     15        1          -0.000000127   -0.000000723    0.000000003
     16        1           0.000000522   -0.000000196    0.000000075
     17        6           0.000000099    0.000000555   -0.000000433
     18        1          -0.000000517    0.000000419    0.000000035
     19        1          -0.000000990   -0.000000087    0.000000029
     20        6           0.000000099    0.000000555    0.000000433
     21        1          -0.000000990   -0.000000087   -0.000000029
     22        1          -0.000000517    0.000000419   -0.000000035
     23        6          -0.000000455    0.000000555   -0.000000361
     24        6          -0.000000506    0.000000490   -0.000000000
     25        6           0.000000289    0.000001042    0.000000216
     26        6          -0.000000455    0.000000555    0.000000361
     27        1          -0.000000843   -0.000000048   -0.000000000
     28        6           0.000000327    0.000001415    0.000000000
     29        1           0.000000317    0.000001319   -0.000000045
     30        6           0.000000289    0.000001042   -0.000000216
     31        1           0.000000717    0.000001752   -0.000000000
     32        1           0.000000317    0.000001319    0.000000045
 -------------------------------------------------------------------
 Cartesian Forces:  Max     0.000001752 RMS     0.000000608
 Leave Link  716 at Mon Jul 28 11:50:36 2025, MaxMem=   104857600 cpu:               0.3 elap:               0.0
 (Enter /opt/linux/rocky/8/software/gaussian/16c01_avx2/g16/l103.exe)

 GradGradGradGradGradGradGradGradGradGradGradGradGradGradGradGradGradGrad
 Berny optimization.
 Using GEDIIS/GDIIS optimizer.
 FormGI is forming the generalized inverse of G from B-inverse, IUseBI=4.
 Internal  Forces:  Max     0.000000474 RMS     0.000000079
 Search for a local minimum.
 Step number   2 out of a maximum of  192
 All quantities printed in internal units (Hartrees-Bohrs-Radians)
 RMS Force = .79164D-07 SwitMx=.10000D-02 MixMth= 2
 Mixed Optimization -- En-DIIS/RFO-DIIS
 Swapping is turned off.
 Update second derivatives using D2CorX and points    1    2
 DE= -1.93D-11 DEPred=-2.18D-11 R= 8.85D-01
 Trust test= 8.85D-01 RLast= 2.18D-05 DXMaxT set to 3.00D-01
 ITU=  0  0
     Eigenvalues ---    0.00453   0.00483   0.00671   0.01504   0.01653
     Eigenvalues ---    0.01673   0.01926   0.01986   0.02037   0.02061
     Eigenvalues ---    0.02100   0.02106   0.02116   0.02122   0.02122
     Eigenvalues ---    0.02124   0.02141   0.02172   0.02208   0.02447
     Eigenvalues ---    0.03135   0.04021   0.04179   0.04876   0.05198
     Eigenvalues ---    0.05421   0.05891   0.06184   0.07228   0.08194
     Eigenvalues ---    0.08305   0.08636   0.08789   0.09141   0.09389
     Eigenvalues ---    0.10561   0.12755   0.14497   0.14954   0.15653
     Eigenvalues ---    0.15695   0.15820   0.15846   0.15975   0.15977
     Eigenvalues ---    0.15996   0.16398   0.19983   0.21862   0.21996
     Eigenvalues ---    0.22256   0.22588   0.22958   0.22983   0.23586
     Eigenvalues ---    0.23614   0.23991   0.24749   0.28636   0.29931
     Eigenvalues ---    0.30693   0.31047   0.34081   0.34084   0.34101
     Eigenvalues ---    0.34102   0.34141   0.34171   0.34188   0.34437
     Eigenvalues ---    0.35027   0.35027   0.35088   0.35088   0.35180
     Eigenvalues ---    0.35194   0.35334   0.35688   0.39578   0.41045
     Eigenvalues ---    0.41452   0.41590   0.43626   0.43934   0.44508
     Eigenvalues ---    0.45279   0.45475   0.45760   0.45958   0.46942
 En-DIIS/RFO-DIIS/Sim-DIIS IScMMF=       -3 using points:     2    1
 RFO step:  Lambda=-5.97735725D-12.
 NNeg= 0 NGDIIS= 2 SimSw=  2.50D-03 Rises=F DC= -1.93D-11 SmlDif=  1.00D-05
 NRisDI= 0 DoIntr=F SqrtH=F CThrHd= 10.0 CDAdj=  3.0
 RMS Error=  0.1575044772D-05 NUsed= 2 OKEnD=F EnDIS=F
 InvSVX:  RCond= 5.35D-10 Info=           0 Equed=N FErr=  2.72D-15 BErr=  1.27D-17
 DIIS inversion failure, remove point   2.
 Use linear search instead of GDIIS.
 RFO step:  Lambda= 0.00000000D+00 EMin= 4.52584992D-03
 Skip linear search -- no minimum in search direction.
 Iteration  1 RMS(Cart)=  0.00000406 RMS(Int)=  0.00000000
 Iteration  2 RMS(Cart)=  0.00000000 RMS(Int)=  0.00000000
 ITry= 1 IFail=0 DXMaxC= 1.49D-05 DCOld= 1.00D+10 DXMaxT= 3.00D-01 DXLimC= 3.00D+00 Rises=F
 ClnCor:  largest displacement from symmetrization is 7.57D-09 for atom    10.
 Variable       Old X    -DE/DX   Delta X   Delta X   Delta X     New X
                                 (Linear)    (Quad)   (Total)
    R1        2.63081  -0.00000   0.00000  -0.00000  -0.00000   2.63081
    R2        2.64768   0.00000   0.00000   0.00000   0.00000   2.64768
    R3        2.05384   0.00000   0.00000  -0.00000  -0.00000   2.05384
    R4        2.64768   0.00000   0.00000   0.00000   0.00000   2.64768
    R5        2.05384   0.00000   0.00000  -0.00000  -0.00000   2.05384
    R6        2.64938  -0.00000   0.00000  -0.00000  -0.00000   2.64938
    R7        2.85796   0.00000   0.00000  -0.00000  -0.00000   2.85796
    R8        2.64107   0.00000   0.00000   0.00000   0.00000   2.64107
    R9        2.05631   0.00000   0.00000   0.00000   0.00000   2.05631
   R10        2.64938  -0.00000   0.00000  -0.00000  -0.00000   2.64938
   R11        2.05631   0.00000   0.00000   0.00000   0.00000   2.05631
   R12        2.85796   0.00000   0.00000  -0.00000  -0.00000   2.85796
   R13        2.07189   0.00000   0.00000   0.00000   0.00000   2.07189
   R14        2.07014   0.00000   0.00000  -0.00000  -0.00000   2.07014
   R15        2.99597  -0.00000   0.00000  -0.00000  -0.00000   2.99597
   R16        2.07189   0.00000   0.00000   0.00000   0.00000   2.07189
   R17        2.07014   0.00000   0.00000  -0.00000  -0.00000   2.07014
   R18        2.99597  -0.00000   0.00000  -0.00000  -0.00000   2.99597
   R19        2.07158   0.00000   0.00000   0.00000   0.00000   2.07158
   R20        2.07043   0.00000   0.00000   0.00000   0.00000   2.07043
   R21        2.87550   0.00000   0.00000   0.00000   0.00000   2.87550
   R22        2.07043   0.00000   0.00000   0.00000   0.00000   2.07043
   R23        2.07158   0.00000   0.00000   0.00000   0.00000   2.07158
   R24        2.87550   0.00000   0.00000   0.00000   0.00000   2.87550
   R25        2.64790  -0.00000   0.00000  -0.00000  -0.00000   2.64790
   R26        2.64763  -0.00000   0.00000  -0.00000  -0.00000   2.64763
   R27        2.64790  -0.00000   0.00000  -0.00000  -0.00000   2.64790
   R28        2.04859   0.00000   0.00000   0.00000   0.00000   2.04859
   R29        2.64046   0.00000   0.00000   0.00000   0.00000   2.64046
   R30        2.05532  -0.00000   0.00000  -0.00000  -0.00000   2.05532
   R31        2.64763  -0.00000   0.00000  -0.00000  -0.00000   2.64763
   R32        2.64046   0.00000   0.00000   0.00000   0.00000   2.64046
   R33        2.05355  -0.00000   0.00000  -0.00000  -0.00000   2.05355
   R34        2.05532  -0.00000   0.00000  -0.00000  -0.00000   2.05532
    A1        2.10236   0.00000   0.00000   0.00000   0.00000   2.10236
    A2        2.08071  -0.00000   0.00000  -0.00000  -0.00000   2.08071
    A3        2.08590   0.00000   0.00000   0.00000   0.00000   2.08590
    A4        2.10236   0.00000   0.00000   0.00000   0.00000   2.10236
    A5        2.08071  -0.00000   0.00000  -0.00000  -0.00000   2.08071
    A6        2.08590   0.00000   0.00000   0.00000   0.00000   2.08590
    A7        2.04858  -0.00000   0.00000  -0.00000  -0.00000   2.04858
    A8        2.07411  -0.00000   0.00000   0.00000   0.00000   2.07411
    A9        2.11590   0.00000   0.00000   0.00000   0.00000   2.11590
   A10        2.09974   0.00000   0.00000   0.00000   0.00000   2.09974
   A11        2.08958   0.00000   0.00000   0.00000   0.00000   2.08959
   A12        2.08085  -0.00000   0.00000  -0.00000  -0.00000   2.08085
   A13        2.09974   0.00000   0.00000   0.00000   0.00000   2.09974
   A14        2.08085  -0.00000   0.00000  -0.00000  -0.00000   2.08085
   A15        2.08958   0.00000   0.00000   0.00000   0.00000   2.08959
   A16        2.04858  -0.00000   0.00000  -0.00000  -0.00000   2.04858
   A17        2.07411  -0.00000   0.00000   0.00000   0.00000   2.07411
   A18        2.11590   0.00000   0.00000   0.00000   0.00000   2.11590
   A19        1.96947  -0.00000   0.00000  -0.00000  -0.00000   1.96947
   A20        1.91861   0.00000   0.00000   0.00000   0.00000   1.91861
   A21        1.91347  -0.00000   0.00000  -0.00000  -0.00000   1.91347
   A22        1.87259  -0.00000   0.00000  -0.00000  -0.00000   1.87259
   A23        1.88728   0.00000   0.00000   0.00000   0.00000   1.88728
   A24        1.90083   0.00000   0.00000   0.00000   0.00000   1.90083
   A25        1.96947  -0.00000   0.00000  -0.00000  -0.00000   1.96947
   A26        1.91861   0.00000   0.00000   0.00000   0.00000   1.91861
   A27        1.91347  -0.00000   0.00000  -0.00000  -0.00000   1.91347
   A28        1.87259  -0.00000   0.00000  -0.00000  -0.00000   1.87259
   A29        1.88728   0.00000   0.00000   0.00000   0.00000   1.88728
   A30        1.90083   0.00000   0.00000   0.00000   0.00000   1.90083
   A31        1.88970   0.00000   0.00000   0.00000   0.00000   1.88970
   A32        1.88222   0.00000   0.00000   0.00000   0.00000   1.88222
   A33        1.98237  -0.00000   0.00000  -0.00000  -0.00000   1.98237
   A34        1.86589  -0.00000   0.00000  -0.00000  -0.00000   1.86589
   A35        1.93852  -0.00000   0.00000  -0.00000  -0.00000   1.93851
   A36        1.90083  -0.00000   0.00000  -0.00000  -0.00000   1.90083
   A37        1.88222   0.00000   0.00000   0.00000   0.00000   1.88222
   A38        1.88970   0.00000   0.00000   0.00000   0.00000   1.88970
   A39        1.98237  -0.00000   0.00000  -0.00000  -0.00000   1.98237
   A40        1.86589  -0.00000   0.00000  -0.00000  -0.00000   1.86589
   A41        1.90083  -0.00000   0.00000  -0.00000  -0.00000   1.90083
   A42        1.93852  -0.00000   0.00000  -0.00000  -0.00000   1.93851
   A43        2.08206   0.00000   0.00000   0.00000   0.00000   2.08206
   A44        2.13698  -0.00000   0.00000  -0.00000  -0.00000   2.13698
   A45        2.05468   0.00000   0.00000   0.00000   0.00000   2.05468
   A46        2.13809   0.00000   0.00000   0.00000   0.00000   2.13809
   A47        2.06818   0.00000   0.00000  -0.00000  -0.00000   2.06818
   A48        2.06818   0.00000   0.00000  -0.00000  -0.00000   2.06818
   A49        2.09936  -0.00000   0.00000  -0.00000  -0.00000   2.09936
   A50        2.09270   0.00000   0.00000   0.00000   0.00000   2.09270
   A51        2.09088  -0.00000   0.00000  -0.00000  -0.00000   2.09088
   A52        2.08206   0.00000   0.00000   0.00000   0.00000   2.08206
   A53        2.13698  -0.00000   0.00000  -0.00000  -0.00000   2.13698
   A54        2.05468   0.00000   0.00000   0.00000   0.00000   2.05468
   A55        2.10375   0.00000   0.00000   0.00000   0.00000   2.10375
   A56        2.08909  -0.00000   0.00000  -0.00000  -0.00000   2.08909
   A57        2.08909  -0.00000   0.00000  -0.00000  -0.00000   2.08909
   A58        2.09936  -0.00000   0.00000  -0.00000  -0.00000   2.09936
   A59        2.09270   0.00000   0.00000   0.00000   0.00000   2.09270
   A60        2.09088  -0.00000   0.00000  -0.00000  -0.00000   2.09088
    D1       -0.00000   0.00000   0.00000   0.00000   0.00000   0.00000
    D2        2.96035   0.00000   0.00000   0.00000   0.00000   2.96035
    D3       -2.96035  -0.00000   0.00000  -0.00000  -0.00000  -2.96035
    D4       -0.00000   0.00000   0.00000  -0.00000   0.00000   0.00000
    D5        0.27033  -0.00000   0.00000  -0.00000  -0.00000   0.27033
    D6       -2.55905  -0.00000   0.00000  -0.00000  -0.00000  -2.55905
    D7       -3.05304   0.00000   0.00000   0.00000   0.00000  -3.05304
    D8        0.40076  -0.00000   0.00000  -0.00000  -0.00000   0.40076
    D9       -0.27033   0.00000   0.00000   0.00000   0.00000  -0.27033
   D10        2.55905   0.00000   0.00000   0.00000   0.00000   2.55905
   D11        3.05304  -0.00000   0.00000  -0.00000  -0.00000   3.05304
   D12       -0.40076   0.00000   0.00000   0.00000   0.00000  -0.40076
   D13        0.26991  -0.00000   0.00000  -0.00000  -0.00000   0.26991
   D14       -3.04566  -0.00000   0.00000  -0.00000  -0.00000  -3.04566
   D15       -2.55157  -0.00000   0.00000  -0.00000  -0.00000  -2.55157
   D16        0.41605  -0.00000   0.00000  -0.00000  -0.00000   0.41605
   D17        2.62006  -0.00000   0.00000  -0.00000  -0.00000   2.62006
   D18        0.53052  -0.00000   0.00000  -0.00000  -0.00000   0.53052
   D19       -1.55850  -0.00000   0.00000  -0.00000  -0.00000  -1.55850
   D20       -0.84620  -0.00000   0.00000  -0.00000  -0.00000  -0.84620
   D21       -2.93574   0.00000   0.00000  -0.00000  -0.00000  -2.93574
   D22        1.25843  -0.00000   0.00000  -0.00000  -0.00000   1.25842
   D23        0.00000   0.00000   0.00000  -0.00000   0.00000   0.00000
   D24        2.96848   0.00000   0.00000  -0.00000  -0.00000   2.96848
   D25       -2.96848  -0.00000   0.00000   0.00000   0.00000  -2.96848
   D26        0.00000  -0.00000   0.00000   0.00000   0.00000   0.00000
   D27       -0.26991   0.00000   0.00000   0.00000   0.00000  -0.26991
   D28        2.55157   0.00000   0.00000   0.00000   0.00000   2.55157
   D29        3.04566   0.00000   0.00000   0.00000   0.00000   3.04566
   D30       -0.41605   0.00000   0.00000   0.00000   0.00000  -0.41605
   D31       -2.62006   0.00000   0.00000   0.00000   0.00000  -2.62006
   D32       -0.53052   0.00000   0.00000   0.00000   0.00000  -0.53052
   D33        1.55850   0.00000   0.00000   0.00000   0.00000   1.55850
   D34        0.84620   0.00000   0.00000   0.00000   0.00000   0.84620
   D35        2.93574  -0.00000   0.00000   0.00000   0.00000   2.93574
   D36       -1.25843   0.00000   0.00000   0.00000   0.00000  -1.25842
   D37        2.81896   0.00000   0.00000   0.00000   0.00000   2.81896
   D38       -1.45113   0.00000   0.00000   0.00000   0.00000  -1.45112
   D39        0.65716  -0.00000   0.00000   0.00000   0.00000   0.65716
   D40       -1.31043  -0.00000   0.00000  -0.00000  -0.00000  -1.31043
   D41        0.70267   0.00000   0.00000   0.00000   0.00000   0.70267
   D42        2.81096  -0.00000   0.00000  -0.00000  -0.00000   2.81096
   D43        0.71908  -0.00000   0.00000  -0.00000  -0.00000   0.71908
   D44        2.73218   0.00000   0.00000   0.00000   0.00000   2.73218
   D45       -1.44272  -0.00000   0.00000  -0.00000  -0.00000  -1.44272
   D46        1.45113  -0.00000   0.00000  -0.00000  -0.00000   1.45112
   D47       -2.81896  -0.00000   0.00000  -0.00000  -0.00000  -2.81896
   D48       -0.65716   0.00000   0.00000  -0.00000  -0.00000  -0.65716
   D49       -0.70267  -0.00000   0.00000  -0.00000  -0.00000  -0.70267
   D50        1.31043   0.00000   0.00000   0.00000   0.00000   1.31043
   D51       -2.81096   0.00000   0.00000   0.00000   0.00000  -2.81096
   D52       -2.73218  -0.00000   0.00000  -0.00000  -0.00000  -2.73218
   D53       -0.71908   0.00000   0.00000   0.00000   0.00000  -0.71908
   D54        1.44272   0.00000   0.00000   0.00000   0.00000   1.44272
   D55       -1.49785   0.00000   0.00000   0.00000   0.00000  -1.49785
   D56        1.49297   0.00000   0.00000   0.00000   0.00000   1.49298
   D57        2.65032  -0.00000   0.00000   0.00000   0.00000   2.65032
   D58       -0.64204  -0.00000   0.00000   0.00000   0.00000  -0.64204
   D59        0.59994   0.00000   0.00000   0.00000   0.00000   0.59994
   D60       -2.69242   0.00000   0.00000   0.00000   0.00000  -2.69242
   D61        1.49785  -0.00000   0.00000  -0.00000  -0.00000   1.49785
   D62       -1.49297  -0.00000   0.00000  -0.00000  -0.00000  -1.49298
   D63       -0.59994  -0.00000   0.00000  -0.00000  -0.00000  -0.59994
   D64        2.69242  -0.00000   0.00000  -0.00000  -0.00000   2.69242
   D65       -2.65032   0.00000   0.00000  -0.00000  -0.00000  -2.65032
   D66        0.64204   0.00000   0.00000  -0.00000  -0.00000   0.64204
   D67       -2.81586  -0.00000   0.00000  -0.00000  -0.00000  -2.81586
   D68        0.18189  -0.00000   0.00000  -0.00000  -0.00000   0.18189
   D69        0.18204  -0.00000   0.00000  -0.00000  -0.00000   0.18204
   D70       -3.10339  -0.00000   0.00000  -0.00000  -0.00000  -3.10340
   D71        2.94280   0.00000   0.00000   0.00000   0.00000   2.94280
   D72       -0.17483   0.00000   0.00000   0.00000   0.00000  -0.17483
   D73       -0.05027   0.00000   0.00000   0.00000   0.00000  -0.05027
   D74        3.11529   0.00000   0.00000   0.00000   0.00000   3.11529
   D75        2.81586   0.00000   0.00000   0.00000   0.00000   2.81586
   D76       -0.18204   0.00000   0.00000   0.00000   0.00000  -0.18204
   D77       -0.18189   0.00000   0.00000   0.00000   0.00000  -0.18189
   D78        3.10339   0.00000   0.00000   0.00000   0.00000   3.10340
   D79       -0.07449   0.00000   0.00000   0.00000   0.00000  -0.07449
   D80        3.12106  -0.00000   0.00000  -0.00000  -0.00000   3.12106
   D81        3.04316   0.00000   0.00000   0.00000   0.00000   3.04316
   D82       -0.04448  -0.00000   0.00000  -0.00000  -0.00000  -0.04448
   D83       -2.94280  -0.00000   0.00000  -0.00000  -0.00000  -2.94280
   D84        0.17483  -0.00000   0.00000  -0.00000  -0.00000   0.17483
   D85        0.05027  -0.00000   0.00000  -0.00000  -0.00000   0.05027
   D86       -3.11529  -0.00000   0.00000  -0.00000  -0.00000  -3.11529
   D87        0.07449  -0.00000   0.00000  -0.00000  -0.00000   0.07449
   D88       -3.04316  -0.00000   0.00000  -0.00000  -0.00000  -3.04316
   D89       -3.12106   0.00000   0.00000   0.00000   0.00000  -3.12106
   D90        0.04448   0.00000   0.00000   0.00000   0.00000   0.04448
         Item               Value     Threshold  Converged?
 Maximum Force            0.000000     0.000002     YES
 RMS     Force            0.000000     0.000001     YES
 Maximum Displacement     0.000015     0.000006     NO 
 RMS     Displacement     0.000004     0.000004     NO 
 Predicted change in Energy=-5.416404D-12
 Lowest energy point so far.  Saving SCF results.
 GradGradGradGradGradGradGradGradGradGradGradGradGradGradGradGradGradGrad

 Leave Link  103 at Mon Jul 28 11:50:36 2025, MaxMem=   104857600 cpu:               2.0 elap:               0.1
 (Enter /opt/linux/rocky/8/software/gaussian/16c01_avx2/g16/l202.exe)
                          Input orientation:                          
 ---------------------------------------------------------------------
 Center     Atomic      Atomic             Coordinates (Angstroms)
 Number     Number       Type             X           Y           Z
 ---------------------------------------------------------------------
      1          6           0        0.965869    1.549296    0.696083
      2          6           0        0.965869    1.549296   -0.696083
      3          6           0        1.469348    0.451479   -1.406266
      4          6           0        2.256731   -0.467814   -0.698796
      5          6           0        2.256731   -0.467814    0.698796
      6          6           0        1.469348    0.451479    1.406266
      7          1           0        0.421491    2.326124    1.226572
      8          1           0        0.421491    2.326124   -1.226572
      9          1           0        2.741027   -1.284698   -1.230058
     10          1           0        2.741027   -1.284698    1.230058
     11          6           0        0.835218    0.085792   -2.729676
     12          1           0        1.541993   -0.381276   -3.425664
     13          1           0        0.444129    0.985295   -3.217533
     14          6           0        0.835218    0.085792    2.729676
     15          1           0        1.541993   -0.381276    3.425664
     16          1           0        0.444129    0.985295    3.217533
     17          6           0       -0.359685   -0.927273   -2.485953
     18          1           0       -1.001751   -0.921586   -3.374458
     19          1           0        0.064833   -1.934143   -2.406039
     20          6           0       -0.359685   -0.927273    2.485953
     21          1           0        0.064833   -1.934143    2.406039
     22          1           0       -1.001751   -0.921586    3.374458
     23          6           0       -1.163203   -0.629657    1.228496
     24          6           0       -0.730313   -1.146171   -0.000000
     25          6           0       -2.223553    0.285995    1.213324
     26          6           0       -1.163203   -0.629657   -1.228496
     27          1           0        0.065145   -1.882686    0.000000
     28          6           0       -2.776058    0.704260   -0.000000
     29          1           0       -2.604129    0.690435    2.148482
     30          6           0       -2.223553    0.285995   -1.213324
     31          1           0       -3.610799    1.400035   -0.000000
     32          1           0       -2.604129    0.690435   -2.148482
 ---------------------------------------------------------------------
                    Distance matrix (angstroms):
                    1          2          3          4          5
     1  C    0.000000
     2  C    1.392166   0.000000
     3  C    2.424575   1.401090   0.000000
     4  C    2.771415   2.394799   1.401993   0.000000
     5  C    2.394799   2.771415   2.428241   1.397592   0.000000
     6  C    1.401090   2.424575   2.812532   2.428241   1.401993
     7  H    1.086843   2.143925   3.397667   3.857621   3.384190
     8  H    2.143925   1.086843   2.155131   3.384190   3.857621
     9  H    3.859109   3.386419   2.159288   1.088155   2.149958
    10  H    3.386419   3.859109   3.403187   2.149958   1.088155
    11  C    3.727564   2.508866   1.512369   2.540010   3.752545
    12  H    4.587791   3.392586   2.185572   2.820309   4.186825
    13  H    3.988320   2.635909   2.148656   3.426527   4.553535
    14  C    2.508866   3.727564   4.200222   3.752545   2.540010
    15  H    3.392586   4.587791   4.903703   4.186825   2.820309
    16  H    2.635909   3.988320   4.766084   4.553535   3.426527
    17  C    4.244507   3.330783   2.532201   3.201666   4.147211
    18  H    5.152289   4.141313   3.444621   4.240610   5.235935
    19  H    4.750723   3.983737   2.943366   3.141531   4.073640
    20  C    3.330783   4.244507   4.516159   4.147211   3.201666
    21  H    3.983737   4.750723   4.711425   4.073640   3.141531
    22  H    4.141313   5.152289   5.554004   5.235935   4.240610
    23  C    3.092611   3.603440   3.878292   3.928943   3.464494
    24  C    3.259924   3.259924   3.060814   3.141801   3.141801
    25  C    3.469276   3.926089   4.530691   4.929236   4.572298
    26  C    3.603440   3.092611   2.851453   3.464494   3.928943
    27  H    3.615845   3.615845   3.065566   2.700598   2.700598
    28  C    3.898798   3.898798   4.479392   5.214502   5.214502
    29  H    3.948669   4.644790   5.411705   5.751216   5.202988
    30  C    3.926089   3.469276   3.701639   4.572298   4.929236
    31  H    4.631705   4.631705   5.355860   6.197183   6.197183
    32  H    4.644790   3.948669   4.147434   5.202988   5.751216
                    6          7          8          9         10
     6  C    0.000000
     7  H    2.155131   0.000000
     8  H    3.397667   2.453144   0.000000
     9  H    3.403187   4.945029   4.291654   0.000000
    10  H    2.159288   4.291654   4.945029   2.460116   0.000000
    11  C    4.200222   4.565321   2.729391   2.785535   4.603242
    12  H    4.903703   5.498076   3.663543   2.659800   4.891789
    13  H    4.766084   4.642026   2.400471   3.791921   5.496332
    14  C    1.512369   2.729391   4.565321   4.603242   2.785535
    15  H    2.185572   3.663543   5.498076   4.891789   2.659800
    16  H    2.148656   2.400471   4.642026   5.496332   3.791921
    17  C    4.516159   4.997767   3.575034   3.364437   4.852927
    18  H    5.554004   5.808848   4.145679   4.328820   5.944897
    19  H    4.711425   5.610076   4.434887   2.994449   4.561249
    20  C    2.532201   3.575034   4.997767   4.852927   3.364437
    21  H    2.943366   4.434887   5.610076   4.561249   2.994449
    22  H    3.444621   4.145679   5.808848   5.944897   4.328820
    23  C    2.851453   3.353789   4.156351   4.660105   3.958799
    24  C    3.060814   3.858493   3.858493   3.685435   3.685435
    25  C    3.701639   3.340444   4.136602   5.751890   5.207150
    26  C    3.878292   4.156351   3.353789   3.958799   4.660105
    27  H    3.065566   4.398357   4.398357   3.005158   3.005158
    28  C    4.479392   3.789359   3.789359   5.992263   5.992263
    29  H    4.147434   3.560867   4.818801   6.624679   5.771944
    30  C    4.530691   4.136602   3.340444   5.207150   5.751890
    31  H    5.355860   4.315261   4.315261   7.004750   7.004750
    32  H    5.411705   4.818801   3.560867   5.771944   6.624679
                   11         12         13         14         15
    11  C    0.000000
    12  H    1.096396   0.000000
    13  H    1.095473   1.765260   0.000000
    14  C    5.459351   6.213364   6.027549   0.000000
    15  H    6.213364   6.851328   6.870581   1.096396   0.000000
    16  H    6.027549   6.870581   6.435066   1.095473   1.765260
    17  C    1.585400   2.190331   2.199828   5.445813   6.233916
    18  H    2.192033   2.600998   2.398205   6.453659   7.280400
    19  H    2.185949   2.373401   3.053769   5.572181   6.213063
    20  C    5.445813   6.233916   6.069084   1.585400   2.190331
    21  H    5.572181   6.213063   6.347562   2.185949   2.373401
    22  H    6.453659   7.280400   7.012924   2.192033   2.600998
    23  C    4.491400   5.388969   4.995874   2.599825   3.493898
    24  C    3.379312   4.181341   4.034226   3.379312   4.181341
    25  C    4.994337   6.012054   5.219007   3.419866   4.418036
    26  C    2.599825   3.493898   3.024542   4.491400   5.388969
    27  H    3.452397   4.021254   4.326830   3.452397   4.021254
    28  C    4.568910   5.617751   4.560822   4.568910   5.617751
    29  H    5.999260   7.029224   6.178425   3.540125   4.468791
    30  C    3.419866   4.418036   3.409165   4.994337   6.012054
    31  H    5.380095   6.438906   5.192973   5.380095   6.438906
    32  H    3.540125   4.468791   3.243716   5.999260   7.029224
                   16         17         18         19         20
    16  H    0.000000
    17  C    6.069084   0.000000
    18  H    7.012924   1.096231   0.000000
    19  H    6.347562   1.095623   1.760883   0.000000
    20  C    2.199828   4.971906   5.895481   5.012543   0.000000
    21  H    3.053769   5.012543   5.964648   4.812078   1.095623
    22  H    2.398205   5.895481   6.748916   5.964648   1.096231
    23  C    3.024542   3.812001   4.615027   4.052111   1.521649
    24  C    4.034226   2.522944   3.392799   2.653711   2.522944
    25  C    3.409165   4.316326   4.898856   4.823433   2.562344
    26  C    4.995874   1.521649   2.171737   2.143913   3.812001
    27  H    4.326830   2.696898   3.667281   2.406589   2.696898
    28  C    4.560822   3.831543   4.144696   4.562987   3.831543
    29  H    3.243716   5.397453   5.972361   5.895373   2.787184
    30  C    5.219007   2.562344   2.760716   3.404158   4.316326
    31  H    5.192973   4.708085   4.856338   5.515074   4.708085
    32  H    6.178425   2.787184   2.582488   3.752080   5.397453
                   21         22         23         24         25
    21  H    0.000000
    22  H    1.760883   0.000000
    23  C    2.143913   2.171737   0.000000
    24  C    2.653711   3.392799   1.401208   0.000000
    25  C    3.404158   2.760716   1.401068   2.398545   0.000000
    26  C    4.052111   4.615027   2.456992   1.401208   2.815181
    27  H    2.406589   3.667281   2.141990   1.084069   3.378382
    28  C    4.562987   4.144696   2.426899   2.758472   1.397269
    29  H    3.752080   2.582488   2.159927   3.391207   1.087626
    30  C    4.823433   4.898856   2.815181   2.398545   2.426647
    31  H    5.515074   4.856338   3.408750   3.844524   2.153530
    32  H    5.895373   5.972361   3.901652   3.391207   3.407366
                   26         27         28         29         30
    26  C    0.000000
    27  H    2.141990   0.000000
    28  C    2.426899   3.842489   0.000000
    29  H    3.901652   4.285084   2.155394   0.000000
    30  C    1.401068   3.378382   1.397269   3.407366   0.000000
    31  H    3.408750   4.928369   1.086690   2.476467   2.153530
    32  H    2.159927   4.285084   2.155394   4.296963   1.087626
                   31         32
    31  H    0.000000
    32  H    2.476467   0.000000
 Stoichiometry    C16H16
 Framework group  CS[SG(C2H2),X(C14H14)]
 Deg. of freedom    47
 Full point group                 CS      NOp   2
 RotChk:  IX=0 Diff= 7.67D-07
 Largest Abelian subgroup         CS      NOp   2
 Largest concise Abelian subgroup CS      NOp   2
                         Standard orientation:                         
 ---------------------------------------------------------------------
 Center     Atomic      Atomic             Coordinates (Angstroms)
 Number     Number       Type             X           Y           Z
 ---------------------------------------------------------------------
      1          6           0        0.965869    1.549295    0.696083
      2          6           0        0.965869    1.549295   -0.696083
      3          6           0        1.469349    0.451478   -1.406266
      4          6           0        2.256730   -0.467815   -0.698796
      5          6           0        2.256730   -0.467815    0.698796
      6          6           0        1.469349    0.451478    1.406266
      7          1           0        0.421492    2.326124    1.226572
      8          1           0        0.421492    2.326124   -1.226572
      9          1           0        2.741026   -1.284699   -1.230058
     10          1           0        2.741026   -1.284699    1.230058
     11          6           0        0.835218    0.085792   -2.729676
     12          1           0        1.541993   -0.381277   -3.425664
     13          1           0        0.444129    0.985295   -3.217533
     14          6           0        0.835218    0.085792    2.729676
     15          1           0        1.541993   -0.381277    3.425664
     16          1           0        0.444129    0.985295    3.217533
     17          6           0       -0.359685   -0.927273   -2.485953
     18          1           0       -1.001751   -0.921585   -3.374458
     19          1           0        0.064832   -1.934143   -2.406039
     20          6           0       -0.359685   -0.927273    2.485953
     21          1           0        0.064832   -1.934143    2.406039
     22          1           0       -1.001751   -0.921585    3.374458
     23          6           0       -1.163203   -0.629656    1.228496
     24          6           0       -0.730313   -1.146171    0.000000
     25          6           0       -2.223553    0.285995    1.213324
     26          6           0       -1.163203   -0.629656   -1.228496
     27          1           0        0.065144   -1.882686   -0.000000
     28          6           0       -2.776057    0.704261    0.000000
     29          1           0       -2.604129    0.690436    2.148482
     30          6           0       -2.223553    0.285995   -1.213324
     31          1           0       -3.610798    1.400037    0.000000
     32          1           0       -2.604129    0.690436   -2.148482
 ---------------------------------------------------------------------
 Rotational constants (GHZ):           0.7544992           0.7042620           0.4678160
 Leave Link  202 at Mon Jul 28 11:50:36 2025, MaxMem=   104857600 cpu:               0.2 elap:               0.0
 (Enter /opt/linux/rocky/8/software/gaussian/16c01_avx2/g16/l301.exe)
 Standard basis: 6-31G(d,p) (6D, 7F)
 Ernie: Thresh=  0.10000D-02 Tol=  0.10000D-05 Strict=F.
 There are   170 symmetry adapted cartesian basis functions of A'  symmetry.
 There are   150 symmetry adapted cartesian basis functions of A"  symmetry.
 There are   170 symmetry adapted basis functions of A'  symmetry.
 There are   150 symmetry adapted basis functions of A"  symmetry.
   320 basis functions,   560 primitive gaussians,   320 cartesian basis functions
    56 alpha electrons       56 beta electrons
       nuclear repulsion energy      1088.3277338664 Hartrees.
 IExCor=  402 DFT=T Ex+Corr=B3LYP ExCW=0 ScaHFX=  0.200000
 ScaDFX=  0.800000  0.720000  1.000000  0.810000 ScalE2=  1.000000  1.000000
 IRadAn=      5 IRanWt=     -1 IRanGd=            0 ICorTp=0 IEmpDi=  4
 NAtoms=   32 NActive=   32 NUniq=   18 SFac= 3.16D+00 NAtFMM=   60 NAOKFM=F Big=F
 Integral buffers will be    131072 words long.
 Raffenetti 2 integral format.
 Two-electron integral symmetry is turned on.
 Leave Link  301 at Mon Jul 28 11:50:36 2025, MaxMem=   104857600 cpu:               0.8 elap:               0.0
 (Enter /opt/linux/rocky/8/software/gaussian/16c01_avx2/g16/l302.exe)
 NPDir=0 NMtPBC=     1 NCelOv=     1 NCel=       1 NClECP=     1 NCelD=      1
         NCelK=      1 NCelE2=     1 NClLst=     1 CellRange=     0.0.
 One-electron integrals computed using PRISM.
 One-electron integral symmetry used in STVInt
 PrsmSu:  requested number of processors reduced to:  28 ShMem   1 Linda.
 NBasis=   320 RedAO= T EigKep=  4.49D-04  NBF=   170   150
 NBsUse=   320 1.00D-06 EigRej= -1.00D+00 NBFU=   170   150
 Precomputing XC quadrature grid using
 IXCGrd= 4 IRadAn=           5 IRanWt=          -1 IRanGd=           0 AccXCQ= 0.00D+00.
 Generated NRdTot=       0 NPtTot=           0 NUsed=           0 NTot=          32
 NSgBfM=   320   320   320   320   320 MxSgAt=    32 MxSgA2=    32.
 Leave Link  302 at Mon Jul 28 11:50:37 2025, MaxMem=   104857600 cpu:               6.0 elap:               0.2
 (Enter /opt/linux/rocky/8/software/gaussian/16c01_avx2/g16/l303.exe)
 DipDrv:  MaxL=1.
 Leave Link  303 at Mon Jul 28 11:50:37 2025, MaxMem=   104857600 cpu:               0.7 elap:               0.0
 (Enter /opt/linux/rocky/8/software/gaussian/16c01_avx2/g16/l401.exe)
 Initial guess from the checkpoint file:  "metapara_b3lyp631gdp_vtight.chk"
 B after Tr=     0.000000    0.000000    0.000000
         Rot=    1.000000   -0.000000   -0.000000    0.000000 Ang=   0.00 deg.
 Guess basis will be translated and rotated to current coordinates.
 JPrj=2 DoOrth=T DoCkMO=T.
 Initial guess orbital symmetries:
       Occupied  (A") (A') (A") (A') (A') (A") (A") (A') (A') (A')
                 (A") (A") (A') (A') (A") (A') (A') (A') (A") (A')
                 (A") (A') (A') (A") (A') (A") (A") (A') (A') (A")
                 (A') (A') (A') (A") (A") (A') (A') (A") (A') (A")
                 (A') (A') (A") (A") (A') (A') (A") (A') (A') (A")
                 (A") (A') (A') (A') (A") (A")
       Virtual   (A') (A") (A") (A') (A') (A") (A') (A') (A") (A')
                 (A") (A') (A') (A") (A') (A") (A") (A') (A') (A")
                 (A') (A") (A') (A") (A') (A") (A') (A") (A') (A")
                 (A') (A") (A') (A") (A") (A') (A") (A') (A') (A")
                 (A') (A') (A") (A') (A') (A") (A') (A') (A") (A")
                 (A') (A") (A') (A") (A') (A') (A") (A') (A") (A')
                 (A") (A') (A") (A") (A') (A") (A') (A') (A") (A')
                 (A') (A") (A') (A") (A") (A') (A") (A') (A") (A")
                 (A') (A') (A') (A") (A') (A') (A") (A") (A") (A')
                 (A') (A") (A') (A") (A") (A') (A") (A') (A") (A')
                 (A') (A") (A') (A") (A') (A') (A") (A') (A") (A")
                 (A') (A') (A") (A') (A") (A') (A") (A') (A') (A")
                 (A') (A') (A") (A") (A") (A') (A') (A") (A") (A')
                 (A') (A") (A") (A') (A') (A") (A') (A") (A') (A")
                 (A') (A') (A") (A') (A') (A") (A") (A') (A') (A')
                 (A") (A') (A') (A') (A") (A') (A") (A") (A") (A')
                 (A') (A') (A") (A") (A") (A') (A') (A") (A') (A")
                 (A') (A") (A") (A') (A') (A') (A") (A") (A") (A')
                 (A") (A') (A') (A") (A') (A') (A") (A') (A') (A")
                 (A') (A") (A") (A') (A') (A") (A') (A") (A") (A')
                 (A") (A') (A") (A") (A') (A") (A") (A') (A") (A")
                 (A") (A') (A') (A") (A') (A") (A") (A') (A') (A")
                 (A') (A") (A') (A") (A') (A') (A") (A") (A") (A')
                 (A') (A') (A') (A") (A') (A") (A") (A") (A') (A")
                 (A') (A') (A") (A") (A') (A") (A") (A') (A') (A")
                 (A') (A') (A") (A') (A') (A") (A') (A") (A') (A")
                 (A') (A") (A") (A')
 The electronic state of the initial guess is 1-A'.
 Leave Link  401 at Mon Jul 28 11:50:37 2025, MaxMem=   104857600 cpu:               5.0 elap:               0.2
 (Enter /opt/linux/rocky/8/software/gaussian/16c01_avx2/g16/l502.exe)
 Integral symmetry usage will be decided dynamically.
 Closed shell SCF:
 Using DIIS extrapolation, IDIIS=  1040.
 NGot=   104857600 LenX=   104636278 LenY=   104533437
 Requested convergence on RMS density matrix=1.00D-10 within 128 cycles.
 Requested convergence on MAX density matrix=1.00D-08.
 Requested convergence on             energy=1.00D-08.
 No special actions if energy rises.
 Fock matrices will be formed incrementally for  20 cycles.

 Cycle   1  Pass 1  IDiag  1:
 FoFJK:  IHMeth= 1 ICntrl=       0 DoSepK=F KAlg= 0 I1Cent=           0 FoldK=F
 IRaf= 910000000 NMat=       1 IRICut=       1 DoRegI=T DoRafI=F ISym2E= 1 IDoP0=0 IntGTp=1.
 FoFCou: FMM=F IPFlag=           0 FMFlag=      100000 FMFlg1=           0
         NFxFlg=           0 DoJE=F BraDBF=F KetDBF=F FulRan=T
         wScrn=  0.000000 ICntrl=         0 IOpCl=  0 I1Cent=           0 NGrid=           0
         NMat0=    1 NMatS0=      1 NMatT0=    0 NMatD0=    1 NMtDS0=    0 NMtDT0=    0
 Petite list used in FoFCou.
 E= -619.341347022527    
 DIIS: error= 4.32D-07 at cycle   1 NSaved=   1.
 NSaved= 1 IEnMin= 1 EnMin= -619.341347022527     IErMin= 1 ErrMin= 4.32D-07
 ErrMax= 4.32D-07  0.00D+00 EMaxC= 1.00D-01 BMatC= 2.29D-11 BMatP= 2.29D-11
 IDIUse=1 WtCom= 1.00D+00 WtEn= 0.00D+00
 Coeff-Com:  0.100D+01
 Coeff:      0.100D+01
 Gap=     0.209 Goal=   None    Shift=    0.000
 RMSDP=2.80D-08 MaxDP=8.44D-07              OVMax= 1.63D-06

 Cycle   2  Pass 1  IDiag  1:
 RMSU=  2.80D-08    CP:  1.00D+00
 E= -619.341347022578     Delta-E=       -0.000000000051 Rises=F Damp=F
 DIIS: error= 6.18D-08 at cycle   2 NSaved=   2.
 NSaved= 2 IEnMin= 2 EnMin= -619.341347022578     IErMin= 2 ErrMin= 6.18D-08
 ErrMax= 6.18D-08  0.00D+00 EMaxC= 1.00D-01 BMatC= 4.56D-13 BMatP= 2.29D-11
 IDIUse=1 WtCom= 1.00D+00 WtEn= 0.00D+00
 Coeff-Com: -0.730D-01 0.107D+01
 Coeff:     -0.730D-01 0.107D+01
 Gap=     0.209 Goal=   None    Shift=    0.000
 RMSDP=5.62D-09 MaxDP=1.66D-07 DE=-5.14D-11 OVMax= 4.17D-07

 Cycle   3  Pass 1  IDiag  1:
 RMSU=  5.13D-09    CP:  1.00D+00  1.08D+00
 E= -619.341347022571     Delta-E=        0.000000000008 Rises=F Damp=F
 DIIS: error= 4.35D-08 at cycle   3 NSaved=   3.
 NSaved= 3 IEnMin= 2 EnMin= -619.341347022578     IErMin= 3 ErrMin= 4.35D-08
 ErrMax= 4.35D-08  0.00D+00 EMaxC= 1.00D-01 BMatC= 6.48D-13 BMatP= 4.56D-13
 IDIUse=1 WtCom= 1.00D+00 WtEn= 0.00D+00
 Coeff-Com: -0.549D-01 0.636D+00 0.419D+00
 Coeff:     -0.549D-01 0.636D+00 0.419D+00
 Gap=     0.209 Goal=   None    Shift=    0.000
 RMSDP=3.60D-09 MaxDP=9.38D-08 DE= 7.50D-12 OVMax= 3.22D-07

 Cycle   4  Pass 1  IDiag  1:
 RMSU=  1.90D-09    CP:  1.00D+00  1.11D+00  4.21D-01
 E= -619.341347022580     Delta-E=       -0.000000000009 Rises=F Damp=F
 DIIS: error= 1.31D-08 at cycle   4 NSaved=   4.
 NSaved= 4 IEnMin= 4 EnMin= -619.341347022580     IErMin= 4 ErrMin= 1.31D-08
 ErrMax= 1.31D-08  0.00D+00 EMaxC= 1.00D-01 BMatC= 4.24D-14 BMatP= 4.56D-13
 IDIUse=1 WtCom= 1.00D+00 WtEn= 0.00D+00
 Coeff-Com: -0.179D-01 0.182D+00 0.226D+00 0.610D+00
 Coeff:     -0.179D-01 0.182D+00 0.226D+00 0.610D+00
 Gap=     0.209 Goal=   None    Shift=    0.000
 RMSDP=9.99D-10 MaxDP=2.60D-08 DE=-9.32D-12 OVMax= 9.30D-08

 Cycle   5  Pass 1  IDiag  1:
 RMSU=  6.66D-10    CP:  1.00D+00  1.11D+00  5.32D-01  7.50D-01
 E= -619.341347022583     Delta-E=       -0.000000000003 Rises=F Damp=F
 DIIS: error= 3.46D-09 at cycle   5 NSaved=   5.
 NSaved= 5 IEnMin= 5 EnMin= -619.341347022583     IErMin= 5 ErrMin= 3.46D-09
 ErrMax= 3.46D-09  0.00D+00 EMaxC= 1.00D-01 BMatC= 6.82D-15 BMatP= 4.24D-14
 IDIUse=1 WtCom= 1.00D+00 WtEn= 0.00D+00
 Coeff-Com: -0.159D-02 0.374D-02 0.627D-01 0.348D+00 0.587D+00
 Coeff:     -0.159D-02 0.374D-02 0.627D-01 0.348D+00 0.587D+00
 Gap=     0.209 Goal=   None    Shift=    0.000
 RMSDP=3.22D-10 MaxDP=9.90D-09 DE=-2.73D-12 OVMax= 2.41D-08

 Cycle   6  Pass 1  IDiag  1:
 RMSU=  1.76D-10    CP:  1.00D+00  1.11D+00  5.32D-01  8.28D-01  6.70D-01
 E= -619.341347022583     Delta-E=        0.000000000000 Rises=F Damp=F
 DIIS: error= 7.47D-10 at cycle   6 NSaved=   6.
 NSaved= 6 IEnMin= 5 EnMin= -619.341347022583     IErMin= 6 ErrMin= 7.47D-10
 ErrMax= 7.47D-10  0.00D+00 EMaxC= 1.00D-01 BMatC= 3.43D-16 BMatP= 6.82D-15
 IDIUse=1 WtCom= 1.00D+00 WtEn= 0.00D+00
 Coeff-Com:  0.101D-02-0.172D-01 0.353D-02 0.952D-01 0.256D+00 0.661D+00
 Coeff:      0.101D-02-0.172D-01 0.353D-02 0.952D-01 0.256D+00 0.661D+00
 Gap=     0.209 Goal=   None    Shift=    0.000
 RMSDP=7.86D-11 MaxDP=2.28D-09 DE= 0.00D+00 OVMax= 4.68D-09

 SCF Done:  E(RB3LYP) =  -619.341347023     A.U. after    6 cycles
            NFock=  6  Conv=0.79D-10     -V/T= 2.0099
 KE= 6.132660348042D+02 PE=-3.610140453530D+03 EE= 1.289205337837D+03
 Leave Link  502 at Mon Jul 28 11:50:40 2025, MaxMem=   104857600 cpu:             114.2 elap:               3.2
 (Enter /opt/linux/rocky/8/software/gaussian/16c01_avx2/g16/l701.exe)
 ... and contract with generalized density number  0.
 Compute integral first derivatives.
 PrsmSu:  requested number of processors reduced to:  29 ShMem   1 Linda.
 Leave Link  701 at Mon Jul 28 11:50:41 2025, MaxMem=   104857600 cpu:               5.1 elap:               0.2
 (Enter /opt/linux/rocky/8/software/gaussian/16c01_avx2/g16/l702.exe)
 L702 exits ... SP integral derivatives will be done elsewhere.
 Leave Link  702 at Mon Jul 28 11:50:41 2025, MaxMem=   104857600 cpu:               0.2 elap:               0.0
 (Enter /opt/linux/rocky/8/software/gaussian/16c01_avx2/g16/l703.exe)
 Integral derivatives from FoFJK, PRISM(SPDF).
 Compute integral first derivatives, UseDBF=F ICtDFT=           0.
 Calling FoFJK, ICntrl=      2127 FMM=F ISym2X=1 I1Cent= 0 IOpClX= 0 NMat=1 NMatS=1 NMatT=0.
 FoFJK:  IHMeth= 1 ICntrl=    2127 DoSepK=F KAlg= 0 I1Cent=           0 FoldK=F
 IRaf=         0 NMat=       1 IRICut=       1 DoRegI=T DoRafI=F ISym2E= 1 IDoP0=0 IntGTp=1.
 FoFCou: FMM=F IPFlag=           0 FMFlag=      100000 FMFlg1=         800
         NFxFlg=           0 DoJE=F BraDBF=F KetDBF=F FulRan=T
         wScrn=  0.000000 ICntrl=      2127 IOpCl=  0 I1Cent=           0 NGrid=           0
         NMat0=    1 NMatS0=      1 NMatT0=    0 NMatD0=    1 NMtDS0=    0 NMtDT0=    0
 Petite list used in FoFCou.
 Leave Link  703 at Mon Jul 28 11:50:42 2025, MaxMem=   104857600 cpu:              32.8 elap:               0.9
 (Enter /opt/linux/rocky/8/software/gaussian/16c01_avx2/g16/l716.exe)
 Dipole        =-7.79611223D-02-9.48715795D-02-1.77635684D-15
 ***** Axes restored to original set *****
 -------------------------------------------------------------------
 Center     Atomic                   Forces (Hartrees/Bohr)
 Number     Number              X              Y              Z
 -------------------------------------------------------------------
      1        6           0.000000777   -0.000000534   -0.000000157
      2        6           0.000000777   -0.000000534    0.000000157
      3        6           0.000000379   -0.000000713    0.000000158
      4        6          -0.000000083   -0.000001019    0.000000099
      5        6          -0.000000083   -0.000001019   -0.000000099
      6        6           0.000000379   -0.000000713   -0.000000158
      7        1           0.000001149   -0.000000161    0.000000063
      8        1           0.000001149   -0.000000161   -0.000000063
      9        1          -0.000000623   -0.000001365    0.000000012
     10        1          -0.000000623   -0.000001365   -0.000000012
     11        6          -0.000000020   -0.000000581   -0.000000093
     12        1          -0.000000145   -0.000000753   -0.000000022
     13        1           0.000000481   -0.000000175   -0.000000014
     14        6          -0.000000020   -0.000000581    0.000000093
     15        1          -0.000000145   -0.000000753    0.000000022
     16        1           0.000000481   -0.000000175    0.000000014
     17        6          -0.000000366    0.000000122    0.000000060
     18        1          -0.000000443    0.000000523    0.000000008
     19        1          -0.000000961    0.000000003   -0.000000011
     20        6          -0.000000366    0.000000122   -0.000000060
     21        1          -0.000000961    0.000000003    0.000000011
     22        1          -0.000000443    0.000000523   -0.000000008
     23        6          -0.000000407    0.000000673    0.000000144
     24        6          -0.000000622    0.000000140   -0.000000000
     25        6           0.000000138    0.000001141   -0.000000096
     26        6          -0.000000407    0.000000673   -0.000000144
     27        1          -0.000001073   -0.000000068    0.000000000
     28        6           0.000000465    0.000001313    0.000000000
     29        1           0.000000373    0.000001261    0.000000005
     30        6           0.000000138    0.000001141    0.000000096
     31        1           0.000000728    0.000001770    0.000000000
     32        1           0.000000373    0.000001261   -0.000000005
 -------------------------------------------------------------------
 Cartesian Forces:  Max     0.000001770 RMS     0.000000582
 Leave Link  716 at Mon Jul 28 11:50:42 2025, MaxMem=   104857600 cpu:               0.2 elap:               0.0
 (Enter /opt/linux/rocky/8/software/gaussian/16c01_avx2/g16/l103.exe)

 GradGradGradGradGradGradGradGradGradGradGradGradGradGradGradGradGradGrad
 Berny optimization.
 Using GEDIIS/GDIIS optimizer.
 FormGI is forming the generalized inverse of G from B-inverse, IUseBI=4.
 Internal  Forces:  Max     0.000000215 RMS     0.000000060
 Search for a local minimum.
 Step number   3 out of a maximum of  192
 All quantities printed in internal units (Hartrees-Bohrs-Radians)
 RMS Force = .60463D-07 SwitMx=.10000D-02 MixMth= 2
 Mixed Optimization -- En-DIIS/RFO-DIIS
 Swapping is turned off.
 Update second derivatives using D2CorX and points    1    2    3
 DE= -7.34D-11 DEPred=-5.42D-12 R= 1.36D+01
 Trust test= 1.36D+01 RLast= 2.14D-05 DXMaxT set to 3.00D-01
 ITU=  0  0  0
     Eigenvalues ---    0.00453   0.00493   0.00877   0.01504   0.01653
     Eigenvalues ---    0.01705   0.01860   0.01986   0.02048   0.02077
     Eigenvalues ---    0.02100   0.02116   0.02116   0.02122   0.02123
     Eigenvalues ---    0.02141   0.02172   0.02178   0.02240   0.02447
     Eigenvalues ---    0.03135   0.04021   0.04598   0.04648   0.05181
     Eigenvalues ---    0.05421   0.06184   0.06273   0.06879   0.07514
     Eigenvalues ---    0.08305   0.08789   0.08945   0.09389   0.09404
     Eigenvalues ---    0.10561   0.12972   0.14040   0.14904   0.15653
     Eigenvalues ---    0.15695   0.15846   0.15848   0.15977   0.15996
     Eigenvalues ---    0.16006   0.16398   0.19983   0.21684   0.21996
     Eigenvalues ---    0.22412   0.22588   0.22958   0.22992   0.23400
     Eigenvalues ---    0.23614   0.24133   0.24749   0.28392   0.29931
     Eigenvalues ---    0.30965   0.31047   0.34072   0.34084   0.34102
     Eigenvalues ---    0.34109   0.34144   0.34171   0.34188   0.34466
     Eigenvalues ---    0.35027   0.35027   0.35087   0.35088   0.35180
     Eigenvalues ---    0.35197   0.35508   0.35717   0.39948   0.41045
     Eigenvalues ---    0.41149   0.41590   0.43456   0.43626   0.44535
     Eigenvalues ---    0.45279   0.45507   0.45755   0.45958   0.47440
 En-DIIS/RFO-DIIS/Sim-DIIS IScMMF=       -3 using points:     3    2    1
 RFO step:  Lambda=-3.84030380D-12.
 NNeg= 0 NGDIIS= 3 SimSw=  2.50D-03 Rises=F DC= -7.34D-11 SmlDif=  1.00D-05
 NRisDI= 0 DoIntr=F SqrtH=F CThrHd= 10.0 CDAdj=  3.0
 RMS Error=  0.1510003022D-05 NUsed= 3 OKEnD=F EnDIS=F
 InvSVX:  RCond= 2.56D-10 Info=           0 Equed=N FErr=  2.94D-15 BErr=  4.39D-17
 DIIS inversion failure, remove point   3.
 InvSVX:  RCond= 5.14D-10 Info=           0 Equed=N FErr=  1.74D-15 BErr=  5.60D-17
 DIIS inversion failure, remove point   2.
 Use linear search instead of GDIIS.
 RFO step:  Lambda= 0.00000000D+00 EMin= 4.52585287D-03
 Skip linear search -- no minimum in search direction.
 Iteration  1 RMS(Cart)=  0.00000411 RMS(Int)=  0.00000000
 Iteration  2 RMS(Cart)=  0.00000000 RMS(Int)=  0.00000000
 ITry= 1 IFail=0 DXMaxC= 1.56D-05 DCOld= 1.00D+10 DXMaxT= 3.00D-01 DXLimC= 3.00D+00 Rises=F
 ClnCor:  largest displacement from symmetrization is 7.68D-09 for atom    10.
 Variable       Old X    -DE/DX   Delta X   Delta X   Delta X     New X
                                 (Linear)    (Quad)   (Total)
    R1        2.63081  -0.00000   0.00000  -0.00000  -0.00000   2.63081
    R2        2.64768   0.00000   0.00000   0.00000   0.00000   2.64768
    R3        2.05384   0.00000   0.00000   0.00000   0.00000   2.05384
    R4        2.64768   0.00000   0.00000   0.00000   0.00000   2.64768
    R5        2.05384   0.00000   0.00000   0.00000   0.00000   2.05384
    R6        2.64938  -0.00000   0.00000  -0.00000  -0.00000   2.64938
    R7        2.85796   0.00000   0.00000   0.00000   0.00000   2.85796
    R8        2.64107  -0.00000   0.00000   0.00000   0.00000   2.64107
    R9        2.05631  -0.00000   0.00000  -0.00000  -0.00000   2.05631
   R10        2.64938  -0.00000   0.00000  -0.00000  -0.00000   2.64938
   R11        2.05631  -0.00000   0.00000  -0.00000  -0.00000   2.05631
   R12        2.85796   0.00000   0.00000   0.00000   0.00000   2.85796
   R13        2.07189   0.00000   0.00000   0.00000   0.00000   2.07189
   R14        2.07014   0.00000   0.00000   0.00000   0.00000   2.07014
   R15        2.99597   0.00000   0.00000  -0.00000  -0.00000   2.99597
   R16        2.07189   0.00000   0.00000   0.00000   0.00000   2.07189
   R17        2.07014   0.00000   0.00000   0.00000   0.00000   2.07014
   R18        2.99597   0.00000   0.00000  -0.00000  -0.00000   2.99597
   R19        2.07158  -0.00000   0.00000   0.00000   0.00000   2.07158
   R20        2.07043  -0.00000   0.00000   0.00000   0.00000   2.07043
   R21        2.87550   0.00000   0.00000   0.00000   0.00000   2.87550
   R22        2.07043  -0.00000   0.00000   0.00000   0.00000   2.07043
   R23        2.07158  -0.00000   0.00000   0.00000   0.00000   2.07158
   R24        2.87550   0.00000   0.00000   0.00000   0.00000   2.87550
   R25        2.64790   0.00000   0.00000  -0.00000  -0.00000   2.64790
   R26        2.64763  -0.00000   0.00000  -0.00000  -0.00000   2.64763
   R27        2.64790   0.00000   0.00000  -0.00000  -0.00000   2.64790
   R28        2.04859  -0.00000   0.00000  -0.00000  -0.00000   2.04859
   R29        2.64046  -0.00000   0.00000   0.00000   0.00000   2.64046
   R30        2.05532  -0.00000   0.00000  -0.00000  -0.00000   2.05532
   R31        2.64763  -0.00000   0.00000  -0.00000  -0.00000   2.64763
   R32        2.64046  -0.00000   0.00000   0.00000   0.00000   2.64046
   R33        2.05355  -0.00000   0.00000  -0.00000  -0.00000   2.05355
   R34        2.05532  -0.00000   0.00000  -0.00000  -0.00000   2.05532
    A1        2.10236  -0.00000   0.00000  -0.00000  -0.00000   2.10236
    A2        2.08071   0.00000   0.00000  -0.00000  -0.00000   2.08071
    A3        2.08590  -0.00000   0.00000   0.00000   0.00000   2.08590
    A4        2.10236  -0.00000   0.00000  -0.00000  -0.00000   2.10236
    A5        2.08071   0.00000   0.00000  -0.00000  -0.00000   2.08071
    A6        2.08590  -0.00000   0.00000   0.00000   0.00000   2.08590
    A7        2.04858   0.00000   0.00000  -0.00000  -0.00000   2.04858
    A8        2.07411  -0.00000   0.00000  -0.00000  -0.00000   2.07411
    A9        2.11590   0.00000   0.00000   0.00000   0.00000   2.11590
   A10        2.09974  -0.00000   0.00000  -0.00000  -0.00000   2.09974
   A11        2.08959   0.00000   0.00000   0.00000   0.00000   2.08959
   A12        2.08085  -0.00000   0.00000  -0.00000  -0.00000   2.08085
   A13        2.09974  -0.00000   0.00000  -0.00000  -0.00000   2.09974
   A14        2.08085  -0.00000   0.00000  -0.00000  -0.00000   2.08085
   A15        2.08959   0.00000   0.00000   0.00000   0.00000   2.08959
   A16        2.04858   0.00000   0.00000  -0.00000  -0.00000   2.04858
   A17        2.07411  -0.00000   0.00000  -0.00000  -0.00000   2.07411
   A18        2.11590   0.00000   0.00000   0.00000   0.00000   2.11590
   A19        1.96947  -0.00000   0.00000  -0.00000  -0.00000   1.96947
   A20        1.91861  -0.00000   0.00000  -0.00000  -0.00000   1.91861
   A21        1.91347   0.00000   0.00000   0.00000   0.00000   1.91347
   A22        1.87259   0.00000   0.00000  -0.00000  -0.00000   1.87259
   A23        1.88728   0.00000   0.00000   0.00000   0.00000   1.88728
   A24        1.90083  -0.00000   0.00000  -0.00000  -0.00000   1.90083
   A25        1.96947  -0.00000   0.00000  -0.00000  -0.00000   1.96947
   A26        1.91861  -0.00000   0.00000  -0.00000  -0.00000   1.91861
   A27        1.91347   0.00000   0.00000   0.00000   0.00000   1.91347
   A28        1.87259   0.00000   0.00000  -0.00000  -0.00000   1.87259
   A29        1.88728   0.00000   0.00000   0.00000   0.00000   1.88728
   A30        1.90083  -0.00000   0.00000  -0.00000  -0.00000   1.90083
   A31        1.88970  -0.00000   0.00000   0.00000   0.00000   1.88970
   A32        1.88222   0.00000   0.00000   0.00000   0.00000   1.88222
   A33        1.98237  -0.00000   0.00000  -0.00000  -0.00000   1.98237
   A34        1.86589   0.00000   0.00000  -0.00000  -0.00000   1.86589
   A35        1.93851  -0.00000   0.00000  -0.00000  -0.00000   1.93851
   A36        1.90083   0.00000   0.00000  -0.00000  -0.00000   1.90083
   A37        1.88222   0.00000   0.00000   0.00000   0.00000   1.88222
   A38        1.88970  -0.00000   0.00000   0.00000   0.00000   1.88970
   A39        1.98237  -0.00000   0.00000  -0.00000  -0.00000   1.98237
   A40        1.86589   0.00000   0.00000  -0.00000  -0.00000   1.86589
   A41        1.90083   0.00000   0.00000  -0.00000  -0.00000   1.90083
   A42        1.93851  -0.00000   0.00000  -0.00000  -0.00000   1.93851
   A43        2.08206  -0.00000   0.00000  -0.00000  -0.00000   2.08206
   A44        2.13698   0.00000   0.00000   0.00000   0.00000   2.13698
   A45        2.05468  -0.00000   0.00000  -0.00000  -0.00000   2.05468
   A46        2.13809  -0.00000   0.00000  -0.00000  -0.00000   2.13809
   A47        2.06818   0.00000   0.00000  -0.00000  -0.00000   2.06818
   A48        2.06818   0.00000   0.00000  -0.00000  -0.00000   2.06818
   A49        2.09936   0.00000   0.00000  -0.00000  -0.00000   2.09936
   A50        2.09270  -0.00000   0.00000   0.00000   0.00000   2.09270
   A51        2.09088   0.00000   0.00000  -0.00000  -0.00000   2.09088
   A52        2.08206  -0.00000   0.00000  -0.00000  -0.00000   2.08206
   A53        2.13698   0.00000   0.00000   0.00000   0.00000   2.13698
   A54        2.05468  -0.00000   0.00000  -0.00000  -0.00000   2.05468
   A55        2.10375   0.00000   0.00000   0.00000   0.00000   2.10375
   A56        2.08909  -0.00000   0.00000  -0.00000  -0.00000   2.08909
   A57        2.08909  -0.00000   0.00000  -0.00000  -0.00000   2.08909
   A58        2.09936   0.00000   0.00000  -0.00000  -0.00000   2.09936
   A59        2.09270  -0.00000   0.00000   0.00000   0.00000   2.09270
   A60        2.09088   0.00000   0.00000  -0.00000  -0.00000   2.09088
    D1       -0.00000   0.00000   0.00000   0.00000   0.00000   0.00000
    D2        2.96035  -0.00000   0.00000  -0.00000  -0.00000   2.96035
    D3       -2.96035   0.00000   0.00000   0.00000   0.00000  -2.96035
    D4        0.00000  -0.00000   0.00000  -0.00000   0.00000   0.00000
    D5        0.27033   0.00000   0.00000   0.00000   0.00000   0.27033
    D6       -2.55905   0.00000   0.00000   0.00000   0.00000  -2.55905
    D7       -3.05304   0.00000   0.00000   0.00000   0.00000  -3.05304
    D8        0.40076   0.00000   0.00000   0.00000   0.00000   0.40076
    D9       -0.27033  -0.00000   0.00000  -0.00000  -0.00000  -0.27033
   D10        2.55905  -0.00000   0.00000  -0.00000  -0.00000   2.55905
   D11        3.05304  -0.00000   0.00000  -0.00000  -0.00000   3.05304
   D12       -0.40076  -0.00000   0.00000  -0.00000  -0.00000  -0.40076
   D13        0.26991   0.00000   0.00000   0.00000   0.00000   0.26991
   D14       -3.04566   0.00000   0.00000  -0.00000  -0.00000  -3.04566
   D15       -2.55157   0.00000   0.00000   0.00000   0.00000  -2.55157
   D16        0.41605   0.00000   0.00000  -0.00000  -0.00000   0.41605
   D17        2.62006   0.00000   0.00000   0.00000   0.00000   2.62006
   D18        0.53052   0.00000   0.00000   0.00000   0.00000   0.53052
   D19       -1.55850   0.00000   0.00000   0.00000   0.00000  -1.55850
   D20       -0.84620   0.00000   0.00000   0.00000   0.00000  -0.84620
   D21       -2.93574   0.00000   0.00000   0.00000   0.00000  -2.93574
   D22        1.25842   0.00000   0.00000   0.00000   0.00000   1.25843
   D23       -0.00000   0.00000   0.00000   0.00000   0.00000   0.00000
   D24        2.96848  -0.00000   0.00000  -0.00000  -0.00000   2.96848
   D25       -2.96848   0.00000   0.00000   0.00000   0.00000  -2.96848
   D26        0.00000   0.00000   0.00000  -0.00000  -0.00000   0.00000
   D27       -0.26991  -0.00000   0.00000  -0.00000  -0.00000  -0.26991
   D28        2.55157  -0.00000   0.00000  -0.00000  -0.00000   2.55157
   D29        3.04566  -0.00000   0.00000   0.00000   0.00000   3.04566
   D30       -0.41605  -0.00000   0.00000   0.00000   0.00000  -0.41605
   D31       -2.62006  -0.00000   0.00000  -0.00000  -0.00000  -2.62006
   D32       -0.53052  -0.00000   0.00000  -0.00000  -0.00000  -0.53052
   D33        1.55850  -0.00000   0.00000  -0.00000  -0.00000   1.55850
   D34        0.84620  -0.00000   0.00000  -0.00000  -0.00000   0.84620
   D35        2.93574  -0.00000   0.00000  -0.00000  -0.00000   2.93574
   D36       -1.25842  -0.00000   0.00000  -0.00000  -0.00000  -1.25843
   D37        2.81896  -0.00000   0.00000  -0.00000  -0.00000   2.81895
   D38       -1.45112  -0.00000   0.00000  -0.00000  -0.00000  -1.45113
   D39        0.65716   0.00000   0.00000  -0.00000  -0.00000   0.65716
   D40       -1.31043   0.00000   0.00000  -0.00000  -0.00000  -1.31043
   D41        0.70267   0.00000   0.00000  -0.00000  -0.00000   0.70267
   D42        2.81096   0.00000   0.00000  -0.00000  -0.00000   2.81096
   D43        0.71908  -0.00000   0.00000  -0.00000  -0.00000   0.71908
   D44        2.73218  -0.00000   0.00000  -0.00000  -0.00000   2.73218
   D45       -1.44272   0.00000   0.00000  -0.00000  -0.00000  -1.44272
   D46        1.45112   0.00000   0.00000   0.00000   0.00000   1.45113
   D47       -2.81896   0.00000   0.00000   0.00000   0.00000  -2.81895
   D48       -0.65716  -0.00000   0.00000   0.00000   0.00000  -0.65716
   D49       -0.70267  -0.00000   0.00000   0.00000   0.00000  -0.70267
   D50        1.31043  -0.00000   0.00000   0.00000   0.00000   1.31043
   D51       -2.81096  -0.00000   0.00000   0.00000   0.00000  -2.81096
   D52       -2.73218   0.00000   0.00000   0.00000   0.00000  -2.73218
   D53       -0.71908   0.00000   0.00000   0.00000   0.00000  -0.71908
   D54        1.44272  -0.00000   0.00000   0.00000   0.00000   1.44272
   D55       -1.49785  -0.00000   0.00000  -0.00000  -0.00000  -1.49785
   D56        1.49298  -0.00000   0.00000  -0.00000  -0.00000   1.49297
   D57        2.65032   0.00000   0.00000  -0.00000  -0.00000   2.65032
   D58       -0.64204  -0.00000   0.00000  -0.00000  -0.00000  -0.64205
   D59        0.59994   0.00000   0.00000  -0.00000  -0.00000   0.59994
   D60       -2.69242  -0.00000   0.00000  -0.00000  -0.00000  -2.69242
   D61        1.49785   0.00000   0.00000   0.00000   0.00000   1.49785
   D62       -1.49298   0.00000   0.00000   0.00000   0.00000  -1.49297
   D63       -0.59994  -0.00000   0.00000   0.00000   0.00000  -0.59994
   D64        2.69242   0.00000   0.00000   0.00000   0.00000   2.69242
   D65       -2.65032  -0.00000   0.00000   0.00000   0.00000  -2.65032
   D66        0.64204   0.00000   0.00000   0.00000   0.00000   0.64205
   D67       -2.81586   0.00000   0.00000   0.00000   0.00000  -2.81586
   D68        0.18189   0.00000   0.00000   0.00000   0.00000   0.18189
   D69        0.18204   0.00000   0.00000   0.00000   0.00000   0.18204
   D70       -3.10340   0.00000   0.00000   0.00000   0.00000  -3.10339
   D71        2.94280  -0.00000   0.00000  -0.00000  -0.00000   2.94280
   D72       -0.17483  -0.00000   0.00000  -0.00000  -0.00000  -0.17483
   D73       -0.05027  -0.00000   0.00000  -0.00000  -0.00000  -0.05027
   D74        3.11529  -0.00000   0.00000  -0.00000  -0.00000   3.11529
   D75        2.81586  -0.00000   0.00000  -0.00000  -0.00000   2.81586
   D76       -0.18204  -0.00000   0.00000  -0.00000  -0.00000  -0.18204
   D77       -0.18189  -0.00000   0.00000  -0.00000  -0.00000  -0.18189
   D78        3.10340  -0.00000   0.00000  -0.00000  -0.00000   3.10339
   D79       -0.07449  -0.00000   0.00000  -0.00000  -0.00000  -0.07449
   D80        3.12106   0.00000   0.00000  -0.00000  -0.00000   3.12106
   D81        3.04316  -0.00000   0.00000  -0.00000  -0.00000   3.04316
   D82       -0.04448  -0.00000   0.00000  -0.00000  -0.00000  -0.04448
   D83       -2.94280   0.00000   0.00000   0.00000   0.00000  -2.94280
   D84        0.17483   0.00000   0.00000   0.00000   0.00000   0.17483
   D85        0.05027   0.00000   0.00000   0.00000   0.00000   0.05027
   D86       -3.11529   0.00000   0.00000   0.00000   0.00000  -3.11529
   D87        0.07449   0.00000   0.00000   0.00000   0.00000   0.07449
   D88       -3.04316   0.00000   0.00000   0.00000   0.00000  -3.04316
   D89       -3.12106  -0.00000   0.00000   0.00000   0.00000  -3.12106
   D90        0.04448   0.00000   0.00000   0.00000   0.00000   0.04448
         Item               Value     Threshold  Converged?
 Maximum Force            0.000000     0.000002     YES
 RMS     Force            0.000000     0.000001     YES
 Maximum Displacement     0.000016     0.000006     NO 
 RMS     Displacement     0.000004     0.000004     NO 
 Predicted change in Energy=-4.126207D-12
 Lowest energy point so far.  Saving SCF results.
 GradGradGradGradGradGradGradGradGradGradGradGradGradGradGradGradGradGrad

 Leave Link  103 at Mon Jul 28 11:50:42 2025, MaxMem=   104857600 cpu:               2.1 elap:               0.1
 (Enter /opt/linux/rocky/8/software/gaussian/16c01_avx2/g16/l202.exe)
                          Input orientation:                          
 ---------------------------------------------------------------------
 Center     Atomic      Atomic             Coordinates (Angstroms)
 Number     Number       Type             X           Y           Z
 ---------------------------------------------------------------------
      1          6           0        0.965864    1.549294    0.696083
      2          6           0        0.965864    1.549294   -0.696083
      3          6           0        1.469347    0.451479   -1.406266
      4          6           0        2.256734   -0.467810   -0.698796
      5          6           0        2.256734   -0.467810    0.698796
      6          6           0        1.469347    0.451479    1.406266
      7          1           0        0.421483    2.326121    1.226572
      8          1           0        0.421483    2.326121   -1.226572
      9          1           0        2.741034   -1.284692   -1.230058
     10          1           0        2.741034   -1.284692    1.230058
     11          6           0        0.835218    0.085790   -2.729675
     12          1           0        1.541994   -0.381279   -3.425663
     13          1           0        0.444129    0.985292   -3.217534
     14          6           0        0.835218    0.085790    2.729675
     15          1           0        1.541994   -0.381279    3.425663
     16          1           0        0.444129    0.985292    3.217534
     17          6           0       -0.359685   -0.927275   -2.485953
     18          1           0       -1.001751   -0.921588   -3.374458
     19          1           0        0.064832   -1.934145   -2.406038
     20          6           0       -0.359685   -0.927275    2.485953
     21          1           0        0.064832   -1.934145    2.406038
     22          1           0       -1.001751   -0.921588    3.374458
     23          6           0       -1.163204   -0.629657    1.228496
     24          6           0       -0.730316   -1.146174    0.000000
     25          6           0       -2.223551    0.285998    1.213324
     26          6           0       -1.163204   -0.629657   -1.228496
     27          1           0        0.065138   -1.882692   -0.000000
     28          6           0       -2.776054    0.704265    0.000000
     29          1           0       -2.604125    0.690439    2.148482
     30          6           0       -2.223551    0.285998   -1.213324
     31          1           0       -3.610793    1.400043    0.000000
     32          1           0       -2.604125    0.690439   -2.148482
 ---------------------------------------------------------------------
                    Distance matrix (angstroms):
                    1          2          3          4          5
     1  C    0.000000
     2  C    1.392166   0.000000
     3  C    2.424575   1.401090   0.000000
     4  C    2.771415   2.394799   1.401992   0.000000
     5  C    2.394799   2.771415   2.428241   1.397592   0.000000
     6  C    1.401090   2.424575   2.812532   2.428241   1.401992
     7  H    1.086843   2.143924   3.397667   3.857621   3.384190
     8  H    2.143924   1.086843   2.155131   3.384190   3.857621
     9  H    3.859109   3.386419   2.159288   1.088155   2.149958
    10  H    3.386419   3.859109   3.403186   2.149958   1.088155
    11  C    3.727564   2.508867   1.512370   2.540010   3.752546
    12  H    4.587791   3.392587   2.185572   2.820309   4.186825
    13  H    3.988321   2.635910   2.148656   3.426526   4.553535
    14  C    2.508867   3.727564   4.200222   3.752546   2.540010
    15  H    3.392587   4.587791   4.903702   4.186825   2.820309
    16  H    2.635910   3.988321   4.766084   4.553535   3.426526
    17  C    4.244505   3.330782   2.532201   3.201669   4.147214
    18  H    5.152288   4.141311   3.444622   4.240614   5.235937
    19  H    4.750722   3.983736   2.943367   3.141536   4.073643
    20  C    3.330782   4.244505   4.516158   4.147214   3.201669
    21  H    3.983736   4.750722   4.711425   4.073643   3.141536
    22  H    4.141311   5.152288   5.554004   5.235937   4.240614
    23  C    3.092607   3.603437   3.878292   3.928947   3.464499
    24  C    3.259924   3.259924   3.060817   3.141809   3.141809
    25  C    3.469268   3.926081   4.530688   4.929237   4.572299
    26  C    3.603437   3.092607   2.851453   3.464499   3.928947
    27  H    3.615850   3.615850   3.065574   2.700611   2.700611
    28  C    3.898789   3.898789   4.479388   5.214502   5.214502
    29  H    3.948660   4.644782   5.411701   5.751216   5.202988
    30  C    3.926081   3.469268   3.701636   4.572299   4.929237
    31  H    4.631694   4.631694   5.355855   6.197181   6.197181
    32  H    4.644782   3.948660   4.147429   5.202988   5.751216
                    6          7          8          9         10
     6  C    0.000000
     7  H    2.155131   0.000000
     8  H    3.397667   2.453144   0.000000
     9  H    3.403186   4.945029   4.291654   0.000000
    10  H    2.159288   4.291654   4.945029   2.460115   0.000000
    11  C    4.200222   4.565321   2.729392   2.785535   4.603242
    12  H    4.903702   5.498077   3.663544   2.659799   4.891787
    13  H    4.766084   4.642027   2.400472   3.791920   5.496332
    14  C    1.512370   2.729392   4.565321   4.603242   2.785535
    15  H    2.185572   3.663544   5.498077   4.891787   2.659799
    16  H    2.148656   2.400472   4.642027   5.496332   3.791920
    17  C    4.516158   4.997764   3.575031   3.364443   4.852930
    18  H    5.554004   5.808845   4.145675   4.328826   5.944900
    19  H    4.711425   5.610073   4.434885   2.994457   4.561254
    20  C    2.532201   3.575031   4.997764   4.852930   3.364443
    21  H    2.943367   4.434885   5.610073   4.561254   2.994457
    22  H    3.444622   4.145675   5.808845   5.944900   4.328826
    23  C    2.851453   3.353783   4.156346   4.660110   3.958805
    24  C    3.060817   3.858491   3.858491   3.685444   3.685444
    25  C    3.701636   3.340431   4.136592   5.751893   5.207153
    26  C    3.878292   4.156346   3.353783   3.958805   4.660110
    27  H    3.065574   4.398360   4.398360   3.005173   3.005173
    28  C    4.479388   3.789345   3.789345   5.992265   5.992265
    29  H    4.147429   3.560853   4.818791   6.624681   5.771947
    30  C    4.530688   4.136592   3.340431   5.207153   5.751893
    31  H    5.355855   4.315246   4.315246   7.004751   7.004751
    32  H    5.411701   4.818791   3.560853   5.771947   6.624681
                   11         12         13         14         15
    11  C    0.000000
    12  H    1.096396   0.000000
    13  H    1.095473   1.765259   0.000000
    14  C    5.459351   6.213362   6.027550   0.000000
    15  H    6.213362   6.851325   6.870581   1.096396   0.000000
    16  H    6.027550   6.870581   6.435068   1.095473   1.765259
    17  C    1.585400   2.190331   2.199827   5.445812   6.233914
    18  H    2.192033   2.600999   2.398204   6.453658   7.280399
    19  H    2.185949   2.373402   3.053769   5.572179   6.213061
    20  C    5.445812   6.233914   6.069085   1.585400   2.190331
    21  H    5.572179   6.213061   6.347562   2.185949   2.373402
    22  H    6.453658   7.280399   7.012925   2.192033   2.600999
    23  C    4.491400   5.388968   4.995874   2.599825   3.493899
    24  C    3.379313   4.181342   4.034228   3.379313   4.181342
    25  C    4.994336   6.012053   5.219006   3.419864   4.418035
    26  C    2.599825   3.493899   3.024542   4.491400   5.388968
    27  H    3.452401   4.021257   4.326834   3.452401   4.021257
    28  C    4.568908   5.617749   4.560820   4.568908   5.617749
    29  H    5.999258   7.029222   6.178423   3.540122   4.468789
    30  C    3.419864   4.418035   3.409162   4.994336   6.012053
    31  H    5.380092   6.438904   5.192969   5.380092   6.438904
    32  H    3.540122   4.468789   3.243712   5.999258   7.029222
                   16         17         18         19         20
    16  H    0.000000
    17  C    6.069085   0.000000
    18  H    7.012925   1.096231   0.000000
    19  H    6.347562   1.095623   1.760883   0.000000
    20  C    2.199827   4.971905   5.895480   5.012542   0.000000
    21  H    3.053769   5.012542   5.964646   4.812076   1.095623
    22  H    2.398204   5.895480   6.748915   5.964646   1.096231
    23  C    3.024542   3.812000   4.615027   4.052110   1.521649
    24  C    4.034228   2.522944   3.392798   2.653710   2.522944
    25  C    3.409162   4.316326   4.898856   4.823433   2.562345
    26  C    4.995874   1.521649   2.171737   2.143913   3.812000
    27  H    4.326834   2.696898   3.667279   2.406588   2.696898
    28  C    4.560820   3.831543   4.144697   4.562988   3.831543
    29  H    3.243712   5.397452   5.972361   5.895373   2.787185
    30  C    5.219006   2.562345   2.760717   3.404159   4.316326
    31  H    5.192969   4.708085   4.856339   5.515074   4.708085
    32  H    6.178423   2.787185   2.582490   3.752081   5.397452
                   21         22         23         24         25
    21  H    0.000000
    22  H    1.760883   0.000000
    23  C    2.143913   2.171737   0.000000
    24  C    2.653710   3.392798   1.401208   0.000000
    25  C    3.404159   2.760717   1.401068   2.398545   0.000000
    26  C    4.052110   4.615027   2.456992   1.401208   2.815181
    27  H    2.406588   3.667279   2.141990   1.084069   3.378382
    28  C    4.562988   4.144697   2.426899   2.758472   1.397269
    29  H    3.752081   2.582490   2.159927   3.391207   1.087626
    30  C    4.823433   4.898856   2.815181   2.398545   2.426647
    31  H    5.515074   4.856339   3.408750   3.844524   2.153530
    32  H    5.895373   5.972361   3.901652   3.391207   3.407366
                   26         27         28         29         30
    26  C    0.000000
    27  H    2.141990   0.000000
    28  C    2.426899   3.842489   0.000000
    29  H    3.901652   4.285084   2.155394   0.000000
    30  C    1.401068   3.378382   1.397269   3.407366   0.000000
    31  H    3.408750   4.928368   1.086690   2.476467   2.153530
    32  H    2.159927   4.285084   2.155394   4.296963   1.087626
                   31         32
    31  H    0.000000
    32  H    2.476467   0.000000
 Stoichiometry    C16H16
 Framework group  CS[SG(C2H2),X(C14H14)]
 Deg. of freedom    47
 Full point group                 CS      NOp   2
 RotChk:  IX=0 Diff= 1.23D-06
 Largest Abelian subgroup         CS      NOp   2
 Largest concise Abelian subgroup CS      NOp   2
                         Standard orientation:                         
 ---------------------------------------------------------------------
 Center     Atomic      Atomic             Coordinates (Angstroms)
 Number     Number       Type             X           Y           Z
 ---------------------------------------------------------------------
      1          6           0        0.965863    1.549294    0.696083
      2          6           0        0.965863    1.549294   -0.696083
      3          6           0        1.469347    0.451480   -1.406266
      4          6           0        2.256734   -0.467809   -0.698796
      5          6           0        2.256734   -0.467809    0.698796
      6          6           0        1.469347    0.451480    1.406266
      7          1           0        0.421482    2.326121    1.226572
      8          1           0        0.421482    2.326121   -1.226572
      9          1           0        2.741034   -1.284691   -1.230058
     10          1           0        2.741034   -1.284691    1.230058
     11          6           0        0.835218    0.085790   -2.729675
     12          1           0        1.541994   -0.381278   -3.425663
     13          1           0        0.444128    0.985292   -3.217534
     14          6           0        0.835218    0.085790    2.729675
     15          1           0        1.541994   -0.381278    3.425663
     16          1           0        0.444128    0.985292    3.217534
     17          6           0       -0.359684   -0.927275   -2.485953
     18          1           0       -1.001751   -0.921589   -3.374458
     19          1           0        0.064833   -1.934145   -2.406038
     20          6           0       -0.359684   -0.927275    2.485953
     21          1           0        0.064833   -1.934145    2.406038
     22          1           0       -1.001751   -0.921589    3.374458
     23          6           0       -1.163203   -0.629658    1.228496
     24          6           0       -0.730316   -1.146175    0.000000
     25          6           0       -2.223551    0.285996    1.213324
     26          6           0       -1.163203   -0.629658   -1.228496
     27          1           0        0.065139   -1.882692   -0.000000
     28          6           0       -2.776054    0.704263    0.000000
     29          1           0       -2.604126    0.690438    2.148482
     30          6           0       -2.223551    0.285996   -1.213324
     31          1           0       -3.610793    1.400041    0.000000
     32          1           0       -2.604126    0.690438   -2.148482
 ---------------------------------------------------------------------
 Rotational constants (GHZ):           0.7544994           0.7042620           0.4678162
 Leave Link  202 at Mon Jul 28 11:50:42 2025, MaxMem=   104857600 cpu:               0.2 elap:               0.0
 (Enter /opt/linux/rocky/8/software/gaussian/16c01_avx2/g16/l301.exe)
 Standard basis: 6-31G(d,p) (6D, 7F)
 Ernie: Thresh=  0.10000D-02 Tol=  0.10000D-05 Strict=F.
 There are   170 symmetry adapted cartesian basis functions of A'  symmetry.
 There are   150 symmetry adapted cartesian basis functions of A"  symmetry.
 There are   170 symmetry adapted basis functions of A'  symmetry.
 There are   150 symmetry adapted basis functions of A"  symmetry.
   320 basis functions,   560 primitive gaussians,   320 cartesian basis functions
    56 alpha electrons       56 beta electrons
       nuclear repulsion energy      1088.3277699833 Hartrees.
 IExCor=  402 DFT=T Ex+Corr=B3LYP ExCW=0 ScaHFX=  0.200000
 ScaDFX=  0.800000  0.720000  1.000000  0.810000 ScalE2=  1.000000  1.000000
 IRadAn=      5 IRanWt=     -1 IRanGd=            0 ICorTp=0 IEmpDi=  4
 NAtoms=   32 NActive=   32 NUniq=   18 SFac= 3.16D+00 NAtFMM=   60 NAOKFM=F Big=F
 Integral buffers will be    131072 words long.
 Raffenetti 2 integral format.
 Two-electron integral symmetry is turned on.
 Leave Link  301 at Mon Jul 28 11:50:42 2025, MaxMem=   104857600 cpu:               0.7 elap:               0.0
 (Enter /opt/linux/rocky/8/software/gaussian/16c01_avx2/g16/l302.exe)
 NPDir=0 NMtPBC=     1 NCelOv=     1 NCel=       1 NClECP=     1 NCelD=      1
         NCelK=      1 NCelE2=     1 NClLst=     1 CellRange=     0.0.
 One-electron integrals computed using PRISM.
 One-electron integral symmetry used in STVInt
 PrsmSu:  requested number of processors reduced to:  28 ShMem   1 Linda.
 NBasis=   320 RedAO= T EigKep=  4.49D-04  NBF=   170   150
 NBsUse=   320 1.00D-06 EigRej= -1.00D+00 NBFU=   170   150
 Precomputing XC quadrature grid using
 IXCGrd= 4 IRadAn=           5 IRanWt=          -1 IRanGd=           0 AccXCQ= 0.00D+00.
 Generated NRdTot=       0 NPtTot=           0 NUsed=           0 NTot=          32
 NSgBfM=   320   320   320   320   320 MxSgAt=    32 MxSgA2=    32.
 Leave Link  302 at Mon Jul 28 11:50:42 2025, MaxMem=   104857600 cpu:               6.0 elap:               0.2
 (Enter /opt/linux/rocky/8/software/gaussian/16c01_avx2/g16/l303.exe)
 DipDrv:  MaxL=1.
 Leave Link  303 at Mon Jul 28 11:50:43 2025, MaxMem=   104857600 cpu:               0.7 elap:               0.0
 (Enter /opt/linux/rocky/8/software/gaussian/16c01_avx2/g16/l401.exe)
 Initial guess from the checkpoint file:  "metapara_b3lyp631gdp_vtight.chk"
 B after Tr=    -0.000000    0.000000   -0.000000
         Rot=    1.000000   -0.000000   -0.000000   -0.000000 Ang=  -0.00 deg.
 Guess basis will be translated and rotated to current coordinates.
 JPrj=2 DoOrth=T DoCkMO=T.
 Initial guess orbital symmetries:
       Occupied  (A") (A') (A") (A') (A') (A") (A") (A') (A') (A')
                 (A") (A") (A') (A') (A") (A') (A') (A') (A") (A')
                 (A") (A') (A') (A") (A') (A") (A") (A') (A') (A")
                 (A') (A') (A') (A") (A") (A') (A') (A") (A') (A")
                 (A') (A') (A") (A") (A') (A') (A") (A') (A') (A")
                 (A") (A') (A') (A') (A") (A")
       Virtual   (A') (A") (A") (A') (A') (A") (A') (A') (A") (A')
                 (A") (A') (A') (A") (A') (A") (A") (A') (A') (A")
                 (A') (A") (A') (A") (A') (A") (A') (A") (A') (A")
                 (A') (A") (A') (A") (A") (A') (A") (A') (A') (A")
                 (A') (A') (A") (A') (A') (A") (A') (A') (A") (A")
                 (A') (A") (A') (A") (A') (A') (A") (A') (A") (A')
                 (A") (A') (A") (A") (A') (A") (A') (A') (A") (A')
                 (A') (A") (A') (A") (A") (A') (A") (A') (A") (A")
                 (A') (A') (A') (A") (A') (A') (A") (A") (A") (A')
                 (A') (A") (A') (A") (A") (A') (A") (A') (A") (A')
                 (A') (A") (A') (A") (A') (A') (A") (A') (A") (A")
                 (A') (A') (A") (A') (A") (A') (A") (A') (A') (A")
                 (A') (A') (A") (A") (A") (A') (A') (A") (A") (A')
                 (A') (A") (A") (A') (A') (A") (A') (A") (A') (A")
                 (A') (A') (A") (A') (A') (A") (A") (A') (A') (A')
                 (A") (A') (A') (A') (A") (A') (A") (A") (A") (A')
                 (A') (A') (A") (A") (A") (A') (A') (A") (A') (A")
                 (A') (A") (A") (A') (A') (A') (A") (A") (A") (A')
                 (A") (A') (A') (A") (A') (A') (A") (A') (A') (A")
                 (A') (A") (A") (A') (A') (A") (A') (A") (A") (A')
                 (A") (A') (A") (A") (A') (A") (A") (A') (A") (A")
                 (A") (A') (A') (A") (A') (A") (A") (A') (A') (A")
                 (A') (A") (A') (A") (A') (A') (A") (A") (A") (A')
                 (A') (A') (A') (A") (A') (A") (A") (A") (A') (A")
                 (A') (A') (A") (A") (A') (A") (A") (A') (A') (A")
                 (A') (A') (A") (A') (A') (A") (A') (A") (A') (A")
                 (A') (A") (A") (A')
 The electronic state of the initial guess is 1-A'.
 Leave Link  401 at Mon Jul 28 11:50:43 2025, MaxMem=   104857600 cpu:               4.7 elap:               0.1
 (Enter /opt/linux/rocky/8/software/gaussian/16c01_avx2/g16/l502.exe)
 Integral symmetry usage will be decided dynamically.
 Closed shell SCF:
 Using DIIS extrapolation, IDIIS=  1040.
 NGot=   104857600 LenX=   104636278 LenY=   104533437
 Requested convergence on RMS density matrix=1.00D-10 within 128 cycles.
 Requested convergence on MAX density matrix=1.00D-08.
 Requested convergence on             energy=1.00D-08.
 No special actions if energy rises.
 Fock matrices will be formed incrementally for  20 cycles.

 Cycle   1  Pass 1  IDiag  1:
 FoFJK:  IHMeth= 1 ICntrl=       0 DoSepK=F KAlg= 0 I1Cent=           0 FoldK=F
 IRaf= 910000000 NMat=       1 IRICut=       1 DoRegI=T DoRafI=F ISym2E= 1 IDoP0=0 IntGTp=1.
 FoFCou: FMM=F IPFlag=           0 FMFlag=      100000 FMFlg1=           0
         NFxFlg=           0 DoJE=F BraDBF=F KetDBF=F FulRan=T
         wScrn=  0.000000 ICntrl=         0 IOpCl=  0 I1Cent=           0 NGrid=           0
         NMat0=    1 NMatS0=      1 NMatT0=    0 NMatD0=    1 NMtDS0=    0 NMtDT0=    0
 Petite list used in FoFCou.
 E= -619.341347022421    
 DIIS: error= 4.58D-07 at cycle   1 NSaved=   1.
 NSaved= 1 IEnMin= 1 EnMin= -619.341347022421     IErMin= 1 ErrMin= 4.58D-07
 ErrMax= 4.58D-07  0.00D+00 EMaxC= 1.00D-01 BMatC= 2.25D-11 BMatP= 2.25D-11
 IDIUse=1 WtCom= 1.00D+00 WtEn= 0.00D+00
 Coeff-Com:  0.100D+01
 Coeff:      0.100D+01
 Gap=     0.209 Goal=   None    Shift=    0.000
 RMSDP=2.69D-08 MaxDP=8.31D-07              OVMax= 1.75D-06

 Cycle   2  Pass 1  IDiag  1:
 RMSU=  2.69D-08    CP:  1.00D+00
 E= -619.341347022468     Delta-E=       -0.000000000048 Rises=F Damp=F
 DIIS: error= 6.76D-08 at cycle   2 NSaved=   2.
 NSaved= 2 IEnMin= 2 EnMin= -619.341347022468     IErMin= 2 ErrMin= 6.76D-08
 ErrMax= 6.76D-08  0.00D+00 EMaxC= 1.00D-01 BMatC= 3.29D-13 BMatP= 2.25D-11
 IDIUse=1 WtCom= 1.00D+00 WtEn= 0.00D+00
 Coeff-Com: -0.870D-01 0.109D+01
 Coeff:     -0.870D-01 0.109D+01
 Gap=     0.209 Goal=   None    Shift=    0.000
 RMSDP=4.68D-09 MaxDP=1.55D-07 DE=-4.77D-11 OVMax= 4.15D-07

 Cycle   3  Pass 1  IDiag  1:
 RMSU=  3.77D-09    CP:  1.00D+00  1.10D+00
 E= -619.341347022478     Delta-E=       -0.000000000010 Rises=F Damp=F
 DIIS: error= 4.12D-08 at cycle   3 NSaved=   3.
 NSaved= 3 IEnMin= 3 EnMin= -619.341347022478     IErMin= 3 ErrMin= 4.12D-08
 ErrMax= 4.12D-08  0.00D+00 EMaxC= 1.00D-01 BMatC= 2.78D-13 BMatP= 3.29D-13
 IDIUse=1 WtCom= 1.00D+00 WtEn= 0.00D+00
 Coeff-Com: -0.543D-01 0.612D+00 0.443D+00
 Coeff:     -0.543D-01 0.612D+00 0.443D+00
 Gap=     0.209 Goal=   None    Shift=    0.000
 RMSDP=2.46D-09 MaxDP=7.67D-08 DE=-9.55D-12 OVMax= 2.68D-07

 Cycle   4  Pass 1  IDiag  1:
 RMSU=  1.66D-09    CP:  1.00D+00  1.12D+00  5.30D-01
 E= -619.341347022468     Delta-E=        0.000000000010 Rises=F Damp=F
 DIIS: error= 1.33D-08 at cycle   4 NSaved=   4.
 NSaved= 4 IEnMin= 3 EnMin= -619.341347022478     IErMin= 4 ErrMin= 1.33D-08
 ErrMax= 1.33D-08  0.00D+00 EMaxC= 1.00D-01 BMatC= 2.61D-14 BMatP= 2.78D-13
 IDIUse=1 WtCom= 1.00D+00 WtEn= 0.00D+00
 Coeff-Com: -0.101D-01 0.972D-01 0.237D+00 0.676D+00
 Coeff:     -0.101D-01 0.972D-01 0.237D+00 0.676D+00
 Gap=     0.209 Goal=   None    Shift=    0.000
 RMSDP=8.21D-10 MaxDP=2.34D-08 DE= 1.05D-11 OVMax= 9.98D-08

 Cycle   5  Pass 1  IDiag  1:
 RMSU=  5.38D-10    CP:  1.00D+00  1.12D+00  6.50D-01  7.48D-01
 E= -619.341347022470     Delta-E=       -0.000000000002 Rises=F Damp=F
 DIIS: error= 3.05D-09 at cycle   5 NSaved=   5.
 NSaved= 5 IEnMin= 3 EnMin= -619.341347022478     IErMin= 5 ErrMin= 3.05D-09
 ErrMax= 3.05D-09  0.00D+00 EMaxC= 1.00D-01 BMatC= 4.98D-15 BMatP= 2.61D-14
 IDIUse=1 WtCom= 1.00D+00 WtEn= 0.00D+00
 Coeff-Com:  0.659D-03-0.194D-01 0.812D-01 0.399D+00 0.538D+00
 Coeff:      0.659D-03-0.194D-01 0.812D-01 0.399D+00 0.538D+00
 Gap=     0.209 Goal=   None    Shift=    0.000
 RMSDP=2.86D-10 MaxDP=1.36D-08 DE=-2.27D-12 OVMax= 3.66D-08

 Cycle   6  Pass 1  IDiag  1:
 RMSU=  1.21D-10    CP:  1.00D+00  1.12D+00  6.54D-01  8.27D-01  5.87D-01
 E= -619.341347022474     Delta-E=       -0.000000000005 Rises=F Damp=F
 DIIS: error= 8.71D-10 at cycle   6 NSaved=   6.
 NSaved= 6 IEnMin= 3 EnMin= -619.341347022478     IErMin= 6 ErrMin= 8.71D-10
 ErrMax= 8.71D-10  0.00D+00 EMaxC= 1.00D-01 BMatC= 3.04D-16 BMatP= 4.98D-15
 IDIUse=1 WtCom= 1.00D+00 WtEn= 0.00D+00
 Coeff-Com:  0.127D-02-0.200D-01 0.186D-01 0.146D+00 0.270D+00 0.584D+00
 Coeff:      0.127D-02-0.200D-01 0.186D-01 0.146D+00 0.270D+00 0.584D+00
 Gap=     0.209 Goal=   None    Shift=    0.000
 RMSDP=8.00D-11 MaxDP=3.61D-09 DE=-4.55D-12 OVMax= 1.15D-08

 SCF Done:  E(RB3LYP) =  -619.341347022     A.U. after    6 cycles
            NFock=  6  Conv=0.80D-10     -V/T= 2.0099
 KE= 6.132660332973D+02 PE=-3.610140524768D+03 EE= 1.289205374465D+03
 Leave Link  502 at Mon Jul 28 11:50:46 2025, MaxMem=   104857600 cpu:             115.9 elap:               3.3
 (Enter /opt/linux/rocky/8/software/gaussian/16c01_avx2/g16/l701.exe)
 ... and contract with generalized density number  0.
 Compute integral first derivatives.
 PrsmSu:  requested number of processors reduced to:  29 ShMem   1 Linda.
 Leave Link  701 at Mon Jul 28 11:50:46 2025, MaxMem=   104857600 cpu:               4.9 elap:               0.2
 (Enter /opt/linux/rocky/8/software/gaussian/16c01_avx2/g16/l702.exe)
 L702 exits ... SP integral derivatives will be done elsewhere.
 Leave Link  702 at Mon Jul 28 11:50:46 2025, MaxMem=   104857600 cpu:               0.3 elap:               0.0
 (Enter /opt/linux/rocky/8/software/gaussian/16c01_avx2/g16/l703.exe)
 Integral derivatives from FoFJK, PRISM(SPDF).
 Compute integral first derivatives, UseDBF=F ICtDFT=           0.
 Calling FoFJK, ICntrl=      2127 FMM=F ISym2X=1 I1Cent= 0 IOpClX= 0 NMat=1 NMatS=1 NMatT=0.
 FoFJK:  IHMeth= 1 ICntrl=    2127 DoSepK=F KAlg= 0 I1Cent=           0 FoldK=F
 IRaf=         0 NMat=       1 IRICut=       1 DoRegI=T DoRafI=F ISym2E= 1 IDoP0=0 IntGTp=1.
 FoFCou: FMM=F IPFlag=           0 FMFlag=      100000 FMFlg1=         800
         NFxFlg=           0 DoJE=F BraDBF=F KetDBF=F FulRan=T
         wScrn=  0.000000 ICntrl=      2127 IOpCl=  0 I1Cent=           0 NGrid=           0
         NMat0=    1 NMatS0=      1 NMatT0=    0 NMatD0=    1 NMtDS0=    0 NMtDT0=    0
 Petite list used in FoFCou.
 Leave Link  703 at Mon Jul 28 11:50:48 2025, MaxMem=   104857600 cpu:              33.7 elap:               1.0
 (Enter /opt/linux/rocky/8/software/gaussian/16c01_avx2/g16/l716.exe)
 Dipole        =-7.79624024D-02-9.48729463D-02 0.00000000D+00
 ***** Axes restored to original set *****
 -------------------------------------------------------------------
 Center     Atomic                   Forces (Hartrees/Bohr)
 Number     Number              X              Y              Z
 -------------------------------------------------------------------
      1        6           0.000000772   -0.000000515   -0.000000061
      2        6           0.000000772   -0.000000515    0.000000061
      3        6           0.000000351   -0.000000710    0.000000044
      4        6          -0.000000249   -0.000001206    0.000000175
      5        6          -0.000000249   -0.000001206   -0.000000175
      6        6           0.000000351   -0.000000710   -0.000000044
      7        1           0.000001175   -0.000000193    0.000000051
      8        1           0.000001175   -0.000000193   -0.000000051
      9        1          -0.000000621   -0.000001336   -0.000000030
     10        1          -0.000000621   -0.000001336    0.000000030
     11        6           0.000000066   -0.000000314   -0.000000073
     12        1          -0.000000172   -0.000000788    0.000000021
     13        1           0.000000485   -0.000000188   -0.000000014
     14        6           0.000000066   -0.000000314    0.000000073
     15        1          -0.000000172   -0.000000788   -0.000000021
     16        1           0.000000485   -0.000000188    0.000000014
     17        6          -0.000000590    0.000000019    0.000000166
     18        1          -0.000000402    0.000000535   -0.000000034
     19        1          -0.000000938    0.000000023    0.000000006
     20        6          -0.000000590    0.000000019   -0.000000166
     21        1          -0.000000938    0.000000023   -0.000000006
     22        1          -0.000000402    0.000000535    0.000000034
     23        6          -0.000000302    0.000000617    0.000000260
     24        6          -0.000000398    0.000000272   -0.000000000
     25        6           0.000000078    0.000001156   -0.000000151
     26        6          -0.000000302    0.000000617   -0.000000260
     27        1          -0.000000847   -0.000000076    0.000000000
     28        6           0.000000464    0.000001313    0.000000000
     29        1           0.000000380    0.000001257    0.000000018
     30        6           0.000000078    0.000001156    0.000000151
     31        1           0.000000713    0.000001781    0.000000000
     32        1           0.000000380    0.000001257   -0.000000018
 -------------------------------------------------------------------
 Cartesian Forces:  Max     0.000001781 RMS     0.000000582
 Leave Link  716 at Mon Jul 28 11:50:48 2025, MaxMem=   104857600 cpu:               0.3 elap:               0.0
 (Enter /opt/linux/rocky/8/software/gaussian/16c01_avx2/g16/l103.exe)

 GradGradGradGradGradGradGradGradGradGradGradGradGradGradGradGradGradGrad
 Berny optimization.
 Using GEDIIS/GDIIS optimizer.
 FormGI is forming the generalized inverse of G from B-inverse, IUseBI=4.
 Internal  Forces:  Max     0.000000145 RMS     0.000000037
 Search for a local minimum.
 Step number   4 out of a maximum of  192
 All quantities printed in internal units (Hartrees-Bohrs-Radians)
 RMS Force = .37348D-07 SwitMx=.10000D-02 MixMth= 2
 Mixed Optimization -- En-DIIS/RFO-DIIS
 Swapping is turned off.
 Update second derivatives using D2CorX and points    1    2    4
 DE=  1.08D-10 DEPred=-4.13D-12 R=-2.62D+01
 Trust test=-2.62D+01 RLast= 2.05D-05 DXMaxT set to 1.50D-01
 ITU= -1  0  0  0
     Eigenvalues ---    0.00453   0.00499   0.00932   0.01504   0.01653
     Eigenvalues ---    0.01705   0.01966   0.01986   0.02044   0.02095
     Eigenvalues ---    0.02100   0.02116   0.02116   0.02122   0.02123
     Eigenvalues ---    0.02137   0.02169   0.02172   0.02198   0.02447
     Eigenvalues ---    0.03135   0.04021   0.04478   0.05078   0.05421
     Eigenvalues ---    0.05468   0.06184   0.06279   0.07335   0.07686
     Eigenvalues ---    0.08305   0.08789   0.09030   0.09389   0.09392
     Eigenvalues ---    0.10561   0.12857   0.14338   0.15066   0.15653
     Eigenvalues ---    0.15695   0.15846   0.15901   0.15977   0.15996
     Eigenvalues ---    0.16025   0.16398   0.19983   0.21996   0.22085
     Eigenvalues ---    0.22588   0.22694   0.22958   0.23047   0.23395
     Eigenvalues ---    0.23614   0.24097   0.24749   0.28754   0.29931
     Eigenvalues ---    0.30776   0.31047   0.34078   0.34084   0.34102
     Eigenvalues ---    0.34110   0.34147   0.34171   0.34188   0.34418
     Eigenvalues ---    0.35027   0.35028   0.35087   0.35088   0.35180
     Eigenvalues ---    0.35201   0.35361   0.35749   0.40034   0.41045
     Eigenvalues ---    0.41590   0.41753   0.43050   0.43626   0.44501
     Eigenvalues ---    0.45279   0.45482   0.45730   0.45958   0.47000
 En-DIIS/RFO-DIIS/Sim-DIIS IScMMF=       -3 using points:     4    3    2    1
 RFO step:  Lambda=-1.17780572D-12.
 NNeg= 0 NGDIIS= 4 SimSw=  2.50D-03 Rises=F DC=  1.08D-10 SmlDif=  1.00D-05
 NRisDI= 0 DoIntr=F SqrtH=F CThrHd= 10.0 CDAdj=  3.0
 RMS Error=  0.7884229276D-06 NUsed= 4 OKEnD=F EnDIS=F
 InvSVX:  RCond= 8.82D-12 Info=           0 Equed=N FErr=  5.18D-15 BErr=  7.15D-17
 DIIS inversion failure, remove point   4.
 InvSVX:  RCond= 5.44D-11 Info=           0 Equed=N FErr=  2.88D-15 BErr=  1.55D-17
 DIIS inversion failure, remove point   3.
 InvSVX:  RCond= 9.72D-10 Info=           0 Equed=N FErr=  1.27D-15 BErr=  1.04D-16
 DIIS inversion failure, remove point   2.
 Use linear search instead of GDIIS.
 RFO step:  Lambda= 0.00000000D+00 EMin= 4.52585017D-03
 Skip linear search -- no minimum in search direction.
 Iteration  1 RMS(Cart)=  0.00000211 RMS(Int)=  0.00000000
 Iteration  2 RMS(Cart)=  0.00000000 RMS(Int)=  0.00000000
 ITry= 1 IFail=0 DXMaxC= 9.51D-06 DCOld= 1.00D+10 DXMaxT= 1.50D-01 DXLimC= 3.00D+00 Rises=F
 ClnCor:  largest displacement from symmetrization is 1.26D-08 for atom     8.
 Variable       Old X    -DE/DX   Delta X   Delta X   Delta X     New X
                                 (Linear)    (Quad)   (Total)
    R1        2.63081  -0.00000   0.00000   0.00000   0.00000   2.63081
    R2        2.64768  -0.00000   0.00000  -0.00000  -0.00000   2.64768
    R3        2.05384   0.00000   0.00000   0.00000   0.00000   2.05384
    R4        2.64768  -0.00000   0.00000  -0.00000  -0.00000   2.64768
    R5        2.05384   0.00000   0.00000   0.00000   0.00000   2.05384
    R6        2.64938   0.00000   0.00000   0.00000   0.00000   2.64938
    R7        2.85796   0.00000   0.00000   0.00000   0.00000   2.85796
    R8        2.64107  -0.00000   0.00000  -0.00000  -0.00000   2.64107
    R9        2.05631  -0.00000   0.00000  -0.00000  -0.00000   2.05631
   R10        2.64938   0.00000   0.00000   0.00000   0.00000   2.64938
   R11        2.05631  -0.00000   0.00000  -0.00000  -0.00000   2.05631
   R12        2.85796   0.00000   0.00000   0.00000   0.00000   2.85796
   R13        2.07189  -0.00000   0.00000  -0.00000  -0.00000   2.07189
   R14        2.07014   0.00000   0.00000   0.00000   0.00000   2.07014
   R15        2.99597   0.00000   0.00000   0.00000   0.00000   2.99597
   R16        2.07189  -0.00000   0.00000  -0.00000  -0.00000   2.07189
   R17        2.07014   0.00000   0.00000   0.00000   0.00000   2.07014
   R18        2.99597   0.00000   0.00000   0.00000   0.00000   2.99597
   R19        2.07158   0.00000   0.00000   0.00000   0.00000   2.07158
   R20        2.07043  -0.00000   0.00000  -0.00000  -0.00000   2.07043
   R21        2.87550  -0.00000   0.00000  -0.00000  -0.00000   2.87550
   R22        2.07043  -0.00000   0.00000  -0.00000  -0.00000   2.07043
   R23        2.07158   0.00000   0.00000   0.00000   0.00000   2.07158
   R24        2.87550  -0.00000   0.00000  -0.00000  -0.00000   2.87550
   R25        2.64790   0.00000   0.00000   0.00000   0.00000   2.64790
   R26        2.64763   0.00000   0.00000   0.00000   0.00000   2.64763
   R27        2.64790   0.00000   0.00000   0.00000   0.00000   2.64790
   R28        2.04859   0.00000   0.00000   0.00000   0.00000   2.04859
   R29        2.64046  -0.00000   0.00000  -0.00000  -0.00000   2.64046
   R30        2.05532  -0.00000   0.00000   0.00000   0.00000   2.05532
   R31        2.64763   0.00000   0.00000   0.00000   0.00000   2.64763
   R32        2.64046  -0.00000   0.00000  -0.00000  -0.00000   2.64046
   R33        2.05355  -0.00000   0.00000   0.00000   0.00000   2.05355
   R34        2.05532  -0.00000   0.00000   0.00000   0.00000   2.05532
    A1        2.10236  -0.00000   0.00000  -0.00000  -0.00000   2.10236
    A2        2.08071   0.00000   0.00000   0.00000   0.00000   2.08071
    A3        2.08590  -0.00000   0.00000  -0.00000  -0.00000   2.08590
    A4        2.10236  -0.00000   0.00000  -0.00000  -0.00000   2.10236
    A5        2.08071   0.00000   0.00000   0.00000   0.00000   2.08071
    A6        2.08590  -0.00000   0.00000  -0.00000  -0.00000   2.08590
    A7        2.04858   0.00000   0.00000   0.00000   0.00000   2.04858
    A8        2.07411  -0.00000   0.00000  -0.00000  -0.00000   2.07411
    A9        2.11590   0.00000   0.00000  -0.00000  -0.00000   2.11590
   A10        2.09974  -0.00000   0.00000  -0.00000  -0.00000   2.09974
   A11        2.08959  -0.00000   0.00000  -0.00000  -0.00000   2.08959
   A12        2.08085   0.00000   0.00000   0.00000   0.00000   2.08085
   A13        2.09974  -0.00000   0.00000  -0.00000  -0.00000   2.09974
   A14        2.08085   0.00000   0.00000   0.00000   0.00000   2.08085
   A15        2.08959  -0.00000   0.00000  -0.00000  -0.00000   2.08959
   A16        2.04858   0.00000   0.00000   0.00000   0.00000   2.04858
   A17        2.07411  -0.00000   0.00000  -0.00000  -0.00000   2.07411
   A18        2.11590   0.00000   0.00000  -0.00000  -0.00000   2.11590
   A19        1.96947  -0.00000   0.00000  -0.00000  -0.00000   1.96947
   A20        1.91861   0.00000   0.00000   0.00000   0.00000   1.91861
   A21        1.91347  -0.00000   0.00000   0.00000   0.00000   1.91347
   A22        1.87259   0.00000   0.00000   0.00000   0.00000   1.87259
   A23        1.88728  -0.00000   0.00000  -0.00000  -0.00000   1.88728
   A24        1.90083   0.00000   0.00000   0.00000   0.00000   1.90083
   A25        1.96947  -0.00000   0.00000  -0.00000  -0.00000   1.96947
   A26        1.91861   0.00000   0.00000   0.00000   0.00000   1.91861
   A27        1.91347  -0.00000   0.00000   0.00000   0.00000   1.91347
   A28        1.87259   0.00000   0.00000   0.00000   0.00000   1.87259
   A29        1.88728  -0.00000   0.00000  -0.00000  -0.00000   1.88728
   A30        1.90083   0.00000   0.00000   0.00000   0.00000   1.90083
   A31        1.88970  -0.00000   0.00000  -0.00000  -0.00000   1.88970
   A32        1.88222  -0.00000   0.00000  -0.00000  -0.00000   1.88222
   A33        1.98237   0.00000   0.00000   0.00000   0.00000   1.98237
   A34        1.86589   0.00000   0.00000   0.00000   0.00000   1.86589
   A35        1.93851   0.00000   0.00000   0.00000   0.00000   1.93851
   A36        1.90083   0.00000   0.00000   0.00000   0.00000   1.90083
   A37        1.88222  -0.00000   0.00000  -0.00000  -0.00000   1.88222
   A38        1.88970  -0.00000   0.00000  -0.00000  -0.00000   1.88970
   A39        1.98237   0.00000   0.00000   0.00000   0.00000   1.98237
   A40        1.86589   0.00000   0.00000   0.00000   0.00000   1.86589
   A41        1.90083   0.00000   0.00000   0.00000   0.00000   1.90083
   A42        1.93851   0.00000   0.00000   0.00000   0.00000   1.93851
   A43        2.08206  -0.00000   0.00000  -0.00000  -0.00000   2.08206
   A44        2.13698   0.00000   0.00000   0.00000   0.00000   2.13698
   A45        2.05468  -0.00000   0.00000  -0.00000  -0.00000   2.05468
   A46        2.13809  -0.00000   0.00000  -0.00000  -0.00000   2.13809
   A47        2.06818   0.00000   0.00000   0.00000   0.00000   2.06818
   A48        2.06818   0.00000   0.00000   0.00000   0.00000   2.06818
   A49        2.09936   0.00000   0.00000   0.00000   0.00000   2.09936
   A50        2.09270  -0.00000   0.00000  -0.00000  -0.00000   2.09270
   A51        2.09088   0.00000   0.00000   0.00000   0.00000   2.09088
   A52        2.08206  -0.00000   0.00000  -0.00000  -0.00000   2.08206
   A53        2.13698   0.00000   0.00000   0.00000   0.00000   2.13698
   A54        2.05468  -0.00000   0.00000  -0.00000  -0.00000   2.05468
   A55        2.10375   0.00000   0.00000  -0.00000  -0.00000   2.10375
   A56        2.08909  -0.00000   0.00000   0.00000   0.00000   2.08909
   A57        2.08909  -0.00000   0.00000   0.00000   0.00000   2.08909
   A58        2.09936   0.00000   0.00000   0.00000   0.00000   2.09936
   A59        2.09270  -0.00000   0.00000  -0.00000  -0.00000   2.09270
   A60        2.09088   0.00000   0.00000   0.00000   0.00000   2.09088
    D1        0.00000  -0.00000   0.00000  -0.00000   0.00000   0.00000
    D2        2.96035   0.00000   0.00000   0.00000   0.00000   2.96035
    D3       -2.96035  -0.00000   0.00000  -0.00000  -0.00000  -2.96035
    D4       -0.00000   0.00000   0.00000  -0.00000   0.00000   0.00000
    D5        0.27033  -0.00000   0.00000  -0.00000  -0.00000   0.27033
    D6       -2.55905  -0.00000   0.00000   0.00000   0.00000  -2.55905
    D7       -3.05304  -0.00000   0.00000  -0.00000  -0.00000  -3.05304
    D8        0.40076   0.00000   0.00000   0.00000   0.00000   0.40076
    D9       -0.27033   0.00000   0.00000   0.00000   0.00000  -0.27033
   D10        2.55905   0.00000   0.00000  -0.00000  -0.00000   2.55905
   D11        3.05304   0.00000   0.00000   0.00000   0.00000   3.05304
   D12       -0.40076  -0.00000   0.00000  -0.00000  -0.00000  -0.40076
   D13        0.26991  -0.00000   0.00000  -0.00000  -0.00000   0.26991
   D14       -3.04566  -0.00000   0.00000   0.00000   0.00000  -3.04566
   D15       -2.55157  -0.00000   0.00000   0.00000   0.00000  -2.55157
   D16        0.41605   0.00000   0.00000   0.00000   0.00000   0.41605
   D17        2.62006   0.00000   0.00000  -0.00000  -0.00000   2.62006
   D18        0.53052  -0.00000   0.00000  -0.00000  -0.00000   0.53052
   D19       -1.55850  -0.00000   0.00000  -0.00000  -0.00000  -1.55850
   D20       -0.84620  -0.00000   0.00000  -0.00000  -0.00000  -0.84620
   D21       -2.93574  -0.00000   0.00000  -0.00000  -0.00000  -2.93574
   D22        1.25843  -0.00000   0.00000  -0.00000  -0.00000   1.25842
   D23        0.00000  -0.00000   0.00000  -0.00000  -0.00000   0.00000
   D24        2.96848   0.00000   0.00000   0.00000   0.00000   2.96848
   D25       -2.96848  -0.00000   0.00000  -0.00000  -0.00000  -2.96848
   D26        0.00000  -0.00000   0.00000  -0.00000  -0.00000   0.00000
   D27       -0.26991   0.00000   0.00000   0.00000   0.00000  -0.26991
   D28        2.55157   0.00000   0.00000  -0.00000  -0.00000   2.55157
   D29        3.04566   0.00000   0.00000  -0.00000  -0.00000   3.04566
   D30       -0.41605  -0.00000   0.00000  -0.00000  -0.00000  -0.41605
   D31       -2.62006  -0.00000   0.00000   0.00000   0.00000  -2.62006
   D32       -0.53052   0.00000   0.00000   0.00000   0.00000  -0.53052
   D33        1.55850   0.00000   0.00000   0.00000   0.00000   1.55850
   D34        0.84620   0.00000   0.00000   0.00000   0.00000   0.84620
   D35        2.93574   0.00000   0.00000   0.00000   0.00000   2.93574
   D36       -1.25843   0.00000   0.00000   0.00000   0.00000  -1.25842
   D37        2.81895   0.00000   0.00000   0.00000   0.00000   2.81896
   D38       -1.45113   0.00000   0.00000   0.00000   0.00000  -1.45112
   D39        0.65716   0.00000   0.00000   0.00000   0.00000   0.65716
   D40       -1.31043  -0.00000   0.00000   0.00000   0.00000  -1.31043
   D41        0.70267  -0.00000   0.00000   0.00000   0.00000   0.70267
   D42        2.81096  -0.00000   0.00000   0.00000   0.00000   2.81096
   D43        0.71908   0.00000   0.00000   0.00000   0.00000   0.71908
   D44        2.73218  -0.00000   0.00000   0.00000   0.00000   2.73218
   D45       -1.44272  -0.00000   0.00000   0.00000   0.00000  -1.44272
   D46        1.45113  -0.00000   0.00000  -0.00000  -0.00000   1.45112
   D47       -2.81895  -0.00000   0.00000  -0.00000  -0.00000  -2.81896
   D48       -0.65716  -0.00000   0.00000  -0.00000  -0.00000  -0.65716
   D49       -0.70267   0.00000   0.00000  -0.00000  -0.00000  -0.70267
   D50        1.31043   0.00000   0.00000  -0.00000  -0.00000   1.31043
   D51       -2.81096   0.00000   0.00000  -0.00000  -0.00000  -2.81096
   D52       -2.73218   0.00000   0.00000  -0.00000  -0.00000  -2.73218
   D53       -0.71908  -0.00000   0.00000  -0.00000  -0.00000  -0.71908
   D54        1.44272   0.00000   0.00000  -0.00000  -0.00000   1.44272
   D55       -1.49785   0.00000   0.00000   0.00000   0.00000  -1.49785
   D56        1.49297   0.00000   0.00000   0.00000   0.00000   1.49297
   D57        2.65032   0.00000   0.00000   0.00000   0.00000   2.65032
   D58       -0.64205   0.00000   0.00000   0.00000   0.00000  -0.64204
   D59        0.59994  -0.00000   0.00000   0.00000   0.00000   0.59994
   D60       -2.69242  -0.00000   0.00000   0.00000   0.00000  -2.69242
   D61        1.49785  -0.00000   0.00000  -0.00000  -0.00000   1.49785
   D62       -1.49297  -0.00000   0.00000  -0.00000  -0.00000  -1.49297
   D63       -0.59994   0.00000   0.00000  -0.00000  -0.00000  -0.59994
   D64        2.69242   0.00000   0.00000  -0.00000  -0.00000   2.69242
   D65       -2.65032  -0.00000   0.00000  -0.00000  -0.00000  -2.65032
   D66        0.64205  -0.00000   0.00000  -0.00000  -0.00000   0.64204
   D67       -2.81586  -0.00000   0.00000  -0.00000  -0.00000  -2.81586
   D68        0.18189  -0.00000   0.00000  -0.00000  -0.00000   0.18189
   D69        0.18204  -0.00000   0.00000  -0.00000  -0.00000   0.18204
   D70       -3.10339  -0.00000   0.00000   0.00000   0.00000  -3.10339
   D71        2.94280  -0.00000   0.00000   0.00000   0.00000   2.94280
   D72       -0.17483  -0.00000   0.00000   0.00000   0.00000  -0.17483
   D73       -0.05027  -0.00000   0.00000  -0.00000  -0.00000  -0.05027
   D74        3.11529  -0.00000   0.00000  -0.00000  -0.00000   3.11529
   D75        2.81586   0.00000   0.00000   0.00000   0.00000   2.81586
   D76       -0.18204   0.00000   0.00000   0.00000   0.00000  -0.18204
   D77       -0.18189   0.00000   0.00000   0.00000   0.00000  -0.18189
   D78        3.10339   0.00000   0.00000  -0.00000  -0.00000   3.10339
   D79       -0.07449  -0.00000   0.00000   0.00000   0.00000  -0.07449
   D80        3.12106  -0.00000   0.00000  -0.00000  -0.00000   3.12106
   D81        3.04316   0.00000   0.00000   0.00000   0.00000   3.04316
   D82       -0.04448  -0.00000   0.00000   0.00000   0.00000  -0.04448
   D83       -2.94280   0.00000   0.00000  -0.00000  -0.00000  -2.94280
   D84        0.17483   0.00000   0.00000  -0.00000  -0.00000   0.17483
   D85        0.05027   0.00000   0.00000   0.00000   0.00000   0.05027
   D86       -3.11529   0.00000   0.00000   0.00000   0.00000  -3.11529
   D87        0.07449   0.00000   0.00000  -0.00000  -0.00000   0.07449
   D88       -3.04316  -0.00000   0.00000  -0.00000  -0.00000  -3.04316
   D89       -3.12106   0.00000   0.00000   0.00000   0.00000  -3.12106
   D90        0.04448   0.00000   0.00000  -0.00000  -0.00000   0.04448
         Item               Value     Threshold  Converged?
 Maximum Force            0.000000     0.000002     YES
 RMS     Force            0.000000     0.000001     YES
 Maximum Displacement     0.000010     0.000006     NO 
 RMS     Displacement     0.000002     0.000004     YES
 Predicted change in Energy=-1.164703D-12
 GradGradGradGradGradGradGradGradGradGradGradGradGradGradGradGradGradGrad

 Leave Link  103 at Mon Jul 28 11:50:48 2025, MaxMem=   104857600 cpu:               2.0 elap:               0.1
 (Enter /opt/linux/rocky/8/software/gaussian/16c01_avx2/g16/l202.exe)
                          Input orientation:                          
 ---------------------------------------------------------------------
 Center     Atomic      Atomic             Coordinates (Angstroms)
 Number     Number       Type             X           Y           Z
 ---------------------------------------------------------------------
      1          6           0        0.965867    1.549295    0.696083
      2          6           0        0.965867    1.549295   -0.696083
      3          6           0        1.469348    0.451479   -1.406266
      4          6           0        2.256733   -0.467812   -0.698796
      5          6           0        2.256733   -0.467812    0.698796
      6          6           0        1.469348    0.451479    1.406266
      7          1           0        0.421488    2.326123    1.226572
      8          1           0        0.421488    2.326123   -1.226572
      9          1           0        2.741031   -1.284695   -1.230058
     10          1           0        2.741031   -1.284695    1.230058
     11          6           0        0.835218    0.085791   -2.729675
     12          1           0        1.541993   -0.381277   -3.425663
     13          1           0        0.444128    0.985294   -3.217533
     14          6           0        0.835218    0.085791    2.729675
     15          1           0        1.541993   -0.381277    3.425663
     16          1           0        0.444128    0.985294    3.217533
     17          6           0       -0.359685   -0.927274   -2.485953
     18          1           0       -1.001751   -0.921587   -3.374458
     19          1           0        0.064832   -1.934144   -2.406038
     20          6           0       -0.359685   -0.927274    2.485953
     21          1           0        0.064832   -1.934144    2.406038
     22          1           0       -1.001751   -0.921587    3.374458
     23          6           0       -1.163204   -0.629658    1.228496
     24          6           0       -0.730316   -1.146174   -0.000000
     25          6           0       -2.223552    0.285996    1.213323
     26          6           0       -1.163204   -0.629658   -1.228496
     27          1           0        0.065140   -1.882691    0.000000
     28          6           0       -2.776056    0.704262   -0.000000
     29          1           0       -2.604127    0.690437    2.148482
     30          6           0       -2.223552    0.285996   -1.213323
     31          1           0       -3.610796    1.400039   -0.000000
     32          1           0       -2.604127    0.690437   -2.148482
 ---------------------------------------------------------------------
                    Distance matrix (angstroms):
                    1          2          3          4          5
     1  C    0.000000
     2  C    1.392166   0.000000
     3  C    2.424575   1.401090   0.000000
     4  C    2.771415   2.394799   1.401992   0.000000
     5  C    2.394799   2.771415   2.428241   1.397592   0.000000
     6  C    1.401090   2.424575   2.812532   2.428241   1.401992
     7  H    1.086843   2.143925   3.397667   3.857621   3.384190
     8  H    2.143925   1.086843   2.155131   3.384190   3.857621
     9  H    3.859109   3.386419   2.159288   1.088155   2.149958
    10  H    3.386419   3.859109   3.403186   2.149958   1.088155
    11  C    3.727564   2.508866   1.512370   2.540010   3.752545
    12  H    4.587791   3.392586   2.185572   2.820309   4.186825
    13  H    3.988320   2.635909   2.148656   3.426527   4.553535
    14  C    2.508866   3.727564   4.200221   3.752545   2.540010
    15  H    3.392586   4.587791   4.903703   4.186825   2.820309
    16  H    2.635909   3.988320   4.766083   4.553535   3.426527
    17  C    4.244506   3.330783   2.532202   3.201668   4.147213
    18  H    5.152289   4.141312   3.444622   4.240612   5.235936
    19  H    4.750723   3.983737   2.943367   3.141534   4.073642
    20  C    3.330783   4.244506   4.516159   4.147213   3.201668
    21  H    3.983737   4.750723   4.711425   4.073642   3.141534
    22  H    4.141312   5.152289   5.554004   5.235936   4.240612
    23  C    3.092610   3.603440   3.878293   3.928946   3.464497
    24  C    3.259926   3.259926   3.060817   3.141807   3.141807
    25  C    3.469273   3.926086   4.530690   4.929238   4.572299
    26  C    3.603440   3.092610   2.851454   3.464497   3.928946
    27  H    3.615849   3.615849   3.065572   2.700607   2.700607
    28  C    3.898794   3.898794   4.479391   5.214503   5.214503
    29  H    3.948665   4.644787   5.411704   5.751217   5.202989
    30  C    3.926086   3.469273   3.701638   4.572299   4.929238
    31  H    4.631700   4.631700   5.355858   6.197183   6.197183
    32  H    4.644787   3.948665   4.147432   5.202989   5.751217
                    6          7          8          9         10
     6  C    0.000000
     7  H    2.155131   0.000000
     8  H    3.397667   2.453145   0.000000
     9  H    3.403186   4.945029   4.291654   0.000000
    10  H    2.159288   4.291654   4.945029   2.460116   0.000000
    11  C    4.200221   4.565321   2.729391   2.785535   4.603242
    12  H    4.903703   5.498076   3.663543   2.659800   4.891788
    13  H    4.766083   4.642026   2.400471   3.791921   5.496332
    14  C    1.512370   2.729391   4.565321   4.603242   2.785535
    15  H    2.185572   3.663543   5.498076   4.891788   2.659800
    16  H    2.148656   2.400471   4.642026   5.496332   3.791921
    17  C    4.516159   4.997766   3.575033   3.364440   4.852929
    18  H    5.554004   5.808847   4.145677   4.328823   5.944899
    19  H    4.711425   5.610075   4.434887   2.994454   4.561252
    20  C    2.532202   3.575033   4.997766   4.852929   3.364440
    21  H    2.943367   4.434887   5.610075   4.561252   2.994454
    22  H    3.444622   4.145677   5.808847   5.944899   4.328823
    23  C    2.851454   3.353787   4.156350   4.660108   3.958803
    24  C    3.060817   3.858494   3.858494   3.685441   3.685441
    25  C    3.701638   3.340439   4.136598   5.751892   5.207152
    26  C    3.878293   4.156350   3.353787   3.958803   4.660108
    27  H    3.065572   4.398361   4.398361   3.005168   3.005168
    28  C    4.479391   3.789353   3.789353   5.992265   5.992265
    29  H    4.147432   3.560861   4.818797   6.624680   5.771946
    30  C    4.530690   4.136598   3.340439   5.207152   5.751892
    31  H    5.355858   4.315254   4.315254   7.004751   7.004751
    32  H    5.411704   4.818797   3.560861   5.771946   6.624680
                   11         12         13         14         15
    11  C    0.000000
    12  H    1.096396   0.000000
    13  H    1.095473   1.765260   0.000000
    14  C    5.459350   6.213363   6.027548   0.000000
    15  H    6.213363   6.851326   6.870581   1.096396   0.000000
    16  H    6.027548   6.870581   6.435066   1.095473   1.765260
    17  C    1.585400   2.190331   2.199827   5.445812   6.233915
    18  H    2.192033   2.600998   2.398205   6.453658   7.280399
    19  H    2.185949   2.373402   3.053769   5.572180   6.213062
    20  C    5.445812   6.233915   6.069084   1.585400   2.190331
    21  H    5.572180   6.213062   6.347561   2.185949   2.373402
    22  H    6.453658   7.280399   7.012924   2.192033   2.600998
    23  C    4.491400   5.388969   4.995874   2.599826   3.493899
    24  C    3.379313   4.181342   4.034227   3.379313   4.181342
    25  C    4.994336   6.012053   5.219006   3.419865   4.418035
    26  C    2.599826   3.493899   3.024542   4.491400   5.388969
    27  H    3.452400   4.021257   4.326833   3.452400   4.021257
    28  C    4.568909   5.617750   4.560821   4.568909   5.617750
    29  H    5.999259   7.029223   6.178423   3.540124   4.468790
    30  C    3.419865   4.418035   3.409163   4.994336   6.012053
    31  H    5.380094   6.438904   5.192970   5.380094   6.438904
    32  H    3.540124   4.468790   3.243713   5.999259   7.029223
                   16         17         18         19         20
    16  H    0.000000
    17  C    6.069084   0.000000
    18  H    7.012924   1.096231   0.000000
    19  H    6.347561   1.095623   1.760883   0.000000
    20  C    2.199827   4.971905   5.895481   5.012542   0.000000
    21  H    3.053769   5.012542   5.964646   4.812076   1.095623
    22  H    2.398205   5.895481   6.748916   5.964646   1.096231
    23  C    3.024542   3.812000   4.615027   4.052110   1.521649
    24  C    4.034227   2.522944   3.392799   2.653710   2.522944
    25  C    3.409163   4.316326   4.898856   4.823433   2.562345
    26  C    4.995874   1.521649   2.171737   2.143913   3.812000
    27  H    4.326833   2.696898   3.667280   2.406588   2.696898
    28  C    4.560821   3.831543   4.144697   4.562987   3.831543
    29  H    3.243713   5.397452   5.972361   5.895373   2.787184
    30  C    5.219006   2.562345   2.760717   3.404158   4.316326
    31  H    5.192970   4.708085   4.856339   5.515074   4.708085
    32  H    6.178423   2.787184   2.582489   3.752080   5.397452
                   21         22         23         24         25
    21  H    0.000000
    22  H    1.760883   0.000000
    23  C    2.143913   2.171737   0.000000
    24  C    2.653710   3.392799   1.401208   0.000000
    25  C    3.404158   2.760717   1.401068   2.398545   0.000000
    26  C    4.052110   4.615027   2.456992   1.401208   2.815181
    27  H    2.406588   3.667280   2.141990   1.084069   3.378382
    28  C    4.562987   4.144697   2.426899   2.758472   1.397269
    29  H    3.752080   2.582489   2.159927   3.391207   1.087626
    30  C    4.823433   4.898856   2.815181   2.398545   2.426647
    31  H    5.515074   4.856339   3.408750   3.844524   2.153530
    32  H    5.895373   5.972361   3.901652   3.391207   3.407366
                   26         27         28         29         30
    26  C    0.000000
    27  H    2.141990   0.000000
    28  C    2.426899   3.842489   0.000000
    29  H    3.901652   4.285084   2.155394   0.000000
    30  C    1.401068   3.378382   1.397269   3.407366   0.000000
    31  H    3.408750   4.928369   1.086690   2.476467   2.153530
    32  H    2.159927   4.285084   2.155394   4.296963   1.087626
                   31         32
    31  H    0.000000
    32  H    2.476467   0.000000
 Stoichiometry    C16H16
 Framework group  CS[SG(C2H2),X(C14H14)]
 Deg. of freedom    47
 Full point group                 CS      NOp   2
 RotChk:  IX=0 Diff= 1.07D-06
 Largest Abelian subgroup         CS      NOp   2
 Largest concise Abelian subgroup CS      NOp   2
                         Standard orientation:                         
 ---------------------------------------------------------------------
 Center     Atomic      Atomic             Coordinates (Angstroms)
 Number     Number       Type             X           Y           Z
 ---------------------------------------------------------------------
      1          6           0        0.965867    1.549295    0.696083
      2          6           0        0.965867    1.549295   -0.696083
      3          6           0        1.469349    0.451479   -1.406266
      4          6           0        2.256733   -0.467812   -0.698796
      5          6           0        2.256733   -0.467812    0.698796
      6          6           0        1.469349    0.451479    1.406266
      7          1           0        0.421489    2.326123    1.226572
      8          1           0        0.421489    2.326123   -1.226572
      9          1           0        2.741030   -1.284695   -1.230058
     10          1           0        2.741030   -1.284695    1.230058
     11          6           0        0.835218    0.085791   -2.729675
     12          1           0        1.541993   -0.381278   -3.425663
     13          1           0        0.444129    0.985294   -3.217533
     14          6           0        0.835218    0.085791    2.729675
     15          1           0        1.541993   -0.381278    3.425663
     16          1           0        0.444129    0.985294    3.217533
     17          6           0       -0.359685   -0.927274   -2.485953
     18          1           0       -1.001751   -0.921587   -3.374458
     19          1           0        0.064832   -1.934144   -2.406038
     20          6           0       -0.359685   -0.927274    2.485953
     21          1           0        0.064832   -1.934144    2.406038
     22          1           0       -1.001751   -0.921587    3.374458
     23          6           0       -1.163204   -0.629657    1.228496
     24          6           0       -0.730316   -1.146174    0.000000
     25          6           0       -2.223552    0.285997    1.213323
     26          6           0       -1.163204   -0.629657   -1.228496
     27          1           0        0.065139   -1.882691   -0.000000
     28          6           0       -2.776056    0.704263    0.000000
     29          1           0       -2.604127    0.690438    2.148482
     30          6           0       -2.223552    0.285997   -1.213323
     31          1           0       -3.610795    1.400040    0.000000
     32          1           0       -2.604127    0.690438   -2.148482
 ---------------------------------------------------------------------
 Rotational constants (GHZ):           0.7544990           0.7042620           0.4678160
 Leave Link  202 at Mon Jul 28 11:50:48 2025, MaxMem=   104857600 cpu:               0.2 elap:               0.0
 (Enter /opt/linux/rocky/8/software/gaussian/16c01_avx2/g16/l301.exe)
 Standard basis: 6-31G(d,p) (6D, 7F)
 Ernie: Thresh=  0.10000D-02 Tol=  0.10000D-05 Strict=F.
 There are   170 symmetry adapted cartesian basis functions of A'  symmetry.
 There are   150 symmetry adapted cartesian basis functions of A"  symmetry.
 There are   170 symmetry adapted basis functions of A'  symmetry.
 There are   150 symmetry adapted basis functions of A"  symmetry.
   320 basis functions,   560 primitive gaussians,   320 cartesian basis functions
    56 alpha electrons       56 beta electrons
       nuclear repulsion energy      1088.3276729045 Hartrees.
 IExCor=  402 DFT=T Ex+Corr=B3LYP ExCW=0 ScaHFX=  0.200000
 ScaDFX=  0.800000  0.720000  1.000000  0.810000 ScalE2=  1.000000  1.000000
 IRadAn=      5 IRanWt=     -1 IRanGd=            0 ICorTp=0 IEmpDi=  4
 NAtoms=   32 NActive=   32 NUniq=   18 SFac= 3.16D+00 NAtFMM=   60 NAOKFM=F Big=F
 Integral buffers will be    131072 words long.
 Raffenetti 2 integral format.
 Two-electron integral symmetry is turned on.
 Leave Link  301 at Mon Jul 28 11:50:48 2025, MaxMem=   104857600 cpu:               1.1 elap:               0.0
 (Enter /opt/linux/rocky/8/software/gaussian/16c01_avx2/g16/l302.exe)
 NPDir=0 NMtPBC=     1 NCelOv=     1 NCel=       1 NClECP=     1 NCelD=      1
         NCelK=      1 NCelE2=     1 NClLst=     1 CellRange=     0.0.
 One-electron integrals computed using PRISM.
 One-electron integral symmetry used in STVInt
 PrsmSu:  requested number of processors reduced to:  28 ShMem   1 Linda.
 NBasis=   320 RedAO= T EigKep=  4.49D-04  NBF=   170   150
 NBsUse=   320 1.00D-06 EigRej= -1.00D+00 NBFU=   170   150
 Precomputing XC quadrature grid using
 IXCGrd= 4 IRadAn=           5 IRanWt=          -1 IRanGd=           0 AccXCQ= 0.00D+00.
 Generated NRdTot=       0 NPtTot=           0 NUsed=           0 NTot=          32
 NSgBfM=   320   320   320   320   320 MxSgAt=    32 MxSgA2=    32.
 Leave Link  302 at Mon Jul 28 11:50:48 2025, MaxMem=   104857600 cpu:               6.4 elap:               0.2
 (Enter /opt/linux/rocky/8/software/gaussian/16c01_avx2/g16/l303.exe)
 DipDrv:  MaxL=1.
 Leave Link  303 at Mon Jul 28 11:50:48 2025, MaxMem=   104857600 cpu:               0.7 elap:               0.0
 (Enter /opt/linux/rocky/8/software/gaussian/16c01_avx2/g16/l401.exe)
 Initial guess from the checkpoint file:  "metapara_b3lyp631gdp_vtight.chk"
 B after Tr=     0.000000   -0.000000   -0.000000
         Rot=    1.000000    0.000000    0.000000    0.000000 Ang=   0.00 deg.
 Guess basis will be translated and rotated to current coordinates.
 JPrj=2 DoOrth=T DoCkMO=T.
 Initial guess orbital symmetries:
       Occupied  (A") (A') (A") (A') (A') (A") (A") (A') (A') (A')
                 (A") (A") (A') (A') (A") (A') (A') (A') (A") (A')
                 (A") (A') (A') (A") (A') (A") (A") (A') (A') (A")
                 (A') (A') (A') (A") (A") (A') (A') (A") (A') (A")
                 (A') (A') (A") (A") (A') (A') (A") (A') (A') (A")
                 (A") (A') (A') (A') (A") (A")
       Virtual   (A') (A") (A") (A') (A') (A") (A') (A') (A") (A')
                 (A") (A') (A') (A") (A') (A") (A") (A') (A') (A")
                 (A') (A") (A') (A") (A') (A") (A') (A") (A') (A")
                 (A') (A") (A') (A") (A") (A') (A") (A') (A') (A")
                 (A') (A') (A") (A') (A') (A") (A') (A') (A") (A")
                 (A') (A") (A') (A") (A') (A') (A") (A') (A") (A')
                 (A") (A') (A") (A") (A') (A") (A') (A') (A") (A')
                 (A') (A") (A') (A") (A") (A') (A") (A') (A") (A")
                 (A') (A') (A') (A") (A') (A') (A") (A") (A") (A')
                 (A') (A") (A') (A") (A") (A') (A") (A') (A") (A')
                 (A') (A") (A') (A") (A') (A') (A") (A') (A") (A")
                 (A') (A') (A") (A') (A") (A') (A") (A') (A') (A")
                 (A') (A') (A") (A") (A") (A') (A') (A") (A") (A')
                 (A') (A") (A") (A') (A') (A") (A') (A") (A') (A")
                 (A') (A') (A") (A') (A') (A") (A") (A') (A') (A')
                 (A") (A') (A') (A') (A") (A') (A") (A") (A") (A')
                 (A') (A') (A") (A") (A") (A') (A') (A") (A') (A")
                 (A') (A") (A") (A') (A') (A') (A") (A") (A") (A')
                 (A") (A') (A') (A") (A') (A') (A") (A') (A') (A")
                 (A') (A") (A") (A') (A') (A") (A') (A") (A") (A')
                 (A") (A') (A") (A") (A') (A") (A") (A') (A") (A")
                 (A") (A') (A') (A") (A') (A") (A") (A') (A') (A")
                 (A') (A") (A') (A") (A') (A') (A") (A") (A") (A')
                 (A') (A') (A') (A") (A') (A") (A") (A") (A') (A")
                 (A') (A') (A") (A") (A') (A") (A") (A') (A') (A")
                 (A') (A') (A") (A') (A') (A") (A') (A") (A') (A")
                 (A') (A") (A") (A')
 The electronic state of the initial guess is 1-A'.
 Leave Link  401 at Mon Jul 28 11:50:49 2025, MaxMem=   104857600 cpu:               4.7 elap:               0.1
 (Enter /opt/linux/rocky/8/software/gaussian/16c01_avx2/g16/l502.exe)
 Integral symmetry usage will be decided dynamically.
 Closed shell SCF:
 Using DIIS extrapolation, IDIIS=  1040.
 NGot=   104857600 LenX=   104636278 LenY=   104533437
 Requested convergence on RMS density matrix=1.00D-10 within 128 cycles.
 Requested convergence on MAX density matrix=1.00D-08.
 Requested convergence on             energy=1.00D-08.
 No special actions if energy rises.
 Fock matrices will be formed incrementally for  20 cycles.

 Cycle   1  Pass 1  IDiag  1:
 FoFJK:  IHMeth= 1 ICntrl=       0 DoSepK=F KAlg= 0 I1Cent=           0 FoldK=F
 IRaf= 910000000 NMat=       1 IRICut=       1 DoRegI=T DoRafI=F ISym2E= 1 IDoP0=0 IntGTp=1.
 FoFCou: FMM=F IPFlag=           0 FMFlag=      100000 FMFlg1=           0
         NFxFlg=           0 DoJE=F BraDBF=F KetDBF=F FulRan=T
         wScrn=  0.000000 ICntrl=         0 IOpCl=  0 I1Cent=           0 NGrid=           0
         NMat0=    1 NMatS0=      1 NMatT0=    0 NMatD0=    1 NMtDS0=    0 NMtDT0=    0
 Petite list used in FoFCou.
 E= -619.341347022553    
 DIIS: error= 2.43D-07 at cycle   1 NSaved=   1.
 NSaved= 1 IEnMin= 1 EnMin= -619.341347022553     IErMin= 1 ErrMin= 2.43D-07
 ErrMax= 2.43D-07  0.00D+00 EMaxC= 1.00D-01 BMatC= 5.39D-12 BMatP= 5.39D-12
 IDIUse=1 WtCom= 1.00D+00 WtEn= 0.00D+00
 Coeff-Com:  0.100D+01
 Coeff:      0.100D+01
 Gap=     0.209 Goal=   None    Shift=    0.000
 RMSDP=1.30D-08 MaxDP=4.36D-07              OVMax= 8.97D-07

 Cycle   2  Pass 1  IDiag  1:
 RMSU=  1.30D-08    CP:  1.00D+00
 E= -619.341347022572     Delta-E=       -0.000000000018 Rises=F Damp=F
 DIIS: error= 3.60D-08 at cycle   2 NSaved=   2.
 NSaved= 2 IEnMin= 2 EnMin= -619.341347022572     IErMin= 2 ErrMin= 3.60D-08
 ErrMax= 3.60D-08  0.00D+00 EMaxC= 1.00D-01 BMatC= 9.74D-14 BMatP= 5.39D-12
 IDIUse=1 WtCom= 1.00D+00 WtEn= 0.00D+00
 Coeff-Com: -0.770D-01 0.108D+01
 Coeff:     -0.770D-01 0.108D+01
 Gap=     0.209 Goal=   None    Shift=    0.000
 RMSDP=2.54D-09 MaxDP=9.48D-08 DE=-1.84D-11 OVMax= 2.26D-07

 Cycle   3  Pass 1  IDiag  1:
 RMSU=  2.16D-09    CP:  1.00D+00  1.10D+00
 E= -619.341347022580     Delta-E=       -0.000000000008 Rises=F Damp=F
 DIIS: error= 2.10D-08 at cycle   3 NSaved=   3.
 NSaved= 3 IEnMin= 3 EnMin= -619.341347022580     IErMin= 3 ErrMin= 2.10D-08
 ErrMax= 2.10D-08  0.00D+00 EMaxC= 1.00D-01 BMatC= 1.31D-13 BMatP= 9.74D-14
 IDIUse=1 WtCom= 1.00D+00 WtEn= 0.00D+00
 Coeff-Com: -0.562D-01 0.638D+00 0.418D+00
 Coeff:     -0.562D-01 0.638D+00 0.418D+00
 Gap=     0.209 Goal=   None    Shift=    0.000
 RMSDP=1.41D-09 MaxDP=4.88D-08 DE=-8.41D-12 OVMax= 1.31D-07

 Cycle   4  Pass 1  IDiag  1:
 RMSU=  8.05D-10    CP:  1.00D+00  1.12D+00  4.71D-01
 E= -619.341347022580     Delta-E=        0.000000000000 Rises=F Damp=F
 DIIS: error= 4.43D-09 at cycle   4 NSaved=   4.
 NSaved= 4 IEnMin= 3 EnMin= -619.341347022580     IErMin= 4 ErrMin= 4.43D-09
 ErrMax= 4.43D-09  0.00D+00 EMaxC= 1.00D-01 BMatC= 4.39D-15 BMatP= 9.74D-14
 IDIUse=1 WtCom= 1.00D+00 WtEn= 0.00D+00
 Coeff-Com: -0.125D-01 0.124D+00 0.173D+00 0.715D+00
 Coeff:     -0.125D-01 0.124D+00 0.173D+00 0.715D+00
 Gap=     0.209 Goal=   None    Shift=    0.000
 RMSDP=3.60D-10 MaxDP=9.73D-09 DE= 4.55D-13 OVMax= 3.98D-08

 Cycle   5  Pass 1  IDiag  1:
 RMSU=  2.56D-10    CP:  1.00D+00  1.12D+00  5.71D-01  8.38D-01
 E= -619.341347022582     Delta-E=       -0.000000000002 Rises=F Damp=F
 DIIS: error= 1.46D-09 at cycle   5 NSaved=   5.
 NSaved= 5 IEnMin= 5 EnMin= -619.341347022582     IErMin= 5 ErrMin= 1.46D-09
 ErrMax= 1.46D-09  0.00D+00 EMaxC= 1.00D-01 BMatC= 1.35D-15 BMatP= 4.39D-15
 IDIUse=1 WtCom= 1.00D+00 WtEn= 0.00D+00
 Coeff-Com:  0.654D-03-0.194D-01 0.414D-01 0.427D+00 0.550D+00
 Coeff:      0.654D-03-0.194D-01 0.414D-01 0.427D+00 0.550D+00
 Gap=     0.209 Goal=   None    Shift=    0.000
 RMSDP=1.33D-10 MaxDP=4.55D-09 DE=-2.27D-12 OVMax= 1.10D-08

 Cycle   6  Pass 1  IDiag  1:
 RMSU=  5.44D-11    CP:  1.00D+00  1.12D+00  5.67D-01  9.15D-01  6.00D-01
 E= -619.341347022570     Delta-E=        0.000000000012 Rises=F Damp=F
 DIIS: error= 2.77D-10 at cycle   6 NSaved=   6.
 NSaved= 6 IEnMin= 5 EnMin= -619.341347022582     IErMin= 6 ErrMin= 2.77D-10
 ErrMax= 2.77D-10  0.00D+00 EMaxC= 1.00D-01 BMatC= 3.78D-17 BMatP= 1.35D-15
 IDIUse=1 WtCom= 1.00D+00 WtEn= 0.00D+00
 Coeff-Com:  0.117D-02-0.182D-01 0.297D-02 0.127D+00 0.223D+00 0.664D+00
 Coeff:      0.117D-02-0.182D-01 0.297D-02 0.127D+00 0.223D+00 0.664D+00
 Gap=     0.209 Goal=   None    Shift=    0.000
 RMSDP=2.81D-11 MaxDP=8.45D-10 DE= 1.18D-11 OVMax= 1.96D-09

 SCF Done:  E(RB3LYP) =  -619.341347023     A.U. after    6 cycles
            NFock=  6  Conv=0.28D-10     -V/T= 2.0099
 KE= 6.132660330324D+02 PE=-3.610140330190D+03 EE= 1.289205277231D+03
 Leave Link  502 at Mon Jul 28 11:50:52 2025, MaxMem=   104857600 cpu:             113.8 elap:               3.2
 (Enter /opt/linux/rocky/8/software/gaussian/16c01_avx2/g16/l701.exe)
 ... and contract with generalized density number  0.
 Compute integral first derivatives.
 PrsmSu:  requested number of processors reduced to:  29 ShMem   1 Linda.
 Leave Link  701 at Mon Jul 28 11:50:52 2025, MaxMem=   104857600 cpu:               4.9 elap:               0.2
 (Enter /opt/linux/rocky/8/software/gaussian/16c01_avx2/g16/l702.exe)
 L702 exits ... SP integral derivatives will be done elsewhere.
 Leave Link  702 at Mon Jul 28 11:50:52 2025, MaxMem=   104857600 cpu:               0.3 elap:               0.0
 (Enter /opt/linux/rocky/8/software/gaussian/16c01_avx2/g16/l703.exe)
 Integral derivatives from FoFJK, PRISM(SPDF).
 Compute integral first derivatives, UseDBF=F ICtDFT=           0.
 Calling FoFJK, ICntrl=      2127 FMM=F ISym2X=1 I1Cent= 0 IOpClX= 0 NMat=1 NMatS=1 NMatT=0.
 FoFJK:  IHMeth= 1 ICntrl=    2127 DoSepK=F KAlg= 0 I1Cent=           0 FoldK=F
 IRaf=         0 NMat=       1 IRICut=       1 DoRegI=T DoRafI=F ISym2E= 1 IDoP0=0 IntGTp=1.
 FoFCou: FMM=F IPFlag=           0 FMFlag=      100000 FMFlg1=         800
         NFxFlg=           0 DoJE=F BraDBF=F KetDBF=F FulRan=T
         wScrn=  0.000000 ICntrl=      2127 IOpCl=  0 I1Cent=           0 NGrid=           0
         NMat0=    1 NMatS0=      1 NMatT0=    0 NMatD0=    1 NMtDS0=    0 NMtDT0=    0
 Petite list used in FoFCou.
 Leave Link  703 at Mon Jul 28 11:50:53 2025, MaxMem=   104857600 cpu:              33.6 elap:               1.0
 (Enter /opt/linux/rocky/8/software/gaussian/16c01_avx2/g16/l716.exe)
 Dipole        =-7.79617287D-02-9.48722495D-02-8.88178420D-16
 ***** Axes restored to original set *****
 -------------------------------------------------------------------
 Center     Atomic                   Forces (Hartrees/Bohr)
 Number     Number              X              Y              Z
 -------------------------------------------------------------------
      1        6           0.000000759   -0.000000493   -0.000000035
      2        6           0.000000759   -0.000000493    0.000000035
      3        6           0.000000247   -0.000000740    0.000000033
      4        6          -0.000000198   -0.000001114    0.000000027
      5        6          -0.000000198   -0.000001114   -0.000000027
      6        6           0.000000247   -0.000000740   -0.000000033
      7        1           0.000001170   -0.000000206    0.000000016
      8        1           0.000001170   -0.000000206   -0.000000016
      9        1          -0.000000616   -0.000001363    0.000000000
     10        1          -0.000000616   -0.000001363   -0.000000000
     11        6           0.000000051   -0.000000462   -0.000000027
     12        1          -0.000000172   -0.000000776   -0.000000013
     13        1           0.000000497   -0.000000222    0.000000005
     14        6           0.000000051   -0.000000462    0.000000027
     15        1          -0.000000172   -0.000000776    0.000000013
     16        1           0.000000497   -0.000000222   -0.000000005
     17        6          -0.000000441    0.000000164    0.000000020
     18        1          -0.000000430    0.000000503   -0.000000013
     19        1          -0.000000934   -0.000000023   -0.000000003
     20        6          -0.000000441    0.000000164   -0.000000020
     21        1          -0.000000934   -0.000000023    0.000000003
     22        1          -0.000000430    0.000000503    0.000000013
     23        6          -0.000000294    0.000000607    0.000000053
     24        6          -0.000000500    0.000000354    0.000000000
     25        6           0.000000161    0.000001117   -0.000000024
     26        6          -0.000000294    0.000000607   -0.000000053
     27        1          -0.000000933   -0.000000043   -0.000000000
     28        6           0.000000386    0.000001362    0.000000000
     29        1           0.000000366    0.000001280    0.000000005
     30        6           0.000000161    0.000001117    0.000000024
     31        1           0.000000714    0.000001779    0.000000000
     32        1           0.000000366    0.000001280   -0.000000005
 -------------------------------------------------------------------
 Cartesian Forces:  Max     0.000001779 RMS     0.000000577
 Leave Link  716 at Mon Jul 28 11:50:53 2025, MaxMem=   104857600 cpu:               0.3 elap:               0.0
 (Enter /opt/linux/rocky/8/software/gaussian/16c01_avx2/g16/l103.exe)

 GradGradGradGradGradGradGradGradGradGradGradGradGradGradGradGradGradGrad
 Berny optimization.
 Using GEDIIS/GDIIS optimizer.
 FormGI is forming the generalized inverse of G from B-inverse, IUseBI=4.
 Internal  Forces:  Max     0.000000059 RMS     0.000000014
 Search for a local minimum.
 Step number   5 out of a maximum of  192
 All quantities printed in internal units (Hartrees-Bohrs-Radians)
 RMS Force = .14436D-07 SwitMx=.10000D-02 MixMth= 2
 Mixed Optimization -- En-DIIS/RFO-DIIS
 Swapping is turned off.
 Update second derivatives using D2CorX and points    1    2    5
 DE= -9.57D-11 DEPred=-1.16D-12 R= 8.22D+01
 Trust test= 8.22D+01 RLast= 1.07D-05 DXMaxT set to 1.50D-01
 ITU=  0 -1  0  0  0
     Eigenvalues ---    0.00453   0.00505   0.00960   0.01504   0.01653
     Eigenvalues ---    0.01714   0.01966   0.01986   0.02049   0.02099
     Eigenvalues ---    0.02100   0.02113   0.02116   0.02122   0.02123
     Eigenvalues ---    0.02142   0.02172   0.02175   0.02180   0.02447
     Eigenvalues ---    0.03135   0.04021   0.04740   0.05087   0.05421
     Eigenvalues ---    0.05424   0.06184   0.06340   0.07351   0.07641
     Eigenvalues ---    0.08305   0.08789   0.09015   0.09389   0.09418
     Eigenvalues ---    0.10561   0.12921   0.14233   0.14903   0.15653
     Eigenvalues ---    0.15695   0.15846   0.15920   0.15977   0.15996
     Eigenvalues ---    0.16032   0.16398   0.19983   0.21554   0.21996
     Eigenvalues ---    0.22114   0.22588   0.22958   0.22964   0.23274
     Eigenvalues ---    0.23614   0.24075   0.24749   0.28812   0.29931
     Eigenvalues ---    0.30663   0.31047   0.34075   0.34084   0.34102
     Eigenvalues ---    0.34110   0.34163   0.34171   0.34188   0.34329
     Eigenvalues ---    0.35027   0.35027   0.35087   0.35088   0.35180
     Eigenvalues ---    0.35200   0.35308   0.35733   0.39902   0.41045
     Eigenvalues ---    0.41349   0.41590   0.42821   0.43626   0.44504
     Eigenvalues ---    0.45279   0.45484   0.45779   0.45958   0.46615
 En-DIIS/RFO-DIIS/Sim-DIIS IScMMF=       -3 using points:     5    4    3    2    1
 RFO step:  Lambda=-2.51551103D-13.
 NNeg= 0 NGDIIS= 5 SimSw=  2.50D-03 Rises=F DC= -9.57D-11 SmlDif=  1.00D-05
 NRisDI= 0 DoIntr=F SqrtH=F CThrHd= 10.0 CDAdj=  3.0
 RMS Error=  0.5190360400D-06 NUsed= 5 OKEnD=F EnDIS=F
 InvSVX:  RCond= 7.68D-12 Info=           0 Equed=N FErr=  1.11D-14 BErr=  7.49D-17
 DIIS inversion failure, remove point   5.
 InvSVX:  RCond= 3.90D-11 Info=           0 Equed=N FErr=  9.12D-15 BErr=  9.68D-17
 DIIS inversion failure, remove point   4.
 InvSVX:  RCond= 3.90D-11 Info=           0 Equed=N FErr=  4.63D-15 BErr=  3.69D-18
 DIIS inversion failure, remove point   3.
 InvSVX:  RCond= 4.19D-10 Info=           0 Equed=N FErr=  1.26D-15 BErr=  8.11D-17
 DIIS inversion failure, remove point   2.
 Use linear search instead of GDIIS.
 RFO step:  Lambda= 0.00000000D+00 EMin= 4.52585165D-03
 Skip linear search -- no minimum in search direction.
 Iteration  1 RMS(Cart)=  0.00000150 RMS(Int)=  0.00000000
 Iteration  2 RMS(Cart)=  0.00000000 RMS(Int)=  0.00000000
 ITry= 1 IFail=0 DXMaxC= 7.36D-06 DCOld= 1.00D+10 DXMaxT= 1.50D-01 DXLimC= 3.00D+00 Rises=F
 ClnCor:  largest displacement from symmetrization is 2.11D-10 for atom     5.
 Variable       Old X    -DE/DX   Delta X   Delta X   Delta X     New X
                                 (Linear)    (Quad)   (Total)
    R1        2.63081  -0.00000   0.00000  -0.00000  -0.00000   2.63081
    R2        2.64768   0.00000   0.00000   0.00000   0.00000   2.64768
    R3        2.05384   0.00000   0.00000   0.00000   0.00000   2.05384
    R4        2.64768   0.00000   0.00000   0.00000   0.00000   2.64768
    R5        2.05384   0.00000   0.00000   0.00000   0.00000   2.05384
    R6        2.64938   0.00000   0.00000  -0.00000  -0.00000   2.64938
    R7        2.85796   0.00000   0.00000   0.00000   0.00000   2.85796
    R8        2.64107  -0.00000   0.00000   0.00000   0.00000   2.64107
    R9        2.05631   0.00000   0.00000   0.00000   0.00000   2.05631
   R10        2.64938   0.00000   0.00000  -0.00000  -0.00000   2.64938
   R11        2.05631   0.00000   0.00000   0.00000   0.00000   2.05631
   R12        2.85796   0.00000   0.00000   0.00000   0.00000   2.85796
   R13        2.07189   0.00000   0.00000   0.00000   0.00000   2.07189
   R14        2.07014   0.00000   0.00000   0.00000   0.00000   2.07014
   R15        2.99597  -0.00000   0.00000  -0.00000  -0.00000   2.99597
   R16        2.07189   0.00000   0.00000   0.00000   0.00000   2.07189
   R17        2.07014   0.00000   0.00000   0.00000   0.00000   2.07014
   R18        2.99597  -0.00000   0.00000  -0.00000  -0.00000   2.99597
   R19        2.07158   0.00000   0.00000   0.00000   0.00000   2.07158
   R20        2.07043  -0.00000   0.00000  -0.00000  -0.00000   2.07043
   R21        2.87550  -0.00000   0.00000  -0.00000  -0.00000   2.87550
   R22        2.07043  -0.00000   0.00000  -0.00000  -0.00000   2.07043
   R23        2.07158   0.00000   0.00000   0.00000   0.00000   2.07158
   R24        2.87550  -0.00000   0.00000  -0.00000  -0.00000   2.87550
   R25        2.64790   0.00000   0.00000   0.00000   0.00000   2.64790
   R26        2.64763  -0.00000   0.00000  -0.00000  -0.00000   2.64763
   R27        2.64790   0.00000   0.00000   0.00000   0.00000   2.64790
   R28        2.04859  -0.00000   0.00000  -0.00000  -0.00000   2.04859
   R29        2.64046  -0.00000   0.00000  -0.00000  -0.00000   2.64046
   R30        2.05532   0.00000   0.00000   0.00000   0.00000   2.05532
   R31        2.64763  -0.00000   0.00000  -0.00000  -0.00000   2.64763
   R32        2.64046  -0.00000   0.00000  -0.00000  -0.00000   2.64046
   R33        2.05355  -0.00000   0.00000  -0.00000  -0.00000   2.05355
   R34        2.05532   0.00000   0.00000   0.00000   0.00000   2.05532
    A1        2.10236  -0.00000   0.00000   0.00000   0.00000   2.10236
    A2        2.08071   0.00000   0.00000   0.00000   0.00000   2.08071
    A3        2.08590  -0.00000   0.00000  -0.00000  -0.00000   2.08590
    A4        2.10236  -0.00000   0.00000   0.00000   0.00000   2.10236
    A5        2.08071   0.00000   0.00000   0.00000   0.00000   2.08071
    A6        2.08590  -0.00000   0.00000  -0.00000  -0.00000   2.08590
    A7        2.04858   0.00000   0.00000   0.00000   0.00000   2.04858
    A8        2.07411  -0.00000   0.00000  -0.00000  -0.00000   2.07411
    A9        2.11590   0.00000   0.00000   0.00000   0.00000   2.11590
   A10        2.09974   0.00000   0.00000   0.00000   0.00000   2.09974
   A11        2.08959  -0.00000   0.00000   0.00000   0.00000   2.08959
   A12        2.08085  -0.00000   0.00000  -0.00000  -0.00000   2.08085
   A13        2.09974   0.00000   0.00000   0.00000   0.00000   2.09974
   A14        2.08085  -0.00000   0.00000  -0.00000  -0.00000   2.08085
   A15        2.08959  -0.00000   0.00000   0.00000   0.00000   2.08959
   A16        2.04858   0.00000   0.00000   0.00000   0.00000   2.04858
   A17        2.07411  -0.00000   0.00000  -0.00000  -0.00000   2.07411
   A18        2.11590   0.00000   0.00000   0.00000   0.00000   2.11590
   A19        1.96947   0.00000   0.00000   0.00000   0.00000   1.96947
   A20        1.91861  -0.00000   0.00000  -0.00000  -0.00000   1.91861
   A21        1.91347  -0.00000   0.00000  -0.00000  -0.00000   1.91347
   A22        1.87259   0.00000   0.00000   0.00000   0.00000   1.87259
   A23        1.88728   0.00000   0.00000   0.00000   0.00000   1.88728
   A24        1.90083  -0.00000   0.00000  -0.00000  -0.00000   1.90083
   A25        1.96947   0.00000   0.00000   0.00000   0.00000   1.96947
   A26        1.91861  -0.00000   0.00000  -0.00000  -0.00000   1.91861
   A27        1.91347  -0.00000   0.00000  -0.00000  -0.00000   1.91347
   A28        1.87259   0.00000   0.00000   0.00000   0.00000   1.87259
   A29        1.88728   0.00000   0.00000   0.00000   0.00000   1.88728
   A30        1.90083  -0.00000   0.00000  -0.00000  -0.00000   1.90083
   A31        1.88970  -0.00000   0.00000   0.00000   0.00000   1.88970
   A32        1.88222   0.00000   0.00000   0.00000   0.00000   1.88222
   A33        1.98237  -0.00000   0.00000  -0.00000  -0.00000   1.98237
   A34        1.86589  -0.00000   0.00000   0.00000   0.00000   1.86589
   A35        1.93851   0.00000   0.00000   0.00000   0.00000   1.93851
   A36        1.90083   0.00000   0.00000   0.00000   0.00000   1.90083
   A37        1.88222   0.00000   0.00000   0.00000   0.00000   1.88222
   A38        1.88970  -0.00000   0.00000   0.00000   0.00000   1.88970
   A39        1.98237  -0.00000   0.00000  -0.00000  -0.00000   1.98237
   A40        1.86589  -0.00000   0.00000   0.00000   0.00000   1.86589
   A41        1.90083   0.00000   0.00000   0.00000   0.00000   1.90083
   A42        1.93851   0.00000   0.00000   0.00000   0.00000   1.93851
   A43        2.08206   0.00000   0.00000  -0.00000  -0.00000   2.08206
   A44        2.13698   0.00000   0.00000   0.00000   0.00000   2.13698
   A45        2.05468  -0.00000   0.00000   0.00000   0.00000   2.05468
   A46        2.13809   0.00000   0.00000   0.00000   0.00000   2.13809
   A47        2.06818   0.00000   0.00000   0.00000   0.00000   2.06818
   A48        2.06818   0.00000   0.00000   0.00000   0.00000   2.06818
   A49        2.09936   0.00000   0.00000   0.00000   0.00000   2.09936
   A50        2.09270  -0.00000   0.00000  -0.00000  -0.00000   2.09270
   A51        2.09088   0.00000   0.00000   0.00000   0.00000   2.09088
   A52        2.08206   0.00000   0.00000  -0.00000  -0.00000   2.08206
   A53        2.13698   0.00000   0.00000   0.00000   0.00000   2.13698
   A54        2.05468  -0.00000   0.00000   0.00000   0.00000   2.05468
   A55        2.10375   0.00000   0.00000   0.00000   0.00000   2.10375
   A56        2.08909  -0.00000   0.00000  -0.00000  -0.00000   2.08909
   A57        2.08909  -0.00000   0.00000  -0.00000  -0.00000   2.08909
   A58        2.09936   0.00000   0.00000   0.00000   0.00000   2.09936
   A59        2.09270  -0.00000   0.00000  -0.00000  -0.00000   2.09270
   A60        2.09088   0.00000   0.00000   0.00000   0.00000   2.09088
    D1       -0.00000  -0.00000   0.00000  -0.00000   0.00000   0.00000
    D2        2.96035   0.00000   0.00000   0.00000   0.00000   2.96035
    D3       -2.96035  -0.00000   0.00000  -0.00000  -0.00000  -2.96035
    D4        0.00000  -0.00000   0.00000   0.00000  -0.00000   0.00000
    D5        0.27033  -0.00000   0.00000  -0.00000  -0.00000   0.27033
    D6       -2.55905  -0.00000   0.00000  -0.00000  -0.00000  -2.55905
    D7       -3.05304   0.00000   0.00000  -0.00000  -0.00000  -3.05304
    D8        0.40076  -0.00000   0.00000  -0.00000  -0.00000   0.40076
    D9       -0.27033   0.00000   0.00000   0.00000   0.00000  -0.27033
   D10        2.55905   0.00000   0.00000   0.00000   0.00000   2.55905
   D11        3.05304  -0.00000   0.00000   0.00000   0.00000   3.05304
   D12       -0.40076   0.00000   0.00000   0.00000   0.00000  -0.40076
   D13        0.26991  -0.00000   0.00000  -0.00000  -0.00000   0.26991
   D14       -3.04566  -0.00000   0.00000  -0.00000  -0.00000  -3.04566
   D15       -2.55157  -0.00000   0.00000  -0.00000  -0.00000  -2.55157
   D16        0.41605  -0.00000   0.00000  -0.00000  -0.00000   0.41605
   D17        2.62006   0.00000   0.00000   0.00000   0.00000   2.62006
   D18        0.53052  -0.00000   0.00000   0.00000   0.00000   0.53052
   D19       -1.55850   0.00000   0.00000   0.00000   0.00000  -1.55850
   D20       -0.84620   0.00000   0.00000   0.00000   0.00000  -0.84620
   D21       -2.93574   0.00000   0.00000   0.00000   0.00000  -2.93574
   D22        1.25842   0.00000   0.00000   0.00000   0.00000   1.25843
   D23        0.00000  -0.00000   0.00000  -0.00000   0.00000   0.00000
   D24        2.96848   0.00000   0.00000   0.00000   0.00000   2.96848
   D25       -2.96848  -0.00000   0.00000  -0.00000  -0.00000  -2.96848
   D26       -0.00000   0.00000   0.00000   0.00000   0.00000   0.00000
   D27       -0.26991   0.00000   0.00000   0.00000   0.00000  -0.26991
   D28        2.55157   0.00000   0.00000   0.00000   0.00000   2.55157
   D29        3.04566   0.00000   0.00000   0.00000   0.00000   3.04566
   D30       -0.41605   0.00000   0.00000   0.00000   0.00000  -0.41605
   D31       -2.62006  -0.00000   0.00000  -0.00000  -0.00000  -2.62006
   D32       -0.53052   0.00000   0.00000  -0.00000  -0.00000  -0.53052
   D33        1.55850  -0.00000   0.00000  -0.00000  -0.00000   1.55850
   D34        0.84620  -0.00000   0.00000  -0.00000  -0.00000   0.84620
   D35        2.93574  -0.00000   0.00000  -0.00000  -0.00000   2.93574
   D36       -1.25842  -0.00000   0.00000  -0.00000  -0.00000  -1.25843
   D37        2.81896  -0.00000   0.00000  -0.00000  -0.00000   2.81895
   D38       -1.45112  -0.00000   0.00000  -0.00000  -0.00000  -1.45112
   D39        0.65716  -0.00000   0.00000  -0.00000  -0.00000   0.65716
   D40       -1.31043   0.00000   0.00000  -0.00000  -0.00000  -1.31043
   D41        0.70267   0.00000   0.00000  -0.00000  -0.00000   0.70267
   D42        2.81096   0.00000   0.00000  -0.00000  -0.00000   2.81096
   D43        0.71908   0.00000   0.00000  -0.00000  -0.00000   0.71908
   D44        2.73218   0.00000   0.00000  -0.00000  -0.00000   2.73218
   D45       -1.44272   0.00000   0.00000  -0.00000  -0.00000  -1.44272
   D46        1.45112   0.00000   0.00000   0.00000   0.00000   1.45112
   D47       -2.81896   0.00000   0.00000   0.00000   0.00000  -2.81895
   D48       -0.65716   0.00000   0.00000   0.00000   0.00000  -0.65716
   D49       -0.70267  -0.00000   0.00000   0.00000   0.00000  -0.70267
   D50        1.31043  -0.00000   0.00000   0.00000   0.00000   1.31043
   D51       -2.81096  -0.00000   0.00000   0.00000   0.00000  -2.81096
   D52       -2.73218  -0.00000   0.00000   0.00000   0.00000  -2.73218
   D53       -0.71908  -0.00000   0.00000   0.00000   0.00000  -0.71908
   D54        1.44272  -0.00000   0.00000   0.00000   0.00000   1.44272
   D55       -1.49785  -0.00000   0.00000  -0.00000  -0.00000  -1.49785
   D56        1.49297  -0.00000   0.00000  -0.00000  -0.00000   1.49297
   D57        2.65032   0.00000   0.00000  -0.00000  -0.00000   2.65032
   D58       -0.64204   0.00000   0.00000  -0.00000  -0.00000  -0.64204
   D59        0.59994  -0.00000   0.00000  -0.00000  -0.00000   0.59994
   D60       -2.69242  -0.00000   0.00000  -0.00000  -0.00000  -2.69242
   D61        1.49785   0.00000   0.00000   0.00000   0.00000   1.49785
   D62       -1.49297   0.00000   0.00000   0.00000   0.00000  -1.49297
   D63       -0.59994   0.00000   0.00000   0.00000   0.00000  -0.59994
   D64        2.69242   0.00000   0.00000   0.00000   0.00000   2.69242
   D65       -2.65032  -0.00000   0.00000   0.00000   0.00000  -2.65032
   D66        0.64204  -0.00000   0.00000   0.00000   0.00000   0.64204
   D67       -2.81586  -0.00000   0.00000  -0.00000  -0.00000  -2.81586
   D68        0.18189   0.00000   0.00000   0.00000   0.00000   0.18189
   D69        0.18204  -0.00000   0.00000  -0.00000  -0.00000   0.18204
   D70       -3.10339   0.00000   0.00000   0.00000   0.00000  -3.10339
   D71        2.94280   0.00000   0.00000   0.00000   0.00000   2.94280
   D72       -0.17483   0.00000   0.00000   0.00000   0.00000  -0.17483
   D73       -0.05027   0.00000   0.00000   0.00000   0.00000  -0.05027
   D74        3.11529  -0.00000   0.00000   0.00000   0.00000   3.11529
   D75        2.81586   0.00000   0.00000   0.00000   0.00000   2.81586
   D76       -0.18204   0.00000   0.00000   0.00000   0.00000  -0.18204
   D77       -0.18189  -0.00000   0.00000  -0.00000  -0.00000  -0.18189
   D78        3.10339  -0.00000   0.00000  -0.00000  -0.00000   3.10339
   D79       -0.07449   0.00000   0.00000   0.00000   0.00000  -0.07449
   D80        3.12106  -0.00000   0.00000  -0.00000  -0.00000   3.12106
   D81        3.04316   0.00000   0.00000   0.00000   0.00000   3.04316
   D82       -0.04448   0.00000   0.00000  -0.00000  -0.00000  -0.04448
   D83       -2.94280  -0.00000   0.00000  -0.00000  -0.00000  -2.94280
   D84        0.17483  -0.00000   0.00000  -0.00000  -0.00000   0.17483
   D85        0.05027  -0.00000   0.00000  -0.00000  -0.00000   0.05027
   D86       -3.11529   0.00000   0.00000  -0.00000  -0.00000  -3.11529
   D87        0.07449  -0.00000   0.00000  -0.00000  -0.00000   0.07449
   D88       -3.04316  -0.00000   0.00000  -0.00000  -0.00000  -3.04316
   D89       -3.12106   0.00000   0.00000   0.00000   0.00000  -3.12106
   D90        0.04448  -0.00000   0.00000   0.00000   0.00000   0.04448
         Item               Value     Threshold  Converged?
 Maximum Force            0.000000     0.000002     YES
 RMS     Force            0.000000     0.000001     YES
 Maximum Displacement     0.000007     0.000006     NO 
 RMS     Displacement     0.000002     0.000004     YES
 Predicted change in Energy=-3.348061D-13
 GradGradGradGradGradGradGradGradGradGradGradGradGradGradGradGradGradGrad

 Leave Link  103 at Mon Jul 28 11:50:54 2025, MaxMem=   104857600 cpu:               2.1 elap:               0.1
 (Enter /opt/linux/rocky/8/software/gaussian/16c01_avx2/g16/l202.exe)
                          Input orientation:                          
 ---------------------------------------------------------------------
 Center     Atomic      Atomic             Coordinates (Angstroms)
 Number     Number       Type             X           Y           Z
 ---------------------------------------------------------------------
      1          6           0        0.965864    1.549294    0.696083
      2          6           0        0.965864    1.549294   -0.696083
      3          6           0        1.469348    0.451479   -1.406266
      4          6           0        2.256733   -0.467811   -0.698796
      5          6           0        2.256733   -0.467811    0.698796
      6          6           0        1.469348    0.451479    1.406266
      7          1           0        0.421484    2.326121    1.226572
      8          1           0        0.421484    2.326121   -1.226572
      9          1           0        2.741033   -1.284693   -1.230058
     10          1           0        2.741033   -1.284693    1.230058
     11          6           0        0.835218    0.085790   -2.729675
     12          1           0        1.541994   -0.381278   -3.425663
     13          1           0        0.444129    0.985293   -3.217534
     14          6           0        0.835218    0.085790    2.729675
     15          1           0        1.541994   -0.381278    3.425663
     16          1           0        0.444129    0.985293    3.217534
     17          6           0       -0.359685   -0.927274   -2.485953
     18          1           0       -1.001751   -0.921587   -3.374458
     19          1           0        0.064832   -1.934145   -2.406038
     20          6           0       -0.359685   -0.927274    2.485953
     21          1           0        0.064832   -1.934145    2.406038
     22          1           0       -1.001751   -0.921587    3.374458
     23          6           0       -1.163203   -0.629657    1.228496
     24          6           0       -0.730315   -1.146174   -0.000000
     25          6           0       -2.223551    0.285997    1.213324
     26          6           0       -1.163203   -0.629657   -1.228496
     27          1           0        0.065139   -1.882691   -0.000000
     28          6           0       -2.776054    0.704264   -0.000000
     29          1           0       -2.604126    0.690438    2.148482
     30          6           0       -2.223551    0.285997   -1.213324
     31          1           0       -3.610794    1.400042   -0.000000
     32          1           0       -2.604126    0.690438   -2.148482
 ---------------------------------------------------------------------
                    Distance matrix (angstroms):
                    1          2          3          4          5
     1  C    0.000000
     2  C    1.392166   0.000000
     3  C    2.424575   1.401090   0.000000
     4  C    2.771415   2.394799   1.401992   0.000000
     5  C    2.394799   2.771415   2.428241   1.397592   0.000000
     6  C    1.401090   2.424575   2.812532   2.428241   1.401992
     7  H    1.086843   2.143925   3.397667   3.857621   3.384190
     8  H    2.143925   1.086843   2.155131   3.384190   3.857621
     9  H    3.859109   3.386419   2.159288   1.088155   2.149958
    10  H    3.386419   3.859109   3.403186   2.149958   1.088155
    11  C    3.727564   2.508866   1.512370   2.540010   3.752546
    12  H    4.587791   3.392586   2.185572   2.820309   4.186825
    13  H    3.988321   2.635910   2.148656   3.426527   4.553535
    14  C    2.508866   3.727564   4.200222   3.752546   2.540010
    15  H    3.392586   4.587791   4.903703   4.186825   2.820309
    16  H    2.635910   3.988321   4.766084   4.553535   3.426527
    17  C    4.244505   3.330781   2.532202   3.201669   4.147213
    18  H    5.152287   4.141311   3.444622   4.240613   5.235937
    19  H    4.750722   3.983736   2.943367   3.141535   4.073643
    20  C    3.330781   4.244505   4.516158   4.147213   3.201669
    21  H    3.983736   4.750722   4.711425   4.073643   3.141535
    22  H    4.141311   5.152287   5.554004   5.235937   4.240613
    23  C    3.092607   3.603437   3.878292   3.928946   3.464498
    24  C    3.259924   3.259924   3.060816   3.141807   3.141807
    25  C    3.469269   3.926082   4.530688   4.929237   4.572299
    26  C    3.603437   3.092607   2.851453   3.464498   3.928946
    27  H    3.615848   3.615848   3.065573   2.700609   2.700609
    28  C    3.898790   3.898790   4.479389   5.214502   5.214502
    29  H    3.948661   4.644783   5.411702   5.751216   5.202988
    30  C    3.926082   3.469269   3.701636   4.572299   4.929237
    31  H    4.631695   4.631695   5.355856   6.197182   6.197182
    32  H    4.644783   3.948661   4.147430   5.202988   5.751216
                    6          7          8          9         10
     6  C    0.000000
     7  H    2.155131   0.000000
     8  H    3.397667   2.453145   0.000000
     9  H    3.403186   4.945029   4.291654   0.000000
    10  H    2.159288   4.291654   4.945029   2.460116   0.000000
    11  C    4.200222   4.565321   2.729391   2.785535   4.603243
    12  H    4.903703   5.498077   3.663544   2.659800   4.891788
    13  H    4.766084   4.642027   2.400471   3.791921   5.496333
    14  C    1.512370   2.729391   4.565321   4.603243   2.785535
    15  H    2.185572   3.663544   5.498077   4.891788   2.659800
    16  H    2.148656   2.400471   4.642027   5.496333   3.791921
    17  C    4.516158   4.997764   3.575031   3.364442   4.852930
    18  H    5.554004   5.808845   4.145675   4.328825   5.944900
    19  H    4.711425   5.610073   4.434885   2.994456   4.561253
    20  C    2.532202   3.575031   4.997764   4.852930   3.364442
    21  H    2.943367   4.434885   5.610073   4.561253   2.994456
    22  H    3.444622   4.145675   5.808845   5.944900   4.328825
    23  C    2.851453   3.353783   4.156347   4.660109   3.958804
    24  C    3.060816   3.858491   3.858491   3.685442   3.685442
    25  C    3.701636   3.340433   4.136594   5.751893   5.207153
    26  C    3.878292   4.156347   3.353783   3.958804   4.660109
    27  H    3.065573   4.398359   4.398359   3.005170   3.005170
    28  C    4.479389   3.789347   3.789347   5.992265   5.992265
    29  H    4.147430   3.560855   4.818793   6.624680   5.771946
    30  C    4.530688   4.136594   3.340433   5.207153   5.751893
    31  H    5.355856   4.315248   4.315248   7.004751   7.004751
    32  H    5.411702   4.818793   3.560855   5.771946   6.624680
                   11         12         13         14         15
    11  C    0.000000
    12  H    1.096396   0.000000
    13  H    1.095473   1.765260   0.000000
    14  C    5.459351   6.213363   6.027549   0.000000
    15  H    6.213363   6.851326   6.870581   1.096396   0.000000
    16  H    6.027549   6.870581   6.435067   1.095473   1.765260
    17  C    1.585400   2.190331   2.199827   5.445812   6.233915
    18  H    2.192033   2.600998   2.398204   6.453658   7.280399
    19  H    2.185949   2.373402   3.053769   5.572180   6.213062
    20  C    5.445812   6.233915   6.069084   1.585400   2.190331
    21  H    5.572180   6.213062   6.347562   2.185949   2.373402
    22  H    6.453658   7.280399   7.012925   2.192033   2.600998
    23  C    4.491400   5.388968   4.995874   2.599825   3.493898
    24  C    3.379313   4.181342   4.034227   3.379313   4.181342
    25  C    4.994336   6.012053   5.219006   3.419864   4.418035
    26  C    2.599825   3.493898   3.024541   4.491400   5.388968
    27  H    3.452400   4.021257   4.326833   3.452400   4.021257
    28  C    4.568908   5.617750   4.560820   4.568908   5.617750
    29  H    5.999258   7.029223   6.178423   3.540123   4.468789
    30  C    3.419864   4.418035   3.409162   4.994336   6.012053
    31  H    5.380093   6.438904   5.192970   5.380093   6.438904
    32  H    3.540123   4.468789   3.243712   5.999258   7.029223
                   16         17         18         19         20
    16  H    0.000000
    17  C    6.069084   0.000000
    18  H    7.012925   1.096231   0.000000
    19  H    6.347562   1.095623   1.760883   0.000000
    20  C    2.199827   4.971905   5.895481   5.012542   0.000000
    21  H    3.053769   5.012542   5.964646   4.812076   1.095623
    22  H    2.398204   5.895481   6.748916   5.964646   1.096231
    23  C    3.024541   3.812000   4.615027   4.052110   1.521649
    24  C    4.034227   2.522944   3.392799   2.653710   2.522944
    25  C    3.409162   4.316326   4.898856   4.823433   2.562345
    26  C    4.995874   1.521649   2.171737   2.143913   3.812000
    27  H    4.326833   2.696898   3.667280   2.406588   2.696898
    28  C    4.560820   3.831543   4.144697   4.562988   3.831543
    29  H    3.243712   5.397452   5.972361   5.895373   2.787184
    30  C    5.219006   2.562345   2.760717   3.404159   4.316326
    31  H    5.192970   4.708085   4.856339   5.515074   4.708085
    32  H    6.178423   2.787184   2.582489   3.752081   5.397452
                   21         22         23         24         25
    21  H    0.000000
    22  H    1.760883   0.000000
    23  C    2.143913   2.171737   0.000000
    24  C    2.653710   3.392799   1.401208   0.000000
    25  C    3.404159   2.760717   1.401068   2.398545   0.000000
    26  C    4.052110   4.615027   2.456992   1.401208   2.815181
    27  H    2.406588   3.667280   2.141990   1.084069   3.378382
    28  C    4.562988   4.144697   2.426899   2.758472   1.397269
    29  H    3.752081   2.582489   2.159927   3.391207   1.087626
    30  C    4.823433   4.898856   2.815181   2.398545   2.426647
    31  H    5.515074   4.856339   3.408750   3.844524   2.153530
    32  H    5.895373   5.972361   3.901652   3.391207   3.407366
                   26         27         28         29         30
    26  C    0.000000
    27  H    2.141990   0.000000
    28  C    2.426899   3.842489   0.000000
    29  H    3.901652   4.285084   2.155394   0.000000
    30  C    1.401068   3.378382   1.397269   3.407366   0.000000
    31  H    3.408750   4.928369   1.086690   2.476467   2.153530
    32  H    2.159927   4.285084   2.155394   4.296963   1.087626
                   31         32
    31  H    0.000000
    32  H    2.476467   0.000000
 Stoichiometry    C16H16
 Framework group  CS[SG(C2H2),X(C14H14)]
 Deg. of freedom    47
 Full point group                 CS      NOp   2
 RotChk:  IX=0 Diff= 1.11D-06
 Largest Abelian subgroup         CS      NOp   2
 Largest concise Abelian subgroup CS      NOp   2
                         Standard orientation:                         
 ---------------------------------------------------------------------
 Center     Atomic      Atomic             Coordinates (Angstroms)
 Number     Number       Type             X           Y           Z
 ---------------------------------------------------------------------
      1          6           0        0.965863    1.549294    0.696083
      2          6           0        0.965863    1.549294   -0.696083
      3          6           0        1.469348    0.451479   -1.406266
      4          6           0        2.256734   -0.467809   -0.698796
      5          6           0        2.256734   -0.467809    0.698796
      6          6           0        1.469348    0.451479    1.406266
      7          1           0        0.421483    2.326121    1.226572
      8          1           0        0.421483    2.326121   -1.226572
      9          1           0        2.741033   -1.284691   -1.230058
     10          1           0        2.741033   -1.284691    1.230058
     11          6           0        0.835218    0.085791   -2.729675
     12          1           0        1.541994   -0.381278   -3.425663
     13          1           0        0.444128    0.985293   -3.217534
     14          6           0        0.835218    0.085791    2.729675
     15          1           0        1.541994   -0.381278    3.425663
     16          1           0        0.444128    0.985293    3.217534
     17          6           0       -0.359685   -0.927275   -2.485953
     18          1           0       -1.001750   -0.921588   -3.374458
     19          1           0        0.064833   -1.934145   -2.406038
     20          6           0       -0.359685   -0.927275    2.485953
     21          1           0        0.064833   -1.934145    2.406038
     22          1           0       -1.001750   -0.921588    3.374458
     23          6           0       -1.163203   -0.629658    1.228496
     24          6           0       -0.730315   -1.146174    0.000000
     25          6           0       -2.223551    0.285996    1.213324
     26          6           0       -1.163203   -0.629658   -1.228496
     27          1           0        0.065140   -1.882691   -0.000000
     28          6           0       -2.776055    0.704263    0.000000
     29          1           0       -2.604126    0.690437    2.148482
     30          6           0       -2.223551    0.285996   -1.213324
     31          1           0       -3.610794    1.400040    0.000000
     32          1           0       -2.604126    0.690437   -2.148482
 ---------------------------------------------------------------------
 Rotational constants (GHZ):           0.7544995           0.7042620           0.4678162
 Leave Link  202 at Mon Jul 28 11:50:54 2025, MaxMem=   104857600 cpu:               0.1 elap:               0.0
 (Enter /opt/linux/rocky/8/software/gaussian/16c01_avx2/g16/l301.exe)
 Standard basis: 6-31G(d,p) (6D, 7F)
 Ernie: Thresh=  0.10000D-02 Tol=  0.10000D-05 Strict=F.
 There are   170 symmetry adapted cartesian basis functions of A'  symmetry.
 There are   150 symmetry adapted cartesian basis functions of A"  symmetry.
 There are   170 symmetry adapted basis functions of A'  symmetry.
 There are   150 symmetry adapted basis functions of A"  symmetry.
   320 basis functions,   560 primitive gaussians,   320 cartesian basis functions
    56 alpha electrons       56 beta electrons
       nuclear repulsion energy      1088.3277923127 Hartrees.
 IExCor=  402 DFT=T Ex+Corr=B3LYP ExCW=0 ScaHFX=  0.200000
 ScaDFX=  0.800000  0.720000  1.000000  0.810000 ScalE2=  1.000000  1.000000
 IRadAn=      5 IRanWt=     -1 IRanGd=            0 ICorTp=0 IEmpDi=  4
 NAtoms=   32 NActive=   32 NUniq=   18 SFac= 3.16D+00 NAtFMM=   60 NAOKFM=F Big=F
 Integral buffers will be    131072 words long.
 Raffenetti 2 integral format.
 Two-electron integral symmetry is turned on.
 Leave Link  301 at Mon Jul 28 11:50:54 2025, MaxMem=   104857600 cpu:               0.7 elap:               0.0
 (Enter /opt/linux/rocky/8/software/gaussian/16c01_avx2/g16/l302.exe)
 NPDir=0 NMtPBC=     1 NCelOv=     1 NCel=       1 NClECP=     1 NCelD=      1
         NCelK=      1 NCelE2=     1 NClLst=     1 CellRange=     0.0.
 One-electron integrals computed using PRISM.
 One-electron integral symmetry used in STVInt
 PrsmSu:  requested number of processors reduced to:  28 ShMem   1 Linda.
 NBasis=   320 RedAO= T EigKep=  4.49D-04  NBF=   170   150
 NBsUse=   320 1.00D-06 EigRej= -1.00D+00 NBFU=   170   150
 Precomputing XC quadrature grid using
 IXCGrd= 4 IRadAn=           5 IRanWt=          -1 IRanGd=           0 AccXCQ= 0.00D+00.
 Generated NRdTot=       0 NPtTot=           0 NUsed=           0 NTot=          32
 NSgBfM=   320   320   320   320   320 MxSgAt=    32 MxSgA2=    32.
 Leave Link  302 at Mon Jul 28 11:50:54 2025, MaxMem=   104857600 cpu:               5.9 elap:               0.2
 (Enter /opt/linux/rocky/8/software/gaussian/16c01_avx2/g16/l303.exe)
 DipDrv:  MaxL=1.
 Leave Link  303 at Mon Jul 28 11:50:54 2025, MaxMem=   104857600 cpu:               0.7 elap:               0.0
 (Enter /opt/linux/rocky/8/software/gaussian/16c01_avx2/g16/l401.exe)
 Initial guess from the checkpoint file:  "metapara_b3lyp631gdp_vtight.chk"
 B after Tr=    -0.000000   -0.000000    0.000000
         Rot=    1.000000    0.000000    0.000000   -0.000000 Ang=  -0.00 deg.
 Guess basis will be translated and rotated to current coordinates.
 JPrj=2 DoOrth=T DoCkMO=T.
 Initial guess orbital symmetries:
       Occupied  (A") (A') (A") (A') (A') (A") (A") (A') (A') (A')
                 (A") (A") (A') (A') (A") (A') (A') (A') (A") (A')
                 (A") (A') (A') (A") (A') (A") (A") (A') (A') (A")
                 (A') (A') (A') (A") (A") (A') (A') (A") (A') (A")
                 (A') (A') (A") (A") (A') (A') (A") (A') (A') (A")
                 (A") (A') (A') (A') (A") (A")
       Virtual   (A') (A") (A") (A') (A') (A") (A') (A') (A") (A')
                 (A") (A') (A') (A") (A') (A") (A") (A') (A') (A")
                 (A') (A") (A') (A") (A') (A") (A') (A") (A') (A")
                 (A') (A") (A') (A") (A") (A') (A") (A') (A') (A")
                 (A') (A') (A") (A') (A') (A") (A') (A') (A") (A")
                 (A') (A") (A') (A") (A') (A') (A") (A') (A") (A')
                 (A") (A') (A") (A") (A') (A") (A') (A') (A") (A')
                 (A') (A") (A') (A") (A") (A') (A") (A') (A") (A")
                 (A') (A') (A') (A") (A') (A') (A") (A") (A") (A')
                 (A') (A") (A') (A") (A") (A') (A") (A') (A") (A')
                 (A') (A") (A') (A") (A') (A') (A") (A') (A") (A")
                 (A') (A') (A") (A') (A") (A') (A") (A') (A') (A")
                 (A') (A') (A") (A") (A") (A') (A') (A") (A") (A')
                 (A') (A") (A") (A') (A') (A") (A') (A") (A') (A")
                 (A') (A') (A") (A') (A') (A") (A") (A') (A') (A')
                 (A") (A') (A') (A') (A") (A') (A") (A") (A") (A')
                 (A') (A') (A") (A") (A") (A') (A') (A") (A') (A")
                 (A') (A") (A") (A') (A') (A') (A") (A") (A") (A')
                 (A") (A') (A') (A") (A') (A') (A") (A') (A') (A")
                 (A') (A") (A") (A') (A') (A") (A') (A") (A") (A')
                 (A") (A') (A") (A") (A') (A") (A") (A') (A") (A")
                 (A") (A') (A') (A") (A') (A") (A") (A') (A') (A")
                 (A') (A") (A') (A") (A') (A') (A") (A") (A") (A')
                 (A') (A') (A') (A") (A') (A") (A") (A") (A') (A")
                 (A') (A') (A") (A") (A') (A") (A") (A') (A') (A")
                 (A') (A') (A") (A') (A') (A") (A') (A") (A') (A")
                 (A') (A") (A") (A')
 The electronic state of the initial guess is 1-A'.
 Leave Link  401 at Mon Jul 28 11:50:54 2025, MaxMem=   104857600 cpu:               4.7 elap:               0.1
 (Enter /opt/linux/rocky/8/software/gaussian/16c01_avx2/g16/l502.exe)
 Integral symmetry usage will be decided dynamically.
 Closed shell SCF:
 Using DIIS extrapolation, IDIIS=  1040.
 NGot=   104857600 LenX=   104636278 LenY=   104533437
 Requested convergence on RMS density matrix=1.00D-10 within 128 cycles.
 Requested convergence on MAX density matrix=1.00D-08.
 Requested convergence on             energy=1.00D-08.
 No special actions if energy rises.
 Fock matrices will be formed incrementally for  20 cycles.

 Cycle   1  Pass 1  IDiag  1:
 FoFJK:  IHMeth= 1 ICntrl=       0 DoSepK=F KAlg= 0 I1Cent=           0 FoldK=F
 IRaf= 910000000 NMat=       1 IRICut=       1 DoRegI=T DoRafI=F ISym2E= 1 IDoP0=0 IntGTp=1.
 FoFCou: FMM=F IPFlag=           0 FMFlag=      100000 FMFlg1=           0
         NFxFlg=           0 DoJE=F BraDBF=F KetDBF=F FulRan=T
         wScrn=  0.000000 ICntrl=         0 IOpCl=  0 I1Cent=           0 NGrid=           0
         NMat0=    1 NMatS0=      1 NMatT0=    0 NMatD0=    1 NMtDS0=    0 NMtDT0=    0
 Petite list used in FoFCou.
 E= -619.341347022469    
 DIIS: error= 1.85D-07 at cycle   1 NSaved=   1.
 NSaved= 1 IEnMin= 1 EnMin= -619.341347022469     IErMin= 1 ErrMin= 1.85D-07
 ErrMax= 1.85D-07  0.00D+00 EMaxC= 1.00D-01 BMatC= 2.54D-12 BMatP= 2.54D-12
 IDIUse=1 WtCom= 1.00D+00 WtEn= 0.00D+00
 Coeff-Com:  0.100D+01
 Coeff:      0.100D+01
 Gap=     0.209 Goal=   None    Shift=    0.000
 RMSDP=9.01D-09 MaxDP=2.86D-07              OVMax= 6.58D-07

 Cycle   2  Pass 1  IDiag  1:
 RMSU=  9.01D-09    CP:  1.00D+00
 E= -619.341347022475     Delta-E=       -0.000000000006 Rises=F Damp=F
 DIIS: error= 2.67D-08 at cycle   2 NSaved=   2.
 NSaved= 2 IEnMin= 2 EnMin= -619.341347022475     IErMin= 2 ErrMin= 2.67D-08
 ErrMax= 2.67D-08  0.00D+00 EMaxC= 1.00D-01 BMatC= 3.18D-14 BMatP= 2.54D-12
 IDIUse=1 WtCom= 1.00D+00 WtEn= 0.00D+00
 Coeff-Com: -0.882D-01 0.109D+01
 Coeff:     -0.882D-01 0.109D+01
 Gap=     0.209 Goal=   None    Shift=    0.000
 RMSDP=1.43D-09 MaxDP=3.92D-08 DE=-6.37D-12 OVMax= 1.12D-07

 Cycle   3  Pass 1  IDiag  1:
 RMSU=  1.05D-09    CP:  1.00D+00  1.11D+00
 E= -619.341347022478     Delta-E=       -0.000000000003 Rises=F Damp=F
 DIIS: error= 7.95D-09 at cycle   3 NSaved=   3.
 NSaved= 3 IEnMin= 3 EnMin= -619.341347022478     IErMin= 3 ErrMin= 7.95D-09
 ErrMax= 7.95D-09  0.00D+00 EMaxC= 1.00D-01 BMatC= 1.62D-14 BMatP= 3.18D-14
 IDIUse=1 WtCom= 1.00D+00 WtEn= 0.00D+00
 Coeff-Com: -0.491D-01 0.557D+00 0.492D+00
 Coeff:     -0.491D-01 0.557D+00 0.492D+00
 Gap=     0.209 Goal=   None    Shift=    0.000
 RMSDP=6.70D-10 MaxDP=1.59D-08 DE=-3.41D-12 OVMax= 5.52D-08

 Cycle   4  Pass 1  IDiag  1:
 RMSU=  5.36D-10    CP:  1.00D+00  1.12D+00  6.32D-01
 E= -619.341347022480     Delta-E=       -0.000000000002 Rises=F Damp=F
 DIIS: error= 3.83D-09 at cycle   4 NSaved=   4.
 NSaved= 4 IEnMin= 4 EnMin= -619.341347022480     IErMin= 4 ErrMin= 3.83D-09
 ErrMax= 3.83D-09  0.00D+00 EMaxC= 1.00D-01 BMatC= 3.42D-15 BMatP= 1.62D-14
 IDIUse=1 WtCom= 1.00D+00 WtEn= 0.00D+00
 Coeff-Com: -0.746D-02 0.644D-01 0.310D+00 0.633D+00
 Coeff:     -0.746D-02 0.644D-01 0.310D+00 0.633D+00
 Gap=     0.209 Goal=   None    Shift=    0.000
 RMSDP=2.78D-10 MaxDP=7.14D-09 DE=-1.82D-12 OVMax= 2.86D-08

 Cycle   5  Pass 1  IDiag  1:
 RMSU=  1.51D-10    CP:  1.00D+00  1.12D+00  7.83D-01  6.80D-01
 E= -619.341347022478     Delta-E=        0.000000000003 Rises=F Damp=F
 DIIS: error= 8.90D-10 at cycle   5 NSaved=   5.
 NSaved= 5 IEnMin= 4 EnMin= -619.341347022480     IErMin= 5 ErrMin= 8.90D-10
 ErrMax= 8.90D-10  0.00D+00 EMaxC= 1.00D-01 BMatC= 3.84D-16 BMatP= 3.42D-15
 IDIUse=1 WtCom= 1.00D+00 WtEn= 0.00D+00
 Coeff-Com:  0.123D-02-0.260D-01 0.114D+00 0.357D+00 0.554D+00
 Coeff:      0.123D-02-0.260D-01 0.114D+00 0.357D+00 0.554D+00
 Gap=     0.209 Goal=   None    Shift=    0.000
 RMSDP=8.05D-11 MaxDP=2.15D-09 DE= 2.73D-12 OVMax= 5.70D-09

 SCF Done:  E(RB3LYP) =  -619.341347022     A.U. after    5 cycles
            NFock=  5  Conv=0.80D-10     -V/T= 2.0099
 KE= 6.132660337262D+02 PE=-3.610140570215D+03 EE= 1.289205397154D+03
 Leave Link  502 at Mon Jul 28 11:50:57 2025, MaxMem=   104857600 cpu:              96.9 elap:               2.7
 (Enter /opt/linux/rocky/8/software/gaussian/16c01_avx2/g16/l701.exe)
 ... and contract with generalized density number  0.
 Compute integral first derivatives.
 PrsmSu:  requested number of processors reduced to:  29 ShMem   1 Linda.
 Leave Link  701 at Mon Jul 28 11:50:57 2025, MaxMem=   104857600 cpu:               5.0 elap:               0.2
 (Enter /opt/linux/rocky/8/software/gaussian/16c01_avx2/g16/l702.exe)
 L702 exits ... SP integral derivatives will be done elsewhere.
 Leave Link  702 at Mon Jul 28 11:50:58 2025, MaxMem=   104857600 cpu:               0.3 elap:               0.0
 (Enter /opt/linux/rocky/8/software/gaussian/16c01_avx2/g16/l703.exe)
 Integral derivatives from FoFJK, PRISM(SPDF).
 Compute integral first derivatives, UseDBF=F ICtDFT=           0.
 Calling FoFJK, ICntrl=      2127 FMM=F ISym2X=1 I1Cent= 0 IOpClX= 0 NMat=1 NMatS=1 NMatT=0.
 FoFJK:  IHMeth= 1 ICntrl=    2127 DoSepK=F KAlg= 0 I1Cent=           0 FoldK=F
 IRaf=         0 NMat=       1 IRICut=       1 DoRegI=T DoRafI=F ISym2E= 1 IDoP0=0 IntGTp=1.
 FoFCou: FMM=F IPFlag=           0 FMFlag=      100000 FMFlg1=         800
         NFxFlg=           0 DoJE=F BraDBF=F KetDBF=F FulRan=T
         wScrn=  0.000000 ICntrl=      2127 IOpCl=  0 I1Cent=           0 NGrid=           0
         NMat0=    1 NMatS0=      1 NMatT0=    0 NMatD0=    1 NMtDS0=    0 NMtDT0=    0
 Petite list used in FoFCou.
 Leave Link  703 at Mon Jul 28 11:50:59 2025, MaxMem=   104857600 cpu:              33.3 elap:               0.9
 (Enter /opt/linux/rocky/8/software/gaussian/16c01_avx2/g16/l716.exe)
 Dipole        =-7.79621343D-02-9.48729708D-02 1.68753900D-14
 ***** Axes restored to original set *****
 -------------------------------------------------------------------
 Center     Atomic                   Forces (Hartrees/Bohr)
 Number     Number              X              Y              Z
 -------------------------------------------------------------------
      1        6           0.000000805   -0.000000461   -0.000000030
      2        6           0.000000805   -0.000000461    0.000000030
      3        6           0.000000289   -0.000000748    0.000000019
      4        6          -0.000000209   -0.000001124    0.000000012
      5        6          -0.000000209   -0.000001124   -0.000000012
      6        6           0.000000289   -0.000000748   -0.000000019
      7        1           0.000001176   -0.000000214    0.000000005
      8        1           0.000001176   -0.000000214   -0.000000005
      9        1          -0.000000621   -0.000001361   -0.000000005
     10        1          -0.000000621   -0.000001361    0.000000005
     11        6           0.000000061   -0.000000372   -0.000000012
     12        1          -0.000000167   -0.000000764    0.000000014
     13        1           0.000000510   -0.000000217   -0.000000009
     14        6           0.000000061   -0.000000372    0.000000012
     15        1          -0.000000167   -0.000000764   -0.000000014
     16        1           0.000000510   -0.000000217    0.000000009
     17        6          -0.000000469    0.000000149    0.000000026
     18        1          -0.000000436    0.000000493    0.000000001
     19        1          -0.000000944   -0.000000029    0.000000002
     20        6          -0.000000469    0.000000149   -0.000000026
     21        1          -0.000000944   -0.000000029   -0.000000002
     22        1          -0.000000436    0.000000493   -0.000000001
     23        6          -0.000000307    0.000000559    0.000000025
     24        6          -0.000000582    0.000000310    0.000000000
     25        6           0.000000146    0.000001098   -0.000000023
     26        6          -0.000000307    0.000000559   -0.000000025
     27        1          -0.000000908   -0.000000038   -0.000000000
     28        6           0.000000380    0.000001361    0.000000000
     29        1           0.000000364    0.000001282    0.000000003
     30        6           0.000000146    0.000001098    0.000000023
     31        1           0.000000716    0.000001787    0.000000000
     32        1           0.000000364    0.000001282   -0.000000003
 -------------------------------------------------------------------
 Cartesian Forces:  Max     0.000001787 RMS     0.000000577
 Leave Link  716 at Mon Jul 28 11:50:59 2025, MaxMem=   104857600 cpu:               0.3 elap:               0.0
 (Enter /opt/linux/rocky/8/software/gaussian/16c01_avx2/g16/l103.exe)

 GradGradGradGradGradGradGradGradGradGradGradGradGradGradGradGradGradGrad
 Berny optimization.
 Using GEDIIS/GDIIS optimizer.
 FormGI is forming the generalized inverse of G from B-inverse, IUseBI=4.
 Internal  Forces:  Max     0.000000094 RMS     0.000000017
 Search for a local minimum.
 Step number   6 out of a maximum of  192
 All quantities printed in internal units (Hartrees-Bohrs-Radians)
 RMS Force = .17366D-07 SwitMx=.10000D-02 MixMth= 2
 Mixed Optimization -- En-DIIS/RFO-DIIS
 Swapping is turned off.
 Update second derivatives using D2CorX and points    1    2    6
 Trust test= 0.00D+00 RLast= 7.04D-06 DXMaxT set to 1.50D-01
 ITU=  0  0 -1  0  0  0
     Eigenvalues ---    0.00453   0.00510   0.00964   0.01504   0.01653
     Eigenvalues ---    0.01712   0.01943   0.01986   0.02060   0.02096
     Eigenvalues ---    0.02100   0.02111   0.02116   0.02122   0.02123
     Eigenvalues ---    0.02137   0.02167   0.02173   0.02176   0.02447
     Eigenvalues ---    0.03135   0.04021   0.04526   0.05079   0.05421
     Eigenvalues ---    0.05495   0.06184   0.06360   0.07333   0.07848
     Eigenvalues ---    0.08305   0.08789   0.09080   0.09389   0.09532
     Eigenvalues ---    0.10561   0.12849   0.14206   0.15121   0.15653
     Eigenvalues ---    0.15695   0.15846   0.15922   0.15977   0.15996
     Eigenvalues ---    0.16013   0.16398   0.19983   0.21996   0.22107
     Eigenvalues ---    0.22588   0.22610   0.22919   0.22958   0.23585
     Eigenvalues ---    0.23614   0.24185   0.24749   0.28602   0.29931
     Eigenvalues ---    0.30738   0.31047   0.34076   0.34084   0.34102
     Eigenvalues ---    0.34111   0.34148   0.34171   0.34188   0.34284
     Eigenvalues ---    0.35027   0.35027   0.35087   0.35088   0.35180
     Eigenvalues ---    0.35192   0.35247   0.35744   0.39276   0.41008
     Eigenvalues ---    0.41045   0.41590   0.42567   0.43626   0.44494
     Eigenvalues ---    0.45279   0.45489   0.45741   0.45958   0.46527
 En-DIIS/RFO-DIIS/Sim-DIIS IScMMF=       -3 using points:     6    5    4    3    2    1
 RFO step:  Lambda=-3.50975070D-13.
 NNeg= 0 NGDIIS= 6 SimSw=  2.50D-03 Rises=F DC=  9.25D-11 SmlDif=  1.00D-05
 NRisDI= 0 DoIntr=F SqrtH=F CThrHd= 10.0 CDAdj=  3.0
 RMS Error=  0.5840774942D-06 NUsed= 6 OKEnD=F EnDIS=F
 InvSVX:  RCond= 2.77D-13 Info=           0 Equed=N FErr=  7.44D-14 BErr=  1.03D-16
 DIIS inversion failure, remove point   6.
 InvSVX:  RCond= 5.04D-13 Info=           0 Equed=N FErr=  4.72D-14 BErr=  9.64D-17
 DIIS inversion failure, remove point   5.
 InvSVX:  RCond= 1.51D-12 Info=           0 Equed=N FErr=  1.75D-14 BErr=  9.62D-17
 DIIS inversion failure, remove point   4.
 InvSVX:  RCond= 1.48D-11 Info=           0 Equed=N FErr=  1.69D-15 BErr=  5.68D-17
 DIIS inversion failure, remove point   3.
 InvSVX:  RCond= 2.54D-10 Info=           0 Equed=N FErr=  1.35D-15 BErr=  4.69D-17
 DIIS inversion failure, remove point   2.
 Use linear search instead of GDIIS.
 RFO step:  Lambda= 0.00000000D+00 EMin= 4.52585138D-03
 Skip linear search -- no minimum in search direction.
 Iteration  1 RMS(Cart)=  0.00000163 RMS(Int)=  0.00000000
 Iteration  2 RMS(Cart)=  0.00000000 RMS(Int)=  0.00000000
 ITry= 1 IFail=0 DXMaxC= 8.26D-06 DCOld= 1.00D+10 DXMaxT= 1.50D-01 DXLimC= 3.00D+00 Rises=F
 ClnCor:  largest displacement from symmetrization is 6.94D-09 for atom    10.
 Variable       Old X    -DE/DX   Delta X   Delta X   Delta X     New X
                                 (Linear)    (Quad)   (Total)
    R1        2.63081  -0.00000   0.00000  -0.00000  -0.00000   2.63081
    R2        2.64768   0.00000   0.00000   0.00000   0.00000   2.64768
    R3        2.05384   0.00000   0.00000  -0.00000  -0.00000   2.05384
    R4        2.64768   0.00000   0.00000   0.00000   0.00000   2.64768
    R5        2.05384   0.00000   0.00000  -0.00000  -0.00000   2.05384
    R6        2.64938  -0.00000   0.00000  -0.00000  -0.00000   2.64938
    R7        2.85796   0.00000   0.00000   0.00000   0.00000   2.85796
    R8        2.64107  -0.00000   0.00000   0.00000   0.00000   2.64107
    R9        2.05631  -0.00000   0.00000  -0.00000  -0.00000   2.05631
   R10        2.64938  -0.00000   0.00000  -0.00000  -0.00000   2.64938
   R11        2.05631  -0.00000   0.00000  -0.00000  -0.00000   2.05631
   R12        2.85796   0.00000   0.00000   0.00000   0.00000   2.85796
   R13        2.07189  -0.00000   0.00000  -0.00000  -0.00000   2.07189
   R14        2.07014   0.00000   0.00000   0.00000   0.00000   2.07014
   R15        2.99597   0.00000   0.00000   0.00000   0.00000   2.99597
   R16        2.07189  -0.00000   0.00000  -0.00000  -0.00000   2.07189
   R17        2.07014   0.00000   0.00000   0.00000   0.00000   2.07014
   R18        2.99597   0.00000   0.00000   0.00000   0.00000   2.99597
   R19        2.07158  -0.00000   0.00000  -0.00000  -0.00000   2.07158
   R20        2.07043  -0.00000   0.00000  -0.00000  -0.00000   2.07043
   R21        2.87550  -0.00000   0.00000   0.00000   0.00000   2.87550
   R22        2.07043  -0.00000   0.00000  -0.00000  -0.00000   2.07043
   R23        2.07158  -0.00000   0.00000  -0.00000  -0.00000   2.07158
   R24        2.87550  -0.00000   0.00000   0.00000   0.00000   2.87550
   R25        2.64790   0.00000   0.00000  -0.00000  -0.00000   2.64790
   R26        2.64763  -0.00000   0.00000  -0.00000  -0.00000   2.64763
   R27        2.64790   0.00000   0.00000  -0.00000  -0.00000   2.64790
   R28        2.04859   0.00000   0.00000  -0.00000  -0.00000   2.04859
   R29        2.64046  -0.00000   0.00000  -0.00000  -0.00000   2.64046
   R30        2.05532   0.00000   0.00000  -0.00000  -0.00000   2.05532
   R31        2.64763  -0.00000   0.00000  -0.00000  -0.00000   2.64763
   R32        2.64046  -0.00000   0.00000  -0.00000  -0.00000   2.64046
   R33        2.05355  -0.00000   0.00000  -0.00000  -0.00000   2.05355
   R34        2.05532   0.00000   0.00000  -0.00000  -0.00000   2.05532
    A1        2.10236  -0.00000   0.00000  -0.00000  -0.00000   2.10236
    A2        2.08071   0.00000   0.00000   0.00000   0.00000   2.08071
    A3        2.08590  -0.00000   0.00000   0.00000   0.00000   2.08590
    A4        2.10236  -0.00000   0.00000  -0.00000  -0.00000   2.10236
    A5        2.08071   0.00000   0.00000   0.00000   0.00000   2.08071
    A6        2.08590  -0.00000   0.00000   0.00000   0.00000   2.08590
    A7        2.04858   0.00000   0.00000   0.00000   0.00000   2.04858
    A8        2.07411  -0.00000   0.00000  -0.00000  -0.00000   2.07411
    A9        2.11590  -0.00000   0.00000   0.00000   0.00000   2.11590
   A10        2.09974  -0.00000   0.00000  -0.00000  -0.00000   2.09974
   A11        2.08959  -0.00000   0.00000   0.00000   0.00000   2.08959
   A12        2.08085   0.00000   0.00000  -0.00000  -0.00000   2.08085
   A13        2.09974  -0.00000   0.00000  -0.00000  -0.00000   2.09974
   A14        2.08085   0.00000   0.00000  -0.00000  -0.00000   2.08085
   A15        2.08959  -0.00000   0.00000   0.00000   0.00000   2.08959
   A16        2.04858   0.00000   0.00000   0.00000   0.00000   2.04858
   A17        2.07411  -0.00000   0.00000  -0.00000  -0.00000   2.07411
   A18        2.11590  -0.00000   0.00000   0.00000   0.00000   2.11590
   A19        1.96947  -0.00000   0.00000  -0.00000  -0.00000   1.96947
   A20        1.91861   0.00000   0.00000   0.00000   0.00000   1.91861
   A21        1.91347   0.00000   0.00000   0.00000   0.00000   1.91347
   A22        1.87259   0.00000   0.00000  -0.00000  -0.00000   1.87259
   A23        1.88728  -0.00000   0.00000  -0.00000  -0.00000   1.88728
   A24        1.90083   0.00000   0.00000   0.00000   0.00000   1.90083
   A25        1.96947  -0.00000   0.00000  -0.00000  -0.00000   1.96947
   A26        1.91861   0.00000   0.00000   0.00000   0.00000   1.91861
   A27        1.91347   0.00000   0.00000   0.00000   0.00000   1.91347
   A28        1.87259   0.00000   0.00000  -0.00000  -0.00000   1.87259
   A29        1.88728  -0.00000   0.00000  -0.00000  -0.00000   1.88728
   A30        1.90083   0.00000   0.00000   0.00000   0.00000   1.90083
   A31        1.88970  -0.00000   0.00000  -0.00000  -0.00000   1.88970
   A32        1.88222  -0.00000   0.00000  -0.00000  -0.00000   1.88222
   A33        1.98237   0.00000   0.00000   0.00000   0.00000   1.98237
   A34        1.86589   0.00000   0.00000  -0.00000  -0.00000   1.86589
   A35        1.93851  -0.00000   0.00000  -0.00000  -0.00000   1.93851
   A36        1.90083  -0.00000   0.00000  -0.00000  -0.00000   1.90083
   A37        1.88222  -0.00000   0.00000  -0.00000  -0.00000   1.88222
   A38        1.88970  -0.00000   0.00000  -0.00000  -0.00000   1.88970
   A39        1.98237   0.00000   0.00000   0.00000   0.00000   1.98237
   A40        1.86589   0.00000   0.00000  -0.00000  -0.00000   1.86589
   A41        1.90083  -0.00000   0.00000  -0.00000  -0.00000   1.90083
   A42        1.93851  -0.00000   0.00000  -0.00000  -0.00000   1.93851
   A43        2.08206  -0.00000   0.00000   0.00000   0.00000   2.08206
   A44        2.13698   0.00000   0.00000  -0.00000  -0.00000   2.13698
   A45        2.05468   0.00000   0.00000  -0.00000  -0.00000   2.05468
   A46        2.13809  -0.00000   0.00000  -0.00000  -0.00000   2.13809
   A47        2.06818   0.00000   0.00000  -0.00000  -0.00000   2.06818
   A48        2.06818   0.00000   0.00000  -0.00000  -0.00000   2.06818
   A49        2.09936   0.00000   0.00000  -0.00000  -0.00000   2.09936
   A50        2.09270  -0.00000   0.00000   0.00000   0.00000   2.09270
   A51        2.09088   0.00000   0.00000   0.00000   0.00000   2.09088
   A52        2.08206  -0.00000   0.00000   0.00000   0.00000   2.08206
   A53        2.13698   0.00000   0.00000  -0.00000  -0.00000   2.13698
   A54        2.05468   0.00000   0.00000  -0.00000  -0.00000   2.05468
   A55        2.10375  -0.00000   0.00000  -0.00000  -0.00000   2.10375
   A56        2.08909   0.00000   0.00000   0.00000   0.00000   2.08909
   A57        2.08909   0.00000   0.00000   0.00000   0.00000   2.08909
   A58        2.09936   0.00000   0.00000  -0.00000  -0.00000   2.09936
   A59        2.09270  -0.00000   0.00000   0.00000   0.00000   2.09270
   A60        2.09088   0.00000   0.00000   0.00000   0.00000   2.09088
    D1        0.00000  -0.00000   0.00000   0.00000   0.00000   0.00000
    D2        2.96035  -0.00000   0.00000  -0.00000  -0.00000   2.96035
    D3       -2.96035   0.00000   0.00000   0.00000   0.00000  -2.96035
    D4       -0.00000   0.00000   0.00000   0.00000  -0.00000  -0.00000
    D5        0.27033   0.00000   0.00000   0.00000   0.00000   0.27033
    D6       -2.55905   0.00000   0.00000   0.00000   0.00000  -2.55905
    D7       -3.05304   0.00000   0.00000   0.00000   0.00000  -3.05304
    D8        0.40076   0.00000   0.00000   0.00000   0.00000   0.40076
    D9       -0.27033  -0.00000   0.00000  -0.00000  -0.00000  -0.27033
   D10        2.55905  -0.00000   0.00000  -0.00000  -0.00000   2.55905
   D11        3.05304  -0.00000   0.00000  -0.00000  -0.00000   3.05304
   D12       -0.40076  -0.00000   0.00000  -0.00000  -0.00000  -0.40076
   D13        0.26991   0.00000   0.00000   0.00000   0.00000   0.26991
   D14       -3.04566   0.00000   0.00000   0.00000   0.00000  -3.04566
   D15       -2.55157   0.00000   0.00000   0.00000   0.00000  -2.55157
   D16        0.41605   0.00000   0.00000  -0.00000  -0.00000   0.41605
   D17        2.62006  -0.00000   0.00000  -0.00000  -0.00000   2.62006
   D18        0.53052   0.00000   0.00000  -0.00000  -0.00000   0.53052
   D19       -1.55850  -0.00000   0.00000  -0.00000  -0.00000  -1.55850
   D20       -0.84620  -0.00000   0.00000  -0.00000  -0.00000  -0.84620
   D21       -2.93574  -0.00000   0.00000  -0.00000  -0.00000  -2.93574
   D22        1.25843  -0.00000   0.00000  -0.00000  -0.00000   1.25842
   D23        0.00000  -0.00000   0.00000   0.00000  -0.00000   0.00000
   D24        2.96848  -0.00000   0.00000  -0.00000  -0.00000   2.96848
   D25       -2.96848   0.00000   0.00000   0.00000   0.00000  -2.96848
   D26       -0.00000  -0.00000   0.00000   0.00000   0.00000   0.00000
   D27       -0.26991  -0.00000   0.00000  -0.00000  -0.00000  -0.26991
   D28        2.55157  -0.00000   0.00000  -0.00000  -0.00000   2.55157
   D29        3.04566  -0.00000   0.00000  -0.00000  -0.00000   3.04566
   D30       -0.41605  -0.00000   0.00000   0.00000   0.00000  -0.41605
   D31       -2.62006   0.00000   0.00000   0.00000   0.00000  -2.62006
   D32       -0.53052  -0.00000   0.00000   0.00000   0.00000  -0.53052
   D33        1.55850   0.00000   0.00000   0.00000   0.00000   1.55850
   D34        0.84620   0.00000   0.00000   0.00000   0.00000   0.84620
   D35        2.93574   0.00000   0.00000   0.00000   0.00000   2.93574
   D36       -1.25843   0.00000   0.00000   0.00000   0.00000  -1.25842
   D37        2.81895   0.00000   0.00000   0.00000   0.00000   2.81896
   D38       -1.45112   0.00000   0.00000   0.00000   0.00000  -1.45112
   D39        0.65716   0.00000   0.00000   0.00000   0.00000   0.65716
   D40       -1.31043   0.00000   0.00000   0.00000   0.00000  -1.31043
   D41        0.70267  -0.00000   0.00000   0.00000   0.00000   0.70267
   D42        2.81096  -0.00000   0.00000   0.00000   0.00000   2.81096
   D43        0.71908  -0.00000   0.00000   0.00000   0.00000   0.71908
   D44        2.73218  -0.00000   0.00000   0.00000   0.00000   2.73218
   D45       -1.44272  -0.00000   0.00000   0.00000   0.00000  -1.44272
   D46        1.45112  -0.00000   0.00000  -0.00000  -0.00000   1.45112
   D47       -2.81895  -0.00000   0.00000  -0.00000  -0.00000  -2.81896
   D48       -0.65716  -0.00000   0.00000  -0.00000  -0.00000  -0.65716
   D49       -0.70267   0.00000   0.00000  -0.00000  -0.00000  -0.70267
   D50        1.31043  -0.00000   0.00000  -0.00000  -0.00000   1.31043
   D51       -2.81096   0.00000   0.00000  -0.00000  -0.00000  -2.81096
   D52       -2.73218   0.00000   0.00000  -0.00000  -0.00000  -2.73218
   D53       -0.71908   0.00000   0.00000  -0.00000  -0.00000  -0.71908
   D54        1.44272   0.00000   0.00000  -0.00000  -0.00000   1.44272
   D55       -1.49785   0.00000   0.00000   0.00000   0.00000  -1.49785
   D56        1.49297   0.00000   0.00000   0.00000   0.00000   1.49297
   D57        2.65032   0.00000   0.00000   0.00000   0.00000   2.65032
   D58       -0.64204  -0.00000   0.00000   0.00000   0.00000  -0.64204
   D59        0.59994   0.00000   0.00000   0.00000   0.00000   0.59994
   D60       -2.69242   0.00000   0.00000   0.00000   0.00000  -2.69242
   D61        1.49785  -0.00000   0.00000  -0.00000  -0.00000   1.49785
   D62       -1.49297  -0.00000   0.00000  -0.00000  -0.00000  -1.49297
   D63       -0.59994  -0.00000   0.00000  -0.00000  -0.00000  -0.59994
   D64        2.69242  -0.00000   0.00000  -0.00000  -0.00000   2.69242
   D65       -2.65032  -0.00000   0.00000  -0.00000  -0.00000  -2.65032
   D66        0.64204   0.00000   0.00000  -0.00000  -0.00000   0.64204
   D67       -2.81586   0.00000   0.00000   0.00000   0.00000  -2.81586
   D68        0.18189   0.00000   0.00000  -0.00000  -0.00000   0.18189
   D69        0.18204   0.00000   0.00000   0.00000   0.00000   0.18204
   D70       -3.10339  -0.00000   0.00000  -0.00000  -0.00000  -3.10339
   D71        2.94280  -0.00000   0.00000  -0.00000  -0.00000   2.94280
   D72       -0.17483  -0.00000   0.00000  -0.00000  -0.00000  -0.17483
   D73       -0.05027  -0.00000   0.00000  -0.00000  -0.00000  -0.05027
   D74        3.11529  -0.00000   0.00000  -0.00000  -0.00000   3.11529
   D75        2.81586  -0.00000   0.00000  -0.00000  -0.00000   2.81586
   D76       -0.18204  -0.00000   0.00000  -0.00000  -0.00000  -0.18204
   D77       -0.18189  -0.00000   0.00000   0.00000   0.00000  -0.18189
   D78        3.10339   0.00000   0.00000   0.00000   0.00000   3.10339
   D79       -0.07449  -0.00000   0.00000  -0.00000  -0.00000  -0.07449
   D80        3.12106   0.00000   0.00000   0.00000   0.00000   3.12106
   D81        3.04316  -0.00000   0.00000  -0.00000  -0.00000   3.04316
   D82       -0.04448  -0.00000   0.00000  -0.00000  -0.00000  -0.04448
   D83       -2.94280   0.00000   0.00000   0.00000   0.00000  -2.94280
   D84        0.17483   0.00000   0.00000   0.00000   0.00000   0.17483
   D85        0.05027   0.00000   0.00000   0.00000   0.00000   0.05027
   D86       -3.11529   0.00000   0.00000   0.00000   0.00000  -3.11529
   D87        0.07449   0.00000   0.00000   0.00000   0.00000   0.07449
   D88       -3.04316   0.00000   0.00000   0.00000   0.00000  -3.04316
   D89       -3.12106  -0.00000   0.00000  -0.00000  -0.00000  -3.12106
   D90        0.04448   0.00000   0.00000   0.00000   0.00000   0.04448
         Item               Value     Threshold  Converged?
 Maximum Force            0.000000     0.000002     YES
 RMS     Force            0.000000     0.000001     YES
 Maximum Displacement     0.000008     0.000006     NO 
 RMS     Displacement     0.000002     0.000004     YES
 Predicted change in Energy=-4.367496D-13
 GradGradGradGradGradGradGradGradGradGradGradGradGradGradGradGradGradGrad

 Leave Link  103 at Mon Jul 28 11:50:59 2025, MaxMem=   104857600 cpu:               2.0 elap:               0.1
 (Enter /opt/linux/rocky/8/software/gaussian/16c01_avx2/g16/l202.exe)
                          Input orientation:                          
 ---------------------------------------------------------------------
 Center     Atomic      Atomic             Coordinates (Angstroms)
 Number     Number       Type             X           Y           Z
 ---------------------------------------------------------------------
      1          6           0        0.965867    1.549295    0.696083
      2          6           0        0.965867    1.549295   -0.696083
      3          6           0        1.469349    0.451479   -1.406266
      4          6           0        2.256733   -0.467811   -0.698796
      5          6           0        2.256733   -0.467811    0.698796
      6          6           0        1.469349    0.451479    1.406266
      7          1           0        0.421488    2.326123    1.226572
      8          1           0        0.421488    2.326123   -1.226572
      9          1           0        2.741031   -1.284695   -1.230058
     10          1           0        2.741031   -1.284695    1.230058
     11          6           0        0.835217    0.085791   -2.729675
     12          1           0        1.541993   -0.381277   -3.425663
     13          1           0        0.444128    0.985294   -3.217533
     14          6           0        0.835217    0.085791    2.729675
     15          1           0        1.541993   -0.381277    3.425663
     16          1           0        0.444128    0.985294    3.217533
     17          6           0       -0.359685   -0.927274   -2.485953
     18          1           0       -1.001751   -0.921587   -3.374458
     19          1           0        0.064832   -1.934144   -2.406038
     20          6           0       -0.359685   -0.927274    2.485953
     21          1           0        0.064832   -1.934144    2.406038
     22          1           0       -1.001751   -0.921587    3.374458
     23          6           0       -1.163204   -0.629658    1.228496
     24          6           0       -0.730316   -1.146174   -0.000000
     25          6           0       -2.223552    0.285996    1.213323
     26          6           0       -1.163204   -0.629658   -1.228496
     27          1           0        0.065140   -1.882691    0.000000
     28          6           0       -2.776056    0.704262   -0.000000
     29          1           0       -2.604128    0.690437    2.148482
     30          6           0       -2.223552    0.285996   -1.213323
     31          1           0       -3.610796    1.400039   -0.000000
     32          1           0       -2.604128    0.690437   -2.148482
 ---------------------------------------------------------------------
                    Distance matrix (angstroms):
                    1          2          3          4          5
     1  C    0.000000
     2  C    1.392166   0.000000
     3  C    2.424575   1.401090   0.000000
     4  C    2.771415   2.394799   1.401992   0.000000
     5  C    2.394799   2.771415   2.428241   1.397592   0.000000
     6  C    1.401090   2.424575   2.812532   2.428241   1.401992
     7  H    1.086843   2.143925   3.397667   3.857621   3.384190
     8  H    2.143925   1.086843   2.155131   3.384190   3.857621
     9  H    3.859109   3.386419   2.159288   1.088155   2.149958
    10  H    3.386419   3.859109   3.403186   2.149958   1.088155
    11  C    3.727564   2.508866   1.512370   2.540010   3.752546
    12  H    4.587791   3.392586   2.185572   2.820310   4.186825
    13  H    3.988320   2.635909   2.148656   3.426527   4.553535
    14  C    2.508866   3.727564   4.200221   3.752546   2.540010
    15  H    3.392586   4.587791   4.903703   4.186825   2.820310
    16  H    2.635909   3.988320   4.766083   4.553535   3.426527
    17  C    4.244506   3.330783   2.532202   3.201668   4.147213
    18  H    5.152289   4.141313   3.444622   4.240613   5.235936
    19  H    4.750723   3.983737   2.943367   3.141534   4.073642
    20  C    3.330783   4.244506   4.516159   4.147213   3.201668
    21  H    3.983737   4.750723   4.711425   4.073642   3.141534
    22  H    4.141313   5.152289   5.554004   5.235936   4.240613
    23  C    3.092611   3.603440   3.878293   3.928946   3.464498
    24  C    3.259927   3.259927   3.060817   3.141807   3.141807
    25  C    3.469274   3.926086   4.530690   4.929238   4.572299
    26  C    3.603440   3.092611   2.851454   3.464498   3.928946
    27  H    3.615850   3.615850   3.065573   2.700608   2.700608
    28  C    3.898795   3.898795   4.479391   5.214503   5.214503
    29  H    3.948666   4.644787   5.411704   5.751217   5.202989
    30  C    3.926086   3.469274   3.701639   4.572299   4.929238
    31  H    4.631701   4.631701   5.355858   6.197183   6.197183
    32  H    4.644787   3.948666   4.147432   5.202989   5.751217
                    6          7          8          9         10
     6  C    0.000000
     7  H    2.155131   0.000000
     8  H    3.397667   2.453145   0.000000
     9  H    3.403186   4.945029   4.291654   0.000000
    10  H    2.159288   4.291654   4.945029   2.460116   0.000000
    11  C    4.200221   4.565321   2.729391   2.785535   4.603242
    12  H    4.903703   5.498076   3.663543   2.659800   4.891788
    13  H    4.766083   4.642026   2.400471   3.791921   5.496332
    14  C    1.512370   2.729391   4.565321   4.603242   2.785535
    15  H    2.185572   3.663543   5.498076   4.891788   2.659800
    16  H    2.148656   2.400471   4.642026   5.496332   3.791921
    17  C    4.516159   4.997766   3.575033   3.364440   4.852929
    18  H    5.554004   5.808847   4.145677   4.328823   5.944899
    19  H    4.711425   5.610075   4.434887   2.994454   4.561252
    20  C    2.532202   3.575033   4.997766   4.852929   3.364440
    21  H    2.943367   4.434887   5.610075   4.561252   2.994454
    22  H    3.444622   4.145677   5.808847   5.944899   4.328823
    23  C    2.851454   3.353788   4.156351   4.660108   3.958803
    24  C    3.060817   3.858495   3.858495   3.685441   3.685441
    25  C    3.701639   3.340439   4.136599   5.751892   5.207152
    26  C    3.878293   4.156351   3.353788   3.958803   4.660108
    27  H    3.065573   4.398361   4.398361   3.005168   3.005168
    28  C    4.479391   3.789354   3.789354   5.992265   5.992265
    29  H    4.147432   3.560862   4.818798   6.624680   5.771946
    30  C    4.530690   4.136599   3.340439   5.207152   5.751892
    31  H    5.355858   4.315255   4.315255   7.004751   7.004751
    32  H    5.411704   4.818798   3.560862   5.771946   6.624680
                   11         12         13         14         15
    11  C    0.000000
    12  H    1.096396   0.000000
    13  H    1.095473   1.765260   0.000000
    14  C    5.459350   6.213363   6.027548   0.000000
    15  H    6.213363   6.851327   6.870581   1.096396   0.000000
    16  H    6.027548   6.870581   6.435065   1.095473   1.765260
    17  C    1.585400   2.190331   2.199827   5.445812   6.233915
    18  H    2.192033   2.600998   2.398205   6.453658   7.280399
    19  H    2.185949   2.373402   3.053769   5.572179   6.213062
    20  C    5.445812   6.233915   6.069084   1.585400   2.190331
    21  H    5.572179   6.213062   6.347561   2.185949   2.373402
    22  H    6.453658   7.280399   7.012924   2.192033   2.600998
    23  C    4.491400   5.388969   4.995874   2.599826   3.493899
    24  C    3.379313   4.181342   4.034228   3.379313   4.181342
    25  C    4.994336   6.012053   5.219006   3.419865   4.418035
    26  C    2.599826   3.493899   3.024542   4.491400   5.388969
    27  H    3.452400   4.021257   4.326833   3.452400   4.021257
    28  C    4.568909   5.617750   4.560820   4.568909   5.617750
    29  H    5.999258   7.029223   6.178423   3.540124   4.468790
    30  C    3.419865   4.418035   3.409163   4.994336   6.012053
    31  H    5.380094   6.438904   5.192970   5.380094   6.438904
    32  H    3.540124   4.468790   3.243713   5.999258   7.029223
                   16         17         18         19         20
    16  H    0.000000
    17  C    6.069084   0.000000
    18  H    7.012924   1.096231   0.000000
    19  H    6.347561   1.095623   1.760883   0.000000
    20  C    2.199827   4.971905   5.895481   5.012542   0.000000
    21  H    3.053769   5.012542   5.964646   4.812076   1.095623
    22  H    2.398205   5.895481   6.748916   5.964646   1.096231
    23  C    3.024542   3.812000   4.615027   4.052110   1.521649
    24  C    4.034228   2.522944   3.392799   2.653710   2.522944
    25  C    3.409163   4.316326   4.898856   4.823433   2.562345
    26  C    4.995874   1.521649   2.171737   2.143913   3.812000
    27  H    4.326833   2.696898   3.667280   2.406588   2.696898
    28  C    4.560820   3.831543   4.144697   4.562987   3.831543
    29  H    3.243713   5.397452   5.972361   5.895373   2.787184
    30  C    5.219006   2.562345   2.760717   3.404158   4.316326
    31  H    5.192970   4.708085   4.856339   5.515074   4.708085
    32  H    6.178423   2.787184   2.582489   3.752080   5.397452
                   21         22         23         24         25
    21  H    0.000000
    22  H    1.760883   0.000000
    23  C    2.143913   2.171737   0.000000
    24  C    2.653710   3.392799   1.401208   0.000000
    25  C    3.404158   2.760717   1.401068   2.398545   0.000000
    26  C    4.052110   4.615027   2.456992   1.401208   2.815181
    27  H    2.406588   3.667280   2.141990   1.084069   3.378382
    28  C    4.562987   4.144697   2.426899   2.758472   1.397269
    29  H    3.752080   2.582489   2.159927   3.391207   1.087626
    30  C    4.823433   4.898856   2.815181   2.398545   2.426647
    31  H    5.515074   4.856339   3.408750   3.844524   2.153530
    32  H    5.895373   5.972361   3.901652   3.391207   3.407366
                   26         27         28         29         30
    26  C    0.000000
    27  H    2.141990   0.000000
    28  C    2.426899   3.842489   0.000000
    29  H    3.901652   4.285084   2.155394   0.000000
    30  C    1.401068   3.378382   1.397269   3.407366   0.000000
    31  H    3.408750   4.928369   1.086690   2.476467   2.153530
    32  H    2.159927   4.285084   2.155394   4.296963   1.087626
                   31         32
    31  H    0.000000
    32  H    2.476467   0.000000
 Stoichiometry    C16H16
 Framework group  CS[SG(C2H2),X(C14H14)]
 Deg. of freedom    47
 Full point group                 CS      NOp   2
 RotChk:  IX=0 Diff= 1.27D-06
 Largest Abelian subgroup         CS      NOp   2
 Largest concise Abelian subgroup CS      NOp   2
                         Standard orientation:                         
 ---------------------------------------------------------------------
 Center     Atomic      Atomic             Coordinates (Angstroms)
 Number     Number       Type             X           Y           Z
 ---------------------------------------------------------------------
      1          6           0        0.965868    1.549295    0.696083
      2          6           0        0.965868    1.549295   -0.696083
      3          6           0        1.469349    0.451478   -1.406266
      4          6           0        2.256733   -0.467812   -0.698796
      5          6           0        2.256733   -0.467812    0.698796
      6          6           0        1.469349    0.451478    1.406266
      7          1           0        0.421489    2.326123    1.226572
      8          1           0        0.421489    2.326123   -1.226572
      9          1           0        2.741030   -1.284696   -1.230058
     10          1           0        2.741030   -1.284696    1.230058
     11          6           0        0.835217    0.085791   -2.729675
     12          1           0        1.541993   -0.381278   -3.425663
     13          1           0        0.444129    0.985294   -3.217533
     14          6           0        0.835217    0.085791    2.729675
     15          1           0        1.541993   -0.381278    3.425663
     16          1           0        0.444129    0.985294    3.217533
     17          6           0       -0.359685   -0.927274   -2.485953
     18          1           0       -1.001751   -0.921586   -3.374458
     19          1           0        0.064831   -1.934144   -2.406038
     20          6           0       -0.359685   -0.927274    2.485953
     21          1           0        0.064831   -1.934144    2.406038
     22          1           0       -1.001751   -0.921586    3.374458
     23          6           0       -1.163204   -0.629657    1.228496
     24          6           0       -0.730316   -1.146174   -0.000000
     25          6           0       -2.223552    0.285997    1.213323
     26          6           0       -1.163204   -0.629657   -1.228496
     27          1           0        0.065139   -1.882691    0.000000
     28          6           0       -2.776056    0.704263   -0.000000
     29          1           0       -2.604127    0.690438    2.148482
     30          6           0       -2.223552    0.285997   -1.213323
     31          1           0       -3.610795    1.400040   -0.000000
     32          1           0       -2.604127    0.690438   -2.148482
 ---------------------------------------------------------------------
 Rotational constants (GHZ):           0.7544988           0.7042620           0.4678160
 Leave Link  202 at Mon Jul 28 11:50:59 2025, MaxMem=   104857600 cpu:               0.1 elap:               0.0
 (Enter /opt/linux/rocky/8/software/gaussian/16c01_avx2/g16/l301.exe)
 Standard basis: 6-31G(d,p) (6D, 7F)
 Ernie: Thresh=  0.10000D-02 Tol=  0.10000D-05 Strict=F.
 There are   170 symmetry adapted cartesian basis functions of A'  symmetry.
 There are   150 symmetry adapted cartesian basis functions of A"  symmetry.
 There are   170 symmetry adapted basis functions of A'  symmetry.
 There are   150 symmetry adapted basis functions of A"  symmetry.
   320 basis functions,   560 primitive gaussians,   320 cartesian basis functions
    56 alpha electrons       56 beta electrons
       nuclear repulsion energy      1088.3276434309 Hartrees.
 IExCor=  402 DFT=T Ex+Corr=B3LYP ExCW=0 ScaHFX=  0.200000
 ScaDFX=  0.800000  0.720000  1.000000  0.810000 ScalE2=  1.000000  1.000000
 IRadAn=      5 IRanWt=     -1 IRanGd=            0 ICorTp=0 IEmpDi=  4
 NAtoms=   32 NActive=   32 NUniq=   18 SFac= 3.16D+00 NAtFMM=   60 NAOKFM=F Big=F
 Integral buffers will be    131072 words long.
 Raffenetti 2 integral format.
 Two-electron integral symmetry is turned on.
 Leave Link  301 at Mon Jul 28 11:50:59 2025, MaxMem=   104857600 cpu:               0.7 elap:               0.0
 (Enter /opt/linux/rocky/8/software/gaussian/16c01_avx2/g16/l302.exe)
 NPDir=0 NMtPBC=     1 NCelOv=     1 NCel=       1 NClECP=     1 NCelD=      1
         NCelK=      1 NCelE2=     1 NClLst=     1 CellRange=     0.0.
 One-electron integrals computed using PRISM.
 One-electron integral symmetry used in STVInt
 PrsmSu:  requested number of processors reduced to:  28 ShMem   1 Linda.
 NBasis=   320 RedAO= T EigKep=  4.49D-04  NBF=   170   150
 NBsUse=   320 1.00D-06 EigRej= -1.00D+00 NBFU=   170   150
 Precomputing XC quadrature grid using
 IXCGrd= 4 IRadAn=           5 IRanWt=          -1 IRanGd=           0 AccXCQ= 0.00D+00.
 Generated NRdTot=       0 NPtTot=           0 NUsed=           0 NTot=          32
 NSgBfM=   320   320   320   320   320 MxSgAt=    32 MxSgA2=    32.
 Leave Link  302 at Mon Jul 28 11:50:59 2025, MaxMem=   104857600 cpu:               6.3 elap:               0.2
 (Enter /opt/linux/rocky/8/software/gaussian/16c01_avx2/g16/l303.exe)
 DipDrv:  MaxL=1.
 Leave Link  303 at Mon Jul 28 11:50:59 2025, MaxMem=   104857600 cpu:               0.7 elap:               0.0
 (Enter /opt/linux/rocky/8/software/gaussian/16c01_avx2/g16/l401.exe)
 Initial guess from the checkpoint file:  "metapara_b3lyp631gdp_vtight.chk"
 B after Tr=    -0.000000   -0.000000   -0.000000
         Rot=    1.000000   -0.000000   -0.000000    0.000000 Ang=   0.00 deg.
 Guess basis will be translated and rotated to current coordinates.
 JPrj=2 DoOrth=T DoCkMO=T.
 Initial guess orbital symmetries:
       Occupied  (A") (A') (A") (A') (A') (A") (A") (A') (A') (A')
                 (A") (A") (A') (A') (A") (A') (A') (A') (A") (A')
                 (A") (A') (A') (A") (A') (A") (A") (A') (A') (A")
                 (A') (A') (A') (A") (A") (A') (A') (A") (A') (A")
                 (A') (A') (A") (A") (A') (A') (A") (A') (A') (A")
                 (A") (A') (A') (A') (A") (A")
       Virtual   (A') (A") (A") (A') (A') (A") (A') (A') (A") (A')
                 (A") (A') (A') (A") (A') (A") (A") (A') (A') (A")
                 (A') (A") (A') (A") (A') (A") (A') (A") (A') (A")
                 (A') (A") (A') (A") (A") (A') (A") (A') (A') (A")
                 (A') (A') (A") (A') (A') (A") (A') (A') (A") (A")
                 (A') (A") (A') (A") (A') (A') (A") (A') (A") (A')
                 (A") (A') (A") (A") (A') (A") (A') (A') (A") (A')
                 (A') (A") (A') (A") (A") (A') (A") (A') (A") (A")
                 (A') (A') (A') (A") (A') (A') (A") (A") (A") (A')
                 (A') (A") (A') (A") (A") (A') (A") (A') (A") (A')
                 (A') (A") (A') (A") (A') (A') (A") (A') (A") (A")
                 (A') (A') (A") (A') (A") (A') (A") (A') (A') (A")
                 (A') (A') (A") (A") (A") (A') (A') (A") (A") (A')
                 (A') (A") (A") (A') (A') (A") (A') (A") (A') (A")
                 (A') (A') (A") (A') (A') (A") (A") (A') (A') (A')
                 (A") (A') (A') (A') (A") (A') (A") (A") (A") (A')
                 (A') (A') (A") (A") (A") (A') (A') (A") (A') (A")
                 (A') (A") (A") (A') (A') (A') (A") (A") (A") (A')
                 (A") (A') (A') (A") (A') (A') (A") (A') (A') (A")
                 (A') (A") (A") (A') (A') (A") (A') (A") (A") (A')
                 (A") (A') (A") (A") (A') (A") (A") (A') (A") (A")
                 (A") (A') (A') (A") (A') (A") (A") (A') (A') (A")
                 (A') (A") (A') (A") (A') (A') (A") (A") (A") (A')
                 (A') (A') (A') (A") (A') (A") (A") (A") (A') (A")
                 (A') (A') (A") (A") (A') (A") (A") (A') (A') (A")
                 (A') (A') (A") (A') (A') (A") (A') (A") (A') (A")
                 (A') (A") (A") (A')
 The electronic state of the initial guess is 1-A'.
 Leave Link  401 at Mon Jul 28 11:51:00 2025, MaxMem=   104857600 cpu:               4.4 elap:               0.1
 (Enter /opt/linux/rocky/8/software/gaussian/16c01_avx2/g16/l502.exe)
 Integral symmetry usage will be decided dynamically.
 Closed shell SCF:
 Using DIIS extrapolation, IDIIS=  1040.
 NGot=   104857600 LenX=   104636278 LenY=   104533437
 Requested convergence on RMS density matrix=1.00D-10 within 128 cycles.
 Requested convergence on MAX density matrix=1.00D-08.
 Requested convergence on             energy=1.00D-08.
 No special actions if energy rises.
 Fock matrices will be formed incrementally for  20 cycles.

 Cycle   1  Pass 1  IDiag  1:
 FoFJK:  IHMeth= 1 ICntrl=       0 DoSepK=F KAlg= 0 I1Cent=           0 FoldK=F
 IRaf= 910000000 NMat=       1 IRICut=       1 DoRegI=T DoRafI=F ISym2E= 1 IDoP0=0 IntGTp=1.
 FoFCou: FMM=F IPFlag=           0 FMFlag=      100000 FMFlg1=           0
         NFxFlg=           0 DoJE=F BraDBF=F KetDBF=F FulRan=T
         wScrn=  0.000000 ICntrl=         0 IOpCl=  0 I1Cent=           0 NGrid=           0
         NMat0=    1 NMatS0=      1 NMatT0=    0 NMatD0=    1 NMtDS0=    0 NMtDT0=    0
 Petite list used in FoFCou.
 E= -619.341347022579    
 DIIS: error= 1.95D-07 at cycle   1 NSaved=   1.
 NSaved= 1 IEnMin= 1 EnMin= -619.341347022579     IErMin= 1 ErrMin= 1.95D-07
 ErrMax= 1.95D-07  0.00D+00 EMaxC= 1.00D-01 BMatC= 2.84D-12 BMatP= 2.84D-12
 IDIUse=1 WtCom= 1.00D+00 WtEn= 0.00D+00
 Coeff-Com:  0.100D+01
 Coeff:      0.100D+01
 Gap=     0.209 Goal=   None    Shift=    0.000
 RMSDP=9.69D-09 MaxDP=3.03D-07              OVMax= 6.86D-07

 Cycle   2  Pass 1  IDiag  1:
 RMSU=  9.69D-09    CP:  1.00D+00
 E= -619.341347022585     Delta-E=       -0.000000000006 Rises=F Damp=F
 DIIS: error= 2.80D-08 at cycle   2 NSaved=   2.
 NSaved= 2 IEnMin= 2 EnMin= -619.341347022585     IErMin= 2 ErrMin= 2.80D-08
 ErrMax= 2.80D-08  0.00D+00 EMaxC= 1.00D-01 BMatC= 3.54D-14 BMatP= 2.84D-12
 IDIUse=1 WtCom= 1.00D+00 WtEn= 0.00D+00
 Coeff-Com: -0.870D-01 0.109D+01
 Coeff:     -0.870D-01 0.109D+01
 Gap=     0.209 Goal=   None    Shift=    0.000
 RMSDP=1.51D-09 MaxDP=4.45D-08 DE=-6.14D-12 OVMax= 1.16D-07

 Cycle   3  Pass 1  IDiag  1:
 RMSU=  1.14D-09    CP:  1.00D+00  1.10D+00
 E= -619.341347022583     Delta-E=        0.000000000001 Rises=F Damp=F
 DIIS: error= 8.22D-09 at cycle   3 NSaved=   3.
 NSaved= 3 IEnMin= 2 EnMin= -619.341347022585     IErMin= 3 ErrMin= 8.22D-09
 ErrMax= 8.22D-09  0.00D+00 EMaxC= 1.00D-01 BMatC= 1.92D-14 BMatP= 3.54D-14
 IDIUse=1 WtCom= 1.00D+00 WtEn= 0.00D+00
 Coeff-Com: -0.493D-01 0.563D+00 0.486D+00
 Coeff:     -0.493D-01 0.563D+00 0.486D+00
 Gap=     0.209 Goal=   None    Shift=    0.000
 RMSDP=7.13D-10 MaxDP=2.10D-08 DE= 1.36D-12 OVMax= 6.63D-08

 Cycle   4  Pass 1  IDiag  1:
 RMSU=  5.59D-10    CP:  1.00D+00  1.12D+00  6.32D-01
 E= -619.341347022584     Delta-E=       -0.000000000000 Rises=F Damp=F
 DIIS: error= 3.95D-09 at cycle   4 NSaved=   4.
 NSaved= 4 IEnMin= 2 EnMin= -619.341347022585     IErMin= 4 ErrMin= 3.95D-09
 ErrMax= 3.95D-09  0.00D+00 EMaxC= 1.00D-01 BMatC= 3.47D-15 BMatP= 1.92D-14
 IDIUse=1 WtCom= 1.00D+00 WtEn= 0.00D+00
 Coeff-Com: -0.784D-02 0.686D-01 0.294D+00 0.645D+00
 Coeff:     -0.784D-02 0.686D-01 0.294D+00 0.645D+00
 Gap=     0.209 Goal=   None    Shift=    0.000
 RMSDP=2.85D-10 MaxDP=8.27D-09 DE=-4.55D-13 OVMax= 3.03D-08

 Cycle   5  Pass 1  IDiag  1:
 RMSU=  1.65D-10    CP:  1.00D+00  1.12D+00  7.70D-01  6.97D-01
 E= -619.341347022589     Delta-E=       -0.000000000005 Rises=F Damp=F
 DIIS: error= 1.09D-09 at cycle   5 NSaved=   5.
 NSaved= 5 IEnMin= 5 EnMin= -619.341347022589     IErMin= 5 ErrMin= 1.09D-09
 ErrMax= 1.09D-09  0.00D+00 EMaxC= 1.00D-01 BMatC= 4.76D-16 BMatP= 3.47D-15
 IDIUse=1 WtCom= 1.00D+00 WtEn= 0.00D+00
 Coeff-Com:  0.101D-02-0.239D-01 0.110D+00 0.374D+00 0.539D+00
 Coeff:      0.101D-02-0.239D-01 0.110D+00 0.374D+00 0.539D+00
 Gap=     0.209 Goal=   None    Shift=    0.000
 RMSDP=9.04D-11 MaxDP=2.93D-09 DE=-5.46D-12 OVMax= 6.58D-09

 SCF Done:  E(RB3LYP) =  -619.341347023     A.U. after    5 cycles
            NFock=  5  Conv=0.90D-10     -V/T= 2.0099
 KE= 6.132660327094D+02 PE=-3.610140270681D+03 EE= 1.289205247518D+03
 Leave Link  502 at Mon Jul 28 11:51:02 2025, MaxMem=   104857600 cpu:              95.2 elap:               2.7
 (Enter /opt/linux/rocky/8/software/gaussian/16c01_avx2/g16/l701.exe)
 ... and contract with generalized density number  0.
 Compute integral first derivatives.
 PrsmSu:  requested number of processors reduced to:  29 ShMem   1 Linda.
 Leave Link  701 at Mon Jul 28 11:51:03 2025, MaxMem=   104857600 cpu:               4.3 elap:               0.1
 (Enter /opt/linux/rocky/8/software/gaussian/16c01_avx2/g16/l702.exe)
 L702 exits ... SP integral derivatives will be done elsewhere.
 Leave Link  702 at Mon Jul 28 11:51:03 2025, MaxMem=   104857600 cpu:               0.3 elap:               0.0
 (Enter /opt/linux/rocky/8/software/gaussian/16c01_avx2/g16/l703.exe)
 Integral derivatives from FoFJK, PRISM(SPDF).
 Compute integral first derivatives, UseDBF=F ICtDFT=           0.
 Calling FoFJK, ICntrl=      2127 FMM=F ISym2X=1 I1Cent= 0 IOpClX= 0 NMat=1 NMatS=1 NMatT=0.
 FoFJK:  IHMeth= 1 ICntrl=    2127 DoSepK=F KAlg= 0 I1Cent=           0 FoldK=F
 IRaf=         0 NMat=       1 IRICut=       1 DoRegI=T DoRafI=F ISym2E= 1 IDoP0=0 IntGTp=1.
 FoFCou: FMM=F IPFlag=           0 FMFlag=      100000 FMFlg1=         800
         NFxFlg=           0 DoJE=F BraDBF=F KetDBF=F FulRan=T
         wScrn=  0.000000 ICntrl=      2127 IOpCl=  0 I1Cent=           0 NGrid=           0
         NMat0=    1 NMatS0=      1 NMatT0=    0 NMatD0=    1 NMtDS0=    0 NMtDT0=    0
 Petite list used in FoFCou.
 Leave Link  703 at Mon Jul 28 11:51:04 2025, MaxMem=   104857600 cpu:              32.6 elap:               0.9
 (Enter /opt/linux/rocky/8/software/gaussian/16c01_avx2/g16/l716.exe)
 Dipole        =-7.79617635D-02-9.48721980D-02 9.76996262D-15
 ***** Axes restored to original set *****
 -------------------------------------------------------------------
 Center     Atomic                   Forces (Hartrees/Bohr)
 Number     Number              X              Y              Z
 -------------------------------------------------------------------
      1        6           0.000000756   -0.000000513    0.000000016
      2        6           0.000000756   -0.000000513   -0.000000016
      3        6           0.000000215   -0.000000706   -0.000000013
      4        6          -0.000000214   -0.000001139    0.000000038
      5        6          -0.000000214   -0.000001139   -0.000000038
      6        6           0.000000215   -0.000000706    0.000000013
      7        1           0.000001171   -0.000000212    0.000000011
      8        1           0.000001171   -0.000000212   -0.000000011
      9        1          -0.000000615   -0.000001357   -0.000000006
     10        1          -0.000000615   -0.000001357    0.000000006
     11        6           0.000000085   -0.000000444   -0.000000015
     12        1          -0.000000175   -0.000000781   -0.000000015
     13        1           0.000000500   -0.000000227    0.000000014
     14        6           0.000000085   -0.000000444    0.000000015
     15        1          -0.000000175   -0.000000781    0.000000015
     16        1           0.000000500   -0.000000227   -0.000000014
     17        6          -0.000000465    0.000000153    0.000000031
     18        1          -0.000000426    0.000000505   -0.000000011
     19        1          -0.000000929   -0.000000030   -0.000000004
     20        6          -0.000000465    0.000000153   -0.000000031
     21        1          -0.000000929   -0.000000030    0.000000004
     22        1          -0.000000426    0.000000505    0.000000011
     23        6          -0.000000269    0.000000602    0.000000048
     24        6          -0.000000483    0.000000386    0.000000000
     25        6           0.000000156    0.000001115   -0.000000020
     26        6          -0.000000269    0.000000602   -0.000000048
     27        1          -0.000000919   -0.000000042    0.000000000
     28        6           0.000000378    0.000001371    0.000000000
     29        1           0.000000366    0.000001284    0.000000003
     30        6           0.000000156    0.000001115    0.000000020
     31        1           0.000000712    0.000001784    0.000000000
     32        1           0.000000366    0.000001284   -0.000000003
 -------------------------------------------------------------------
 Cartesian Forces:  Max     0.000001784 RMS     0.000000577
 Leave Link  716 at Mon Jul 28 11:51:04 2025, MaxMem=   104857600 cpu:               0.3 elap:               0.0
 (Enter /opt/linux/rocky/8/software/gaussian/16c01_avx2/g16/l103.exe)

 GradGradGradGradGradGradGradGradGradGradGradGradGradGradGradGradGradGrad
 Berny optimization.
 Using GEDIIS/GDIIS optimizer.
 FormGI is forming the generalized inverse of G from B-inverse, IUseBI=4.
 Internal  Forces:  Max     0.000000072 RMS     0.000000018
 Search for a local minimum.
 Step number   7 out of a maximum of  192
 All quantities printed in internal units (Hartrees-Bohrs-Radians)
 RMS Force = .18239D-07 SwitMx=.10000D-02 MixMth= 2
 Mixed Optimization -- En-DIIS/RFO-DIIS
 Swapping is turned off.
 Update second derivatives using D2CorX and points    1    2    7
 Trust test= 0.00D+00 RLast= 7.92D-06 DXMaxT set to 1.50D-01
 ITU=  0  0  0 -1  0  0  0
     Eigenvalues ---    0.00453   0.00519   0.00994   0.01504   0.01653
     Eigenvalues ---    0.01721   0.01977   0.01986   0.02059   0.02100
     Eigenvalues ---    0.02108   0.02113   0.02116   0.02122   0.02123
     Eigenvalues ---    0.02142   0.02158   0.02172   0.02174   0.02447
     Eigenvalues ---    0.03135   0.04021   0.04919   0.05122   0.05421
     Eigenvalues ---    0.05473   0.06184   0.06387   0.07268   0.07798
     Eigenvalues ---    0.08305   0.08789   0.09044   0.09389   0.09570
     Eigenvalues ---    0.10561   0.12916   0.14217   0.14892   0.15653
     Eigenvalues ---    0.15695   0.15846   0.15942   0.15977   0.15996
     Eigenvalues ---    0.16001   0.16398   0.19983   0.21482   0.21996
     Eigenvalues ---    0.22114   0.22588   0.22955   0.22958   0.23207
     Eigenvalues ---    0.23614   0.24048   0.24749   0.28688   0.29931
     Eigenvalues ---    0.30563   0.31047   0.34074   0.34084   0.34102
     Eigenvalues ---    0.34108   0.34153   0.34171   0.34188   0.34229
     Eigenvalues ---    0.35027   0.35027   0.35087   0.35088   0.35180
     Eigenvalues ---    0.35186   0.35236   0.35748   0.39215   0.40972
     Eigenvalues ---    0.41045   0.41590   0.42898   0.43626   0.44499
     Eigenvalues ---    0.45279   0.45488   0.45803   0.45958   0.46302
 En-DIIS/RFO-DIIS/Sim-DIIS IScMMF=       -3 using points:     7    6    5    4    3    2    1
 RFO step:  Lambda=-4.32210392D-13.
 NNeg= 0 NGDIIS= 7 SimSw=  2.50D-03 Rises=F DC= -1.12D-10 SmlDif=  1.00D-05
 NRisDI= 0 DoIntr=F SqrtH=F CThrHd= 10.0 CDAdj=  3.0
 RMS Error=  0.5810702511D-06 NUsed= 7 OKEnD=F EnDIS=F
 InvSVX:  RCond= 9.03D-15 Info=           0 Equed=N FErr=  2.18D-12 BErr=  5.12D-17
 DIIS inversion failure, remove point   7.
 InvSVX:  RCond= 3.07D-14 Info=           0 Equed=N FErr=  5.61D-13 BErr=  1.93D-16
 DIIS inversion failure, remove point   6.
 InvSVX:  RCond= 4.89D-14 Info=           0 Equed=N FErr=  3.96D-13 BErr=  4.70D-17
 DIIS inversion failure, remove point   5.
 InvSVX:  RCond= 8.95D-14 Info=           0 Equed=N FErr=  2.63D-13 BErr=  6.33D-17
 DIIS inversion failure, remove point   4.
 InvSVX:  RCond= 8.16D-13 Info=           0 Equed=N FErr=  4.73D-14 BErr=  3.50D-17
 DIIS inversion failure, remove point   3.
 InvSVX:  RCond= 2.67D-10 Info=           0 Equed=N FErr=  1.36D-15 BErr=  4.92D-17
 DIIS inversion failure, remove point   2.
 Use linear search instead of GDIIS.
 RFO step:  Lambda= 0.00000000D+00 EMin= 4.52585174D-03
 Skip linear search -- no minimum in search direction.
 Iteration  1 RMS(Cart)=  0.00000165 RMS(Int)=  0.00000000
 Iteration  2 RMS(Cart)=  0.00000000 RMS(Int)=  0.00000000
 ITry= 1 IFail=0 DXMaxC= 8.41D-06 DCOld= 1.00D+10 DXMaxT= 1.50D-01 DXLimC= 3.00D+00 Rises=F
 ClnCor:  largest displacement from symmetrization is 7.35D-09 for atom    10.
 Variable       Old X    -DE/DX   Delta X   Delta X   Delta X     New X
                                 (Linear)    (Quad)   (Total)
    R1        2.63081   0.00000   0.00000   0.00000   0.00000   2.63081
    R2        2.64768  -0.00000   0.00000   0.00000   0.00000   2.64768
    R3        2.05384   0.00000   0.00000  -0.00000  -0.00000   2.05384
    R4        2.64768  -0.00000   0.00000   0.00000   0.00000   2.64768
    R5        2.05384   0.00000   0.00000  -0.00000  -0.00000   2.05384
    R6        2.64938   0.00000   0.00000  -0.00000  -0.00000   2.64938
    R7        2.85796  -0.00000   0.00000  -0.00000  -0.00000   2.85796
    R8        2.64107  -0.00000   0.00000   0.00000   0.00000   2.64107
    R9        2.05631  -0.00000   0.00000  -0.00000  -0.00000   2.05631
   R10        2.64938   0.00000   0.00000  -0.00000  -0.00000   2.64938
   R11        2.05631  -0.00000   0.00000  -0.00000  -0.00000   2.05631
   R12        2.85796  -0.00000   0.00000  -0.00000  -0.00000   2.85796
   R13        2.07189   0.00000   0.00000   0.00000   0.00000   2.07189
   R14        2.07014  -0.00000   0.00000  -0.00000  -0.00000   2.07014
   R15        2.99597  -0.00000   0.00000  -0.00000  -0.00000   2.99597
   R16        2.07189   0.00000   0.00000   0.00000   0.00000   2.07189
   R17        2.07014  -0.00000   0.00000  -0.00000  -0.00000   2.07014
   R18        2.99597  -0.00000   0.00000  -0.00000  -0.00000   2.99597
   R19        2.07158   0.00000   0.00000   0.00000   0.00000   2.07158
   R20        2.07043  -0.00000   0.00000   0.00000   0.00000   2.07043
   R21        2.87550  -0.00000   0.00000  -0.00000  -0.00000   2.87550
   R22        2.07043  -0.00000   0.00000   0.00000   0.00000   2.07043
   R23        2.07158   0.00000   0.00000   0.00000   0.00000   2.07158
   R24        2.87550  -0.00000   0.00000  -0.00000  -0.00000   2.87550
   R25        2.64790   0.00000   0.00000   0.00000   0.00000   2.64790
   R26        2.64763   0.00000   0.00000   0.00000   0.00000   2.64763
   R27        2.64790   0.00000   0.00000   0.00000   0.00000   2.64790
   R28        2.04859  -0.00000   0.00000   0.00000   0.00000   2.04859
   R29        2.64046  -0.00000   0.00000   0.00000   0.00000   2.64046
   R30        2.05532   0.00000   0.00000   0.00000   0.00000   2.05532
   R31        2.64763   0.00000   0.00000   0.00000   0.00000   2.64763
   R32        2.64046  -0.00000   0.00000   0.00000   0.00000   2.64046
   R33        2.05355  -0.00000   0.00000   0.00000   0.00000   2.05355
   R34        2.05532   0.00000   0.00000   0.00000   0.00000   2.05532
    A1        2.10236   0.00000   0.00000   0.00000   0.00000   2.10236
    A2        2.08071   0.00000   0.00000   0.00000   0.00000   2.08071
    A3        2.08590  -0.00000   0.00000  -0.00000  -0.00000   2.08590
    A4        2.10236   0.00000   0.00000   0.00000   0.00000   2.10236
    A5        2.08071   0.00000   0.00000   0.00000   0.00000   2.08071
    A6        2.08590  -0.00000   0.00000  -0.00000  -0.00000   2.08590
    A7        2.04858  -0.00000   0.00000  -0.00000  -0.00000   2.04858
    A8        2.07411  -0.00000   0.00000  -0.00000  -0.00000   2.07411
    A9        2.11590   0.00000   0.00000  -0.00000  -0.00000   2.11590
   A10        2.09974   0.00000   0.00000   0.00000   0.00000   2.09974
   A11        2.08959  -0.00000   0.00000  -0.00000  -0.00000   2.08959
   A12        2.08085   0.00000   0.00000  -0.00000  -0.00000   2.08085
   A13        2.09974   0.00000   0.00000   0.00000   0.00000   2.09974
   A14        2.08085   0.00000   0.00000  -0.00000  -0.00000   2.08085
   A15        2.08959  -0.00000   0.00000  -0.00000  -0.00000   2.08959
   A16        2.04858  -0.00000   0.00000  -0.00000  -0.00000   2.04858
   A17        2.07411  -0.00000   0.00000  -0.00000  -0.00000   2.07411
   A18        2.11590   0.00000   0.00000  -0.00000  -0.00000   2.11590
   A19        1.96947   0.00000   0.00000   0.00000   0.00000   1.96947
   A20        1.91861  -0.00000   0.00000  -0.00000  -0.00000   1.91861
   A21        1.91347  -0.00000   0.00000  -0.00000  -0.00000   1.91347
   A22        1.87259   0.00000   0.00000   0.00000   0.00000   1.87259
   A23        1.88728   0.00000   0.00000   0.00000   0.00000   1.88728
   A24        1.90083  -0.00000   0.00000  -0.00000  -0.00000   1.90083
   A25        1.96947   0.00000   0.00000   0.00000   0.00000   1.96947
   A26        1.91861  -0.00000   0.00000  -0.00000  -0.00000   1.91861
   A27        1.91347  -0.00000   0.00000  -0.00000  -0.00000   1.91347
   A28        1.87259   0.00000   0.00000   0.00000   0.00000   1.87259
   A29        1.88728   0.00000   0.00000   0.00000   0.00000   1.88728
   A30        1.90083  -0.00000   0.00000  -0.00000  -0.00000   1.90083
   A31        1.88970  -0.00000   0.00000   0.00000   0.00000   1.88970
   A32        1.88222   0.00000   0.00000   0.00000   0.00000   1.88222
   A33        1.98237  -0.00000   0.00000  -0.00000  -0.00000   1.98237
   A34        1.86589  -0.00000   0.00000   0.00000   0.00000   1.86589
   A35        1.93851   0.00000   0.00000   0.00000   0.00000   1.93851
   A36        1.90083   0.00000   0.00000   0.00000   0.00000   1.90083
   A37        1.88222   0.00000   0.00000   0.00000   0.00000   1.88222
   A38        1.88970  -0.00000   0.00000   0.00000   0.00000   1.88970
   A39        1.98237  -0.00000   0.00000  -0.00000  -0.00000   1.98237
   A40        1.86589  -0.00000   0.00000   0.00000   0.00000   1.86589
   A41        1.90083   0.00000   0.00000   0.00000   0.00000   1.90083
   A42        1.93851   0.00000   0.00000   0.00000   0.00000   1.93851
   A43        2.08206   0.00000   0.00000  -0.00000  -0.00000   2.08206
   A44        2.13698   0.00000   0.00000   0.00000   0.00000   2.13698
   A45        2.05468  -0.00000   0.00000   0.00000   0.00000   2.05468
   A46        2.13809   0.00000   0.00000   0.00000   0.00000   2.13809
   A47        2.06818  -0.00000   0.00000   0.00000   0.00000   2.06818
   A48        2.06818  -0.00000   0.00000   0.00000   0.00000   2.06818
   A49        2.09936   0.00000   0.00000   0.00000   0.00000   2.09936
   A50        2.09270  -0.00000   0.00000  -0.00000  -0.00000   2.09270
   A51        2.09088   0.00000   0.00000  -0.00000  -0.00000   2.09088
   A52        2.08206   0.00000   0.00000  -0.00000  -0.00000   2.08206
   A53        2.13698   0.00000   0.00000   0.00000   0.00000   2.13698
   A54        2.05468  -0.00000   0.00000   0.00000   0.00000   2.05468
   A55        2.10375   0.00000   0.00000   0.00000   0.00000   2.10375
   A56        2.08909  -0.00000   0.00000   0.00000   0.00000   2.08909
   A57        2.08909  -0.00000   0.00000   0.00000   0.00000   2.08909
   A58        2.09936   0.00000   0.00000   0.00000   0.00000   2.09936
   A59        2.09270  -0.00000   0.00000  -0.00000  -0.00000   2.09270
   A60        2.09088   0.00000   0.00000  -0.00000  -0.00000   2.09088
    D1        0.00000  -0.00000   0.00000  -0.00000  -0.00000   0.00000
    D2        2.96035   0.00000   0.00000   0.00000   0.00000   2.96035
    D3       -2.96035  -0.00000   0.00000  -0.00000  -0.00000  -2.96035
    D4       -0.00000   0.00000   0.00000   0.00000  -0.00000  -0.00000
    D5        0.27033  -0.00000   0.00000  -0.00000  -0.00000   0.27033
    D6       -2.55905  -0.00000   0.00000  -0.00000  -0.00000  -2.55905
    D7       -3.05304  -0.00000   0.00000  -0.00000  -0.00000  -3.05304
    D8        0.40076  -0.00000   0.00000  -0.00000  -0.00000   0.40076
    D9       -0.27033   0.00000   0.00000   0.00000   0.00000  -0.27033
   D10        2.55905   0.00000   0.00000   0.00000   0.00000   2.55905
   D11        3.05304   0.00000   0.00000   0.00000   0.00000   3.05304
   D12       -0.40076   0.00000   0.00000   0.00000   0.00000  -0.40076
   D13        0.26991  -0.00000   0.00000  -0.00000  -0.00000   0.26991
   D14       -3.04566  -0.00000   0.00000  -0.00000  -0.00000  -3.04566
   D15       -2.55157  -0.00000   0.00000  -0.00000  -0.00000  -2.55157
   D16        0.41605  -0.00000   0.00000   0.00000   0.00000   0.41605
   D17        2.62006   0.00000   0.00000   0.00000   0.00000   2.62006
   D18        0.53052  -0.00000   0.00000   0.00000   0.00000   0.53052
   D19       -1.55850   0.00000   0.00000   0.00000   0.00000  -1.55850
   D20       -0.84620   0.00000   0.00000   0.00000   0.00000  -0.84620
   D21       -2.93574  -0.00000   0.00000   0.00000   0.00000  -2.93574
   D22        1.25842   0.00000   0.00000   0.00000   0.00000   1.25843
   D23        0.00000  -0.00000   0.00000  -0.00000  -0.00000   0.00000
   D24        2.96848   0.00000   0.00000   0.00000   0.00000   2.96848
   D25       -2.96848  -0.00000   0.00000  -0.00000  -0.00000  -2.96848
   D26        0.00000  -0.00000   0.00000   0.00000   0.00000   0.00000
   D27       -0.26991   0.00000   0.00000   0.00000   0.00000  -0.26991
   D28        2.55157   0.00000   0.00000   0.00000   0.00000   2.55157
   D29        3.04566   0.00000   0.00000   0.00000   0.00000   3.04566
   D30       -0.41605   0.00000   0.00000  -0.00000  -0.00000  -0.41605
   D31       -2.62006  -0.00000   0.00000  -0.00000  -0.00000  -2.62006
   D32       -0.53052   0.00000   0.00000  -0.00000  -0.00000  -0.53052
   D33        1.55850  -0.00000   0.00000  -0.00000  -0.00000   1.55850
   D34        0.84620  -0.00000   0.00000  -0.00000  -0.00000   0.84620
   D35        2.93574   0.00000   0.00000  -0.00000  -0.00000   2.93574
   D36       -1.25842  -0.00000   0.00000  -0.00000  -0.00000  -1.25843
   D37        2.81896  -0.00000   0.00000  -0.00000  -0.00000   2.81895
   D38       -1.45112  -0.00000   0.00000  -0.00000  -0.00000  -1.45112
   D39        0.65716  -0.00000   0.00000  -0.00000  -0.00000   0.65716
   D40       -1.31043   0.00000   0.00000  -0.00000  -0.00000  -1.31043
   D41        0.70267   0.00000   0.00000  -0.00000  -0.00000   0.70267
   D42        2.81096   0.00000   0.00000  -0.00000  -0.00000   2.81096
   D43        0.71908   0.00000   0.00000  -0.00000  -0.00000   0.71908
   D44        2.73218   0.00000   0.00000  -0.00000  -0.00000   2.73218
   D45       -1.44272   0.00000   0.00000  -0.00000  -0.00000  -1.44272
   D46        1.45112   0.00000   0.00000   0.00000   0.00000   1.45112
   D47       -2.81896   0.00000   0.00000   0.00000   0.00000  -2.81895
   D48       -0.65716   0.00000   0.00000   0.00000   0.00000  -0.65716
   D49       -0.70267  -0.00000   0.00000   0.00000   0.00000  -0.70267
   D50        1.31043  -0.00000   0.00000   0.00000   0.00000   1.31043
   D51       -2.81096  -0.00000   0.00000   0.00000   0.00000  -2.81096
   D52       -2.73218  -0.00000   0.00000   0.00000   0.00000  -2.73218
   D53       -0.71908  -0.00000   0.00000   0.00000   0.00000  -0.71908
   D54        1.44272  -0.00000   0.00000   0.00000   0.00000   1.44272
   D55       -1.49785  -0.00000   0.00000  -0.00000  -0.00000  -1.49785
   D56        1.49297  -0.00000   0.00000  -0.00000  -0.00000   1.49297
   D57        2.65032   0.00000   0.00000  -0.00000  -0.00000   2.65032
   D58       -0.64204   0.00000   0.00000  -0.00000  -0.00000  -0.64204
   D59        0.59994  -0.00000   0.00000  -0.00000  -0.00000   0.59994
   D60       -2.69242  -0.00000   0.00000  -0.00000  -0.00000  -2.69242
   D61        1.49785   0.00000   0.00000   0.00000   0.00000   1.49785
   D62       -1.49297   0.00000   0.00000   0.00000   0.00000  -1.49297
   D63       -0.59994   0.00000   0.00000   0.00000   0.00000  -0.59994
   D64        2.69242   0.00000   0.00000   0.00000   0.00000   2.69242
   D65       -2.65032  -0.00000   0.00000   0.00000   0.00000  -2.65032
   D66        0.64204  -0.00000   0.00000   0.00000   0.00000   0.64204
   D67       -2.81586  -0.00000   0.00000  -0.00000  -0.00000  -2.81586
   D68        0.18189  -0.00000   0.00000  -0.00000  -0.00000   0.18189
   D69        0.18204  -0.00000   0.00000  -0.00000  -0.00000   0.18204
   D70       -3.10339   0.00000   0.00000  -0.00000  -0.00000  -3.10339
   D71        2.94280   0.00000   0.00000   0.00000   0.00000   2.94280
   D72       -0.17483   0.00000   0.00000   0.00000   0.00000  -0.17483
   D73       -0.05027   0.00000   0.00000   0.00000   0.00000  -0.05027
   D74        3.11529   0.00000   0.00000   0.00000   0.00000   3.11529
   D75        2.81586   0.00000   0.00000   0.00000   0.00000   2.81586
   D76       -0.18204   0.00000   0.00000   0.00000   0.00000  -0.18204
   D77       -0.18189   0.00000   0.00000   0.00000   0.00000  -0.18189
   D78        3.10339  -0.00000   0.00000   0.00000   0.00000   3.10339
   D79       -0.07449   0.00000   0.00000   0.00000   0.00000  -0.07449
   D80        3.12106  -0.00000   0.00000  -0.00000  -0.00000   3.12106
   D81        3.04316   0.00000   0.00000   0.00000   0.00000   3.04316
   D82       -0.04448   0.00000   0.00000   0.00000   0.00000  -0.04448
   D83       -2.94280  -0.00000   0.00000  -0.00000  -0.00000  -2.94280
   D84        0.17483  -0.00000   0.00000  -0.00000  -0.00000   0.17483
   D85        0.05027  -0.00000   0.00000  -0.00000  -0.00000   0.05027
   D86       -3.11529  -0.00000   0.00000  -0.00000  -0.00000  -3.11529
   D87        0.07449  -0.00000   0.00000  -0.00000  -0.00000   0.07449
   D88       -3.04316  -0.00000   0.00000  -0.00000  -0.00000  -3.04316
   D89       -3.12106   0.00000   0.00000   0.00000   0.00000  -3.12106
   D90        0.04448  -0.00000   0.00000  -0.00000  -0.00000   0.04448
         Item               Value     Threshold  Converged?
 Maximum Force            0.000000     0.000002     YES
 RMS     Force            0.000000     0.000001     YES
 Maximum Displacement     0.000008     0.000006     NO 
 RMS     Displacement     0.000002     0.000004     YES
 Predicted change in Energy=-5.128938D-13
 Lowest energy point so far.  Saving SCF results.
 GradGradGradGradGradGradGradGradGradGradGradGradGradGradGradGradGradGrad

 Leave Link  103 at Mon Jul 28 11:51:04 2025, MaxMem=   104857600 cpu:               2.0 elap:               0.1
 (Enter /opt/linux/rocky/8/software/gaussian/16c01_avx2/g16/l202.exe)
                          Input orientation:                          
 ---------------------------------------------------------------------
 Center     Atomic      Atomic             Coordinates (Angstroms)
 Number     Number       Type             X           Y           Z
 ---------------------------------------------------------------------
      1          6           0        0.965864    1.549294    0.696083
      2          6           0        0.965864    1.549294   -0.696083
      3          6           0        1.469348    0.451479   -1.406266
      4          6           0        2.256733   -0.467811   -0.698796
      5          6           0        2.256733   -0.467811    0.698796
      6          6           0        1.469348    0.451479    1.406266
      7          1           0        0.421484    2.326121    1.226572
      8          1           0        0.421484    2.326121   -1.226572
      9          1           0        2.741032   -1.284693   -1.230058
     10          1           0        2.741032   -1.284693    1.230058
     11          6           0        0.835218    0.085790   -2.729676
     12          1           0        1.541994   -0.381278   -3.425663
     13          1           0        0.444129    0.985293   -3.217534
     14          6           0        0.835218    0.085790    2.729676
     15          1           0        1.541994   -0.381278    3.425663
     16          1           0        0.444129    0.985293    3.217534
     17          6           0       -0.359685   -0.927274   -2.485953
     18          1           0       -1.001751   -0.921587   -3.374458
     19          1           0        0.064832   -1.934145   -2.406038
     20          6           0       -0.359685   -0.927274    2.485953
     21          1           0        0.064832   -1.934145    2.406038
     22          1           0       -1.001751   -0.921587    3.374458
     23          6           0       -1.163203   -0.629657    1.228496
     24          6           0       -0.730315   -1.146174   -0.000000
     25          6           0       -2.223551    0.285997    1.213323
     26          6           0       -1.163203   -0.629657   -1.228496
     27          1           0        0.065140   -1.882691    0.000000
     28          6           0       -2.776054    0.704264   -0.000000
     29          1           0       -2.604126    0.690438    2.148482
     30          6           0       -2.223551    0.285997   -1.213323
     31          1           0       -3.610793    1.400042   -0.000000
     32          1           0       -2.604126    0.690438   -2.148482
 ---------------------------------------------------------------------
                    Distance matrix (angstroms):
                    1          2          3          4          5
     1  C    0.000000
     2  C    1.392166   0.000000
     3  C    2.424575   1.401090   0.000000
     4  C    2.771415   2.394799   1.401992   0.000000
     5  C    2.394799   2.771415   2.428241   1.397592   0.000000
     6  C    1.401090   2.424575   2.812532   2.428241   1.401992
     7  H    1.086843   2.143925   3.397667   3.857621   3.384190
     8  H    2.143925   1.086843   2.155131   3.384190   3.857621
     9  H    3.859109   3.386419   2.159288   1.088155   2.149958
    10  H    3.386419   3.859109   3.403186   2.149958   1.088155
    11  C    3.727564   2.508866   1.512370   2.540010   3.752546
    12  H    4.587791   3.392586   2.185572   2.820309   4.186825
    13  H    3.988320   2.635910   2.148656   3.426526   4.553535
    14  C    2.508866   3.727564   4.200222   3.752546   2.540010
    15  H    3.392586   4.587791   4.903703   4.186825   2.820309
    16  H    2.635910   3.988320   4.766084   4.553535   3.426526
    17  C    4.244505   3.330781   2.532201   3.201668   4.147213
    18  H    5.152287   4.141311   3.444622   4.240613   5.235937
    19  H    4.750722   3.983736   2.943367   3.141535   4.073643
    20  C    3.330781   4.244505   4.516158   4.147213   3.201668
    21  H    3.983736   4.750722   4.711425   4.073643   3.141535
    22  H    4.141311   5.152287   5.554004   5.235937   4.240613
    23  C    3.092607   3.603437   3.878292   3.928946   3.464498
    24  C    3.259923   3.259923   3.060816   3.141807   3.141807
    25  C    3.469269   3.926082   4.530688   4.929237   4.572299
    26  C    3.603437   3.092607   2.851453   3.464498   3.928946
    27  H    3.615848   3.615848   3.065572   2.700609   2.700609
    28  C    3.898790   3.898790   4.479389   5.214502   5.214502
    29  H    3.948661   4.644783   5.411702   5.751216   5.202988
    30  C    3.926082   3.469269   3.701636   4.572299   4.929237
    31  H    4.631695   4.631695   5.355856   6.197182   6.197182
    32  H    4.644783   3.948661   4.147430   5.202988   5.751216
                    6          7          8          9         10
     6  C    0.000000
     7  H    2.155131   0.000000
     8  H    3.397667   2.453145   0.000000
     9  H    3.403186   4.945029   4.291654   0.000000
    10  H    2.159288   4.291654   4.945029   2.460116   0.000000
    11  C    4.200222   4.565321   2.729391   2.785535   4.603243
    12  H    4.903703   5.498077   3.663544   2.659800   4.891788
    13  H    4.766084   4.642027   2.400471   3.791921   5.496332
    14  C    1.512370   2.729391   4.565321   4.603243   2.785535
    15  H    2.185572   3.663544   5.498077   4.891788   2.659800
    16  H    2.148656   2.400471   4.642027   5.496332   3.791921
    17  C    4.516158   4.997764   3.575031   3.364442   4.852930
    18  H    5.554004   5.808845   4.145675   4.328825   5.944900
    19  H    4.711425   5.610073   4.434885   2.994456   4.561253
    20  C    2.532201   3.575031   4.997764   4.852930   3.364442
    21  H    2.943367   4.434885   5.610073   4.561253   2.994456
    22  H    3.444622   4.145675   5.808845   5.944900   4.328825
    23  C    2.851453   3.353783   4.156347   4.660109   3.958804
    24  C    3.060816   3.858491   3.858491   3.685442   3.685442
    25  C    3.701636   3.340433   4.136594   5.751893   5.207152
    26  C    3.878292   4.156347   3.353783   3.958804   4.660109
    27  H    3.065572   4.398359   4.398359   3.005170   3.005170
    28  C    4.479389   3.789347   3.789347   5.992265   5.992265
    29  H    4.147430   3.560855   4.818793   6.624680   5.771946
    30  C    4.530688   4.136594   3.340433   5.207152   5.751893
    31  H    5.355856   4.315248   4.315248   7.004751   7.004751
    32  H    5.411702   4.818793   3.560855   5.771946   6.624680
                   11         12         13         14         15
    11  C    0.000000
    12  H    1.096396   0.000000
    13  H    1.095473   1.765260   0.000000
    14  C    5.459351   6.213363   6.027549   0.000000
    15  H    6.213363   6.851326   6.870581   1.096396   0.000000
    16  H    6.027549   6.870581   6.435067   1.095473   1.765260
    17  C    1.585400   2.190331   2.199827   5.445812   6.233915
    18  H    2.192033   2.600998   2.398204   6.453658   7.280399
    19  H    2.185949   2.373402   3.053769   5.572180   6.213062
    20  C    5.445812   6.233915   6.069084   1.585400   2.190331
    21  H    5.572180   6.213062   6.347562   2.185949   2.373402
    22  H    6.453658   7.280399   7.012925   2.192033   2.600998
    23  C    4.491400   5.388968   4.995874   2.599825   3.493898
    24  C    3.379313   4.181342   4.034227   3.379313   4.181342
    25  C    4.994336   6.012053   5.219006   3.419864   4.418035
    26  C    2.599825   3.493898   3.024541   4.491400   5.388968
    27  H    3.452400   4.021257   4.326833   3.452400   4.021257
    28  C    4.568908   5.617750   4.560820   4.568908   5.617750
    29  H    5.999258   7.029223   6.178423   3.540123   4.468789
    30  C    3.419864   4.418035   3.409162   4.994336   6.012053
    31  H    5.380093   6.438904   5.192970   5.380093   6.438904
    32  H    3.540123   4.468789   3.243712   5.999258   7.029223
                   16         17         18         19         20
    16  H    0.000000
    17  C    6.069084   0.000000
    18  H    7.012925   1.096231   0.000000
    19  H    6.347562   1.095623   1.760883   0.000000
    20  C    2.199827   4.971905   5.895481   5.012542   0.000000
    21  H    3.053769   5.012542   5.964646   4.812076   1.095623
    22  H    2.398204   5.895481   6.748916   5.964646   1.096231
    23  C    3.024541   3.812000   4.615027   4.052110   1.521649
    24  C    4.034227   2.522944   3.392799   2.653710   2.522944
    25  C    3.409162   4.316326   4.898856   4.823433   2.562345
    26  C    4.995874   1.521649   2.171737   2.143913   3.812000
    27  H    4.326833   2.696898   3.667280   2.406588   2.696898
    28  C    4.560820   3.831543   4.144697   4.562988   3.831543
    29  H    3.243712   5.397452   5.972361   5.895373   2.787184
    30  C    5.219006   2.562345   2.760717   3.404159   4.316326
    31  H    5.192970   4.708085   4.856339   5.515074   4.708085
    32  H    6.178423   2.787184   2.582489   3.752081   5.397452
                   21         22         23         24         25
    21  H    0.000000
    22  H    1.760883   0.000000
    23  C    2.143913   2.171737   0.000000
    24  C    2.653710   3.392799   1.401208   0.000000
    25  C    3.404159   2.760717   1.401068   2.398545   0.000000
    26  C    4.052110   4.615027   2.456992   1.401208   2.815181
    27  H    2.406588   3.667280   2.141990   1.084069   3.378382
    28  C    4.562988   4.144697   2.426899   2.758472   1.397269
    29  H    3.752081   2.582489   2.159927   3.391207   1.087626
    30  C    4.823433   4.898856   2.815181   2.398545   2.426647
    31  H    5.515074   4.856339   3.408750   3.844524   2.153530
    32  H    5.895373   5.972361   3.901652   3.391207   3.407366
                   26         27         28         29         30
    26  C    0.000000
    27  H    2.141990   0.000000
    28  C    2.426899   3.842489   0.000000
    29  H    3.901652   4.285084   2.155394   0.000000
    30  C    1.401068   3.378382   1.397269   3.407366   0.000000
    31  H    3.408750   4.928369   1.086690   2.476467   2.153530
    32  H    2.159927   4.285084   2.155394   4.296963   1.087626
                   31         32
    31  H    0.000000
    32  H    2.476467   0.000000
 Stoichiometry    C16H16
 Framework group  CS[SG(C2H2),X(C14H14)]
 Deg. of freedom    47
 Full point group                 CS      NOp   2
 RotChk:  IX=0 Diff= 1.32D-06
 Largest Abelian subgroup         CS      NOp   2
 Largest concise Abelian subgroup CS      NOp   2
                         Standard orientation:                         
 ---------------------------------------------------------------------
 Center     Atomic      Atomic             Coordinates (Angstroms)
 Number     Number       Type             X           Y           Z
 ---------------------------------------------------------------------
      1          6           0        0.965863    1.549294    0.696083
      2          6           0        0.965863    1.549294   -0.696083
      3          6           0        1.469348    0.451480   -1.406266
      4          6           0        2.256734   -0.467809   -0.698796
      5          6           0        2.256734   -0.467809    0.698796
      6          6           0        1.469348    0.451480    1.406266
      7          1           0        0.421483    2.326121    1.226572
      8          1           0        0.421483    2.326121   -1.226572
      9          1           0        2.741033   -1.284691   -1.230058
     10          1           0        2.741033   -1.284691    1.230058
     11          6           0        0.835218    0.085791   -2.729676
     12          1           0        1.541994   -0.381278   -3.425663
     13          1           0        0.444128    0.985293   -3.217534
     14          6           0        0.835218    0.085791    2.729676
     15          1           0        1.541994   -0.381278    3.425663
     16          1           0        0.444128    0.985293    3.217534
     17          6           0       -0.359684   -0.927275   -2.485953
     18          1           0       -1.001750   -0.921588   -3.374458
     19          1           0        0.064833   -1.934145   -2.406038
     20          6           0       -0.359684   -0.927275    2.485953
     21          1           0        0.064833   -1.934145    2.406038
     22          1           0       -1.001750   -0.921588    3.374458
     23          6           0       -1.163203   -0.629658    1.228496
     24          6           0       -0.730315   -1.146174   -0.000000
     25          6           0       -2.223551    0.285996    1.213323
     26          6           0       -1.163203   -0.629658   -1.228496
     27          1           0        0.065141   -1.882691    0.000000
     28          6           0       -2.776055    0.704262   -0.000000
     29          1           0       -2.604126    0.690437    2.148482
     30          6           0       -2.223551    0.285996   -1.213323
     31          1           0       -3.610794    1.400040   -0.000000
     32          1           0       -2.604126    0.690437   -2.148482
 ---------------------------------------------------------------------
 Rotational constants (GHZ):           0.7544995           0.7042620           0.4678162
 Leave Link  202 at Mon Jul 28 11:51:04 2025, MaxMem=   104857600 cpu:               0.1 elap:               0.0
 (Enter /opt/linux/rocky/8/software/gaussian/16c01_avx2/g16/l301.exe)
 Standard basis: 6-31G(d,p) (6D, 7F)
 Ernie: Thresh=  0.10000D-02 Tol=  0.10000D-05 Strict=F.
 There are   170 symmetry adapted cartesian basis functions of A'  symmetry.
 There are   150 symmetry adapted cartesian basis functions of A"  symmetry.
 There are   170 symmetry adapted basis functions of A'  symmetry.
 There are   150 symmetry adapted basis functions of A"  symmetry.
   320 basis functions,   560 primitive gaussians,   320 cartesian basis functions
    56 alpha electrons       56 beta electrons
       nuclear repulsion energy      1088.3278009377 Hartrees.
 IExCor=  402 DFT=T Ex+Corr=B3LYP ExCW=0 ScaHFX=  0.200000
 ScaDFX=  0.800000  0.720000  1.000000  0.810000 ScalE2=  1.000000  1.000000
 IRadAn=      5 IRanWt=     -1 IRanGd=            0 ICorTp=0 IEmpDi=  4
 NAtoms=   32 NActive=   32 NUniq=   18 SFac= 3.16D+00 NAtFMM=   60 NAOKFM=F Big=F
 Integral buffers will be    131072 words long.
 Raffenetti 2 integral format.
 Two-electron integral symmetry is turned on.
 Leave Link  301 at Mon Jul 28 11:51:04 2025, MaxMem=   104857600 cpu:               1.0 elap:               0.0
 (Enter /opt/linux/rocky/8/software/gaussian/16c01_avx2/g16/l302.exe)
 NPDir=0 NMtPBC=     1 NCelOv=     1 NCel=       1 NClECP=     1 NCelD=      1
         NCelK=      1 NCelE2=     1 NClLst=     1 CellRange=     0.0.
 One-electron integrals computed using PRISM.
 One-electron integral symmetry used in STVInt
 PrsmSu:  requested number of processors reduced to:  28 ShMem   1 Linda.
 NBasis=   320 RedAO= T EigKep=  4.49D-04  NBF=   170   150
 NBsUse=   320 1.00D-06 EigRej= -1.00D+00 NBFU=   170   150
 Precomputing XC quadrature grid using
 IXCGrd= 4 IRadAn=           5 IRanWt=          -1 IRanGd=           0 AccXCQ= 0.00D+00.
 Generated NRdTot=       0 NPtTot=           0 NUsed=           0 NTot=          32
 NSgBfM=   320   320   320   320   320 MxSgAt=    32 MxSgA2=    32.
 Leave Link  302 at Mon Jul 28 11:51:05 2025, MaxMem=   104857600 cpu:               6.2 elap:               0.2
 (Enter /opt/linux/rocky/8/software/gaussian/16c01_avx2/g16/l303.exe)
 DipDrv:  MaxL=1.
 Leave Link  303 at Mon Jul 28 11:51:05 2025, MaxMem=   104857600 cpu:               0.6 elap:               0.0
 (Enter /opt/linux/rocky/8/software/gaussian/16c01_avx2/g16/l401.exe)
 Initial guess from the checkpoint file:  "metapara_b3lyp631gdp_vtight.chk"
 B after Tr=     0.000000    0.000000    0.000000
         Rot=    1.000000    0.000000   -0.000000   -0.000000 Ang=  -0.00 deg.
 Guess basis will be translated and rotated to current coordinates.
 JPrj=2 DoOrth=T DoCkMO=T.
 Initial guess orbital symmetries:
       Occupied  (A") (A') (A") (A') (A') (A") (A") (A') (A') (A')
                 (A") (A") (A') (A') (A") (A') (A') (A') (A") (A')
                 (A") (A') (A') (A") (A') (A") (A") (A') (A') (A")
                 (A') (A') (A') (A") (A") (A') (A') (A") (A') (A")
                 (A') (A') (A") (A") (A') (A') (A") (A') (A') (A")
                 (A") (A') (A') (A') (A") (A")
       Virtual   (A') (A") (A") (A') (A') (A") (A') (A') (A") (A')
                 (A") (A') (A') (A") (A') (A") (A") (A') (A') (A")
                 (A') (A") (A') (A") (A') (A") (A') (A") (A') (A")
                 (A') (A") (A') (A") (A") (A') (A") (A') (A') (A")
                 (A') (A') (A") (A') (A') (A") (A') (A') (A") (A")
                 (A') (A") (A') (A") (A') (A') (A") (A') (A") (A')
                 (A") (A') (A") (A") (A') (A") (A') (A') (A") (A')
                 (A') (A") (A') (A") (A") (A') (A") (A') (A") (A")
                 (A') (A') (A') (A") (A') (A') (A") (A") (A") (A')
                 (A') (A") (A') (A") (A") (A') (A") (A') (A") (A')
                 (A') (A") (A') (A") (A') (A') (A") (A') (A") (A")
                 (A') (A') (A") (A') (A") (A') (A") (A') (A') (A")
                 (A') (A') (A") (A") (A") (A') (A') (A") (A") (A')
                 (A') (A") (A") (A') (A') (A") (A') (A") (A') (A")
                 (A') (A') (A") (A') (A') (A") (A") (A') (A') (A')
                 (A") (A') (A') (A') (A") (A') (A") (A") (A") (A')
                 (A') (A') (A") (A") (A") (A') (A') (A") (A') (A")
                 (A') (A") (A") (A') (A') (A') (A") (A") (A") (A')
                 (A") (A') (A') (A") (A') (A') (A") (A') (A') (A")
                 (A') (A") (A") (A') (A') (A") (A') (A") (A") (A')
                 (A") (A') (A") (A") (A') (A") (A") (A') (A") (A")
                 (A") (A') (A') (A") (A') (A") (A") (A') (A') (A")
                 (A') (A") (A') (A") (A') (A') (A") (A") (A") (A')
                 (A') (A') (A') (A") (A') (A") (A") (A") (A') (A")
                 (A') (A') (A") (A") (A') (A") (A") (A') (A') (A")
                 (A') (A') (A") (A') (A') (A") (A') (A") (A') (A")
                 (A') (A") (A") (A')
 The electronic state of the initial guess is 1-A'.
 Leave Link  401 at Mon Jul 28 11:51:05 2025, MaxMem=   104857600 cpu:               4.7 elap:               0.1
 (Enter /opt/linux/rocky/8/software/gaussian/16c01_avx2/g16/l502.exe)
 Integral symmetry usage will be decided dynamically.
 Closed shell SCF:
 Using DIIS extrapolation, IDIIS=  1040.
 NGot=   104857600 LenX=   104636278 LenY=   104533437
 Requested convergence on RMS density matrix=1.00D-10 within 128 cycles.
 Requested convergence on MAX density matrix=1.00D-08.
 Requested convergence on             energy=1.00D-08.
 No special actions if energy rises.
 Fock matrices will be formed incrementally for  20 cycles.

 Cycle   1  Pass 1  IDiag  1:
 FoFJK:  IHMeth= 1 ICntrl=       0 DoSepK=F KAlg= 0 I1Cent=           0 FoldK=F
 IRaf= 910000000 NMat=       1 IRICut=       1 DoRegI=T DoRafI=F ISym2E= 1 IDoP0=0 IntGTp=1.
 FoFCou: FMM=F IPFlag=           0 FMFlag=      100000 FMFlg1=           0
         NFxFlg=           0 DoJE=F BraDBF=F KetDBF=F FulRan=T
         wScrn=  0.000000 ICntrl=         0 IOpCl=  0 I1Cent=           0 NGrid=           0
         NMat0=    1 NMatS0=      1 NMatT0=    0 NMatD0=    1 NMtDS0=    0 NMtDT0=    0
 Petite list used in FoFCou.
 E= -619.341347022475    
 DIIS: error= 1.97D-07 at cycle   1 NSaved=   1.
 NSaved= 1 IEnMin= 1 EnMin= -619.341347022475     IErMin= 1 ErrMin= 1.97D-07
 ErrMax= 1.97D-07  0.00D+00 EMaxC= 1.00D-01 BMatC= 2.89D-12 BMatP= 2.89D-12
 IDIUse=1 WtCom= 1.00D+00 WtEn= 0.00D+00
 Coeff-Com:  0.100D+01
 Coeff:      0.100D+01
 Gap=     0.209 Goal=   None    Shift=    0.000
 RMSDP=9.83D-09 MaxDP=3.12D-07              OVMax= 6.92D-07

 Cycle   2  Pass 1  IDiag  1:
 RMSU=  9.83D-09    CP:  1.00D+00
 E= -619.341347022468     Delta-E=        0.000000000007 Rises=F Damp=F
 DIIS: error= 2.84D-08 at cycle   2 NSaved=   2.
 NSaved= 2 IEnMin= 1 EnMin= -619.341347022475     IErMin= 2 ErrMin= 2.84D-08
 ErrMax= 2.84D-08  0.00D+00 EMaxC= 1.00D-01 BMatC= 3.61D-14 BMatP= 2.89D-12
 IDIUse=1 WtCom= 1.00D+00 WtEn= 0.00D+00
 Coeff-Com: -0.868D-01 0.109D+01
 Coeff:     -0.868D-01 0.109D+01
 Gap=     0.209 Goal=   None    Shift=    0.000
 RMSDP=1.52D-09 MaxDP=4.30D-08 DE= 6.59D-12 OVMax= 1.16D-07

 Cycle   3  Pass 1  IDiag  1:
 RMSU=  1.16D-09    CP:  1.00D+00  1.10D+00
 E= -619.341347022467     Delta-E=        0.000000000002 Rises=F Damp=F
 DIIS: error= 7.96D-09 at cycle   3 NSaved=   3.
 NSaved= 3 IEnMin= 1 EnMin= -619.341347022475     IErMin= 3 ErrMin= 7.96D-09
 ErrMax= 7.96D-09  0.00D+00 EMaxC= 1.00D-01 BMatC= 1.93D-14 BMatP= 3.61D-14
 IDIUse=1 WtCom= 1.00D+00 WtEn= 0.00D+00
 Coeff-Com: -0.490D-01 0.560D+00 0.489D+00
 Coeff:     -0.490D-01 0.560D+00 0.489D+00
 Gap=     0.209 Goal=   None    Shift=    0.000
 RMSDP=7.15D-10 MaxDP=1.98D-08 DE= 1.82D-12 OVMax= 6.11D-08

 Cycle   4  Pass 1  IDiag  1:
 RMSU=  5.63D-10    CP:  1.00D+00  1.11D+00  6.38D-01
 E= -619.341347022466     Delta-E=        0.000000000001 Rises=F Damp=F
 DIIS: error= 3.86D-09 at cycle   4 NSaved=   4.
 NSaved= 4 IEnMin= 1 EnMin= -619.341347022475     IErMin= 4 ErrMin= 3.86D-09
 ErrMax= 3.86D-09  0.00D+00 EMaxC= 1.00D-01 BMatC= 3.58D-15 BMatP= 1.93D-14
 IDIUse=1 WtCom= 1.00D+00 WtEn= 0.00D+00
 Coeff-Com: -0.825D-02 0.733D-01 0.296D+00 0.639D+00
 Coeff:     -0.825D-02 0.733D-01 0.296D+00 0.639D+00
 Gap=     0.209 Goal=   None    Shift=    0.000
 RMSDP=2.90D-10 MaxDP=8.03D-09 DE= 9.09D-13 OVMax= 3.03D-08

 Cycle   5  Pass 1  IDiag  1:
 RMSU=  1.69D-10    CP:  1.00D+00  1.12D+00  7.75D-01  6.91D-01
 E= -619.341347022472     Delta-E=       -0.000000000006 Rises=F Damp=F
 DIIS: error= 1.13D-09 at cycle   5 NSaved=   5.
 NSaved= 5 IEnMin= 1 EnMin= -619.341347022475     IErMin= 5 ErrMin= 1.13D-09
 ErrMax= 1.13D-09  0.00D+00 EMaxC= 1.00D-01 BMatC= 5.12D-16 BMatP= 3.58D-15
 IDIUse=1 WtCom= 1.00D+00 WtEn= 0.00D+00
 Coeff-Com:  0.104D-02-0.243D-01 0.110D+00 0.374D+00 0.539D+00
 Coeff:      0.104D-02-0.243D-01 0.110D+00 0.374D+00 0.539D+00
 Gap=     0.209 Goal=   None    Shift=    0.000
 RMSDP=9.27D-11 MaxDP=3.01D-09 DE=-6.14D-12 OVMax= 6.93D-09

 SCF Done:  E(RB3LYP) =  -619.341347022     A.U. after    5 cycles
            NFock=  5  Conv=0.93D-10     -V/T= 2.0099
 KE= 6.132660338187D+02 PE=-3.610140587572D+03 EE= 1.289205405793D+03
 Leave Link  502 at Mon Jul 28 11:51:08 2025, MaxMem=   104857600 cpu:              96.3 elap:               2.7
 (Enter /opt/linux/rocky/8/software/gaussian/16c01_avx2/g16/l701.exe)
 ... and contract with generalized density number  0.
 Compute integral first derivatives.
 PrsmSu:  requested number of processors reduced to:  29 ShMem   1 Linda.
 Leave Link  701 at Mon Jul 28 11:51:08 2025, MaxMem=   104857600 cpu:               4.9 elap:               0.2
 (Enter /opt/linux/rocky/8/software/gaussian/16c01_avx2/g16/l702.exe)
 L702 exits ... SP integral derivatives will be done elsewhere.
 Leave Link  702 at Mon Jul 28 11:51:08 2025, MaxMem=   104857600 cpu:               0.3 elap:               0.0
 (Enter /opt/linux/rocky/8/software/gaussian/16c01_avx2/g16/l703.exe)
 Integral derivatives from FoFJK, PRISM(SPDF).
 Compute integral first derivatives, UseDBF=F ICtDFT=           0.
 Calling FoFJK, ICntrl=      2127 FMM=F ISym2X=1 I1Cent= 0 IOpClX= 0 NMat=1 NMatS=1 NMatT=0.
 FoFJK:  IHMeth= 1 ICntrl=    2127 DoSepK=F KAlg= 0 I1Cent=           0 FoldK=F
 IRaf=         0 NMat=       1 IRICut=       1 DoRegI=T DoRafI=F ISym2E= 1 IDoP0=0 IntGTp=1.
 FoFCou: FMM=F IPFlag=           0 FMFlag=      100000 FMFlg1=         800
         NFxFlg=           0 DoJE=F BraDBF=F KetDBF=F FulRan=T
         wScrn=  0.000000 ICntrl=      2127 IOpCl=  0 I1Cent=           0 NGrid=           0
         NMat0=    1 NMatS0=      1 NMatT0=    0 NMatD0=    1 NMtDS0=    0 NMtDT0=    0
 Petite list used in FoFCou.
 Leave Link  703 at Mon Jul 28 11:51:09 2025, MaxMem=   104857600 cpu:              33.3 elap:               0.9
 (Enter /opt/linux/rocky/8/software/gaussian/16c01_avx2/g16/l716.exe)
 Dipole        =-7.79621199D-02-9.48729660D-02 5.32907052D-15
 ***** Axes restored to original set *****
 -------------------------------------------------------------------
 Center     Atomic                   Forces (Hartrees/Bohr)
 Number     Number              X              Y              Z
 -------------------------------------------------------------------
      1        6           0.000000818   -0.000000467   -0.000000021
      2        6           0.000000818   -0.000000467    0.000000021
      3        6           0.000000270   -0.000000736    0.000000028
      4        6          -0.000000192   -0.000001129    0.000000038
      5        6          -0.000000192   -0.000001129   -0.000000038
      6        6           0.000000270   -0.000000736   -0.000000028
      7        1           0.000001173   -0.000000210    0.000000003
      8        1           0.000001173   -0.000000210   -0.000000003
      9        1          -0.000000622   -0.000001362   -0.000000006
     10        1          -0.000000622   -0.000001362    0.000000006
     11        6           0.000000074   -0.000000367   -0.000000010
     12        1          -0.000000169   -0.000000765    0.000000015
     13        1           0.000000505   -0.000000219   -0.000000014
     14        6           0.000000074   -0.000000367    0.000000010
     15        1          -0.000000169   -0.000000765   -0.000000015
     16        1           0.000000505   -0.000000219    0.000000014
     17        6          -0.000000480    0.000000146    0.000000025
     18        1          -0.000000436    0.000000493    0.000000000
     19        1          -0.000000943   -0.000000026    0.000000001
     20        6          -0.000000480    0.000000146   -0.000000025
     21        1          -0.000000943   -0.000000026   -0.000000001
     22        1          -0.000000436    0.000000493   -0.000000000
     23        6          -0.000000308    0.000000558    0.000000027
     24        6          -0.000000591    0.000000306    0.000000000
     25        6           0.000000150    0.000001098   -0.000000020
     26        6          -0.000000308    0.000000558   -0.000000027
     27        1          -0.000000912   -0.000000038   -0.000000000
     28        6           0.000000381    0.000001359    0.000000000
     29        1           0.000000363    0.000001282    0.000000004
     30        6           0.000000150    0.000001098    0.000000020
     31        1           0.000000717    0.000001785    0.000000000
     32        1           0.000000363    0.000001282   -0.000000004
 -------------------------------------------------------------------
 Cartesian Forces:  Max     0.000001785 RMS     0.000000577
 Leave Link  716 at Mon Jul 28 11:51:09 2025, MaxMem=   104857600 cpu:               0.3 elap:               0.0
 (Enter /opt/linux/rocky/8/software/gaussian/16c01_avx2/g16/l103.exe)

 GradGradGradGradGradGradGradGradGradGradGradGradGradGradGradGradGradGrad
 Berny optimization.
 Using GEDIIS/GDIIS optimizer.
 FormGI is forming the generalized inverse of G from B-inverse, IUseBI=4.
 Internal  Forces:  Max     0.000000107 RMS     0.000000020
 Search for a local minimum.
 Step number   8 out of a maximum of  192
 All quantities printed in internal units (Hartrees-Bohrs-Radians)
 RMS Force = .19524D-07 SwitMx=.10000D-02 MixMth= 2
 Mixed Optimization -- En-DIIS/RFO-DIIS
 Swapping is turned off.
 Update second derivatives using D2CorX and points    1    2    8
 Trust test= 0.00D+00 RLast= 7.89D-06 DXMaxT set to 1.50D-01
 ITU=  0  0  0  0 -1  0  0  0
     Eigenvalues ---    0.00453   0.00522   0.01000   0.01504   0.01653
     Eigenvalues ---    0.01719   0.01953   0.01986   0.02079   0.02100
     Eigenvalues ---    0.02102   0.02107   0.02116   0.02122   0.02123
     Eigenvalues ---    0.02137   0.02160   0.02173   0.02177   0.02447
     Eigenvalues ---    0.03135   0.04021   0.04721   0.05086   0.05421
     Eigenvalues ---    0.05515   0.06184   0.06384   0.07429   0.07901
     Eigenvalues ---    0.08305   0.08789   0.09077   0.09389   0.09628
     Eigenvalues ---    0.10561   0.12853   0.14179   0.15126   0.15653
     Eigenvalues ---    0.15695   0.15846   0.15926   0.15977   0.15985
     Eigenvalues ---    0.15996   0.16398   0.19983   0.21996   0.22105
     Eigenvalues ---    0.22518   0.22588   0.22917   0.22958   0.23614
     Eigenvalues ---    0.23677   0.24225   0.24749   0.28520   0.29931
     Eigenvalues ---    0.30791   0.31047   0.34068   0.34084   0.34102
     Eigenvalues ---    0.34110   0.34140   0.34171   0.34188   0.34245
     Eigenvalues ---    0.35026   0.35027   0.35087   0.35088   0.35172
     Eigenvalues ---    0.35180   0.35228   0.35754   0.38832   0.40957
     Eigenvalues ---    0.41045   0.41590   0.42669   0.43626   0.44502
     Eigenvalues ---    0.45279   0.45493   0.45790   0.45958   0.46447
 En-DIIS/RFO-DIIS/Sim-DIIS IScMMF=       -3 using points:     8    7    6    5    4    3    2    1
 RFO step:  Lambda=-4.09156938D-13.
 NNeg= 0 NGDIIS= 8 SimSw=  2.50D-03 Rises=F DC=  1.18D-10 SmlDif=  1.00D-05
 NRisDI= 0 DoIntr=F SqrtH=F CThrHd= 10.0 CDAdj=  3.0
 RMS Error=  0.5160567016D-06 NUsed= 8 OKEnD=F EnDIS=F
 InvSVX:  RCond= 4.90D-16 Info=           0 Equed=N FErr=  3.85D-11 BErr=  7.55D-17
 DIIS inversion failure, remove point   8.
 InvSVX:  RCond= 4.20D-15 Info=           0 Equed=N FErr=  4.41D-12 BErr=  8.48D-17
 DIIS inversion failure, remove point   7.
 InvSVX:  RCond= 1.31D-14 Info=           0 Equed=N FErr=  1.20D-12 BErr=  4.12D-17
 DIIS inversion failure, remove point   6.
 InvSVX:  RCond= 1.68D-14 Info=           0 Equed=N FErr=  1.07D-12 BErr=  9.39D-17
 DIIS inversion failure, remove point   5.
 InvSVX:  RCond= 6.58D-13 Info=           0 Equed=N FErr=  8.62D-13 BErr=  8.83D-17
 DIIS inversion failure, remove point   4.
 InvSVX:  RCond= 1.39D-13 Info=           0 Equed=N FErr=  2.99D-13 BErr=  8.09D-17
 DIIS inversion failure, remove point   3.
 InvSVX:  RCond= 2.54D-10 Info=           0 Equed=N FErr=  1.36D-15 BErr=  8.96D-17
 DIIS inversion failure, remove point   2.
 Use linear search instead of GDIIS.
 RFO step:  Lambda= 0.00000000D+00 EMin= 4.52585158D-03
 Skip linear search -- no minimum in search direction.
 Iteration  1 RMS(Cart)=  0.00000146 RMS(Int)=  0.00000000
 Iteration  2 RMS(Cart)=  0.00000000 RMS(Int)=  0.00000000
 ITry= 1 IFail=0 DXMaxC= 7.45D-06 DCOld= 1.00D+10 DXMaxT= 1.50D-01 DXLimC= 3.00D+00 Rises=F
 ClnCor:  largest displacement from symmetrization is 1.49D-08 for atom     8.
 Variable       Old X    -DE/DX   Delta X   Delta X   Delta X     New X
                                 (Linear)    (Quad)   (Total)
    R1        2.63081  -0.00000   0.00000  -0.00000  -0.00000   2.63081
    R2        2.64768  -0.00000   0.00000  -0.00000  -0.00000   2.64768
    R3        2.05384   0.00000   0.00000   0.00000   0.00000   2.05384
    R4        2.64768  -0.00000   0.00000  -0.00000  -0.00000   2.64768
    R5        2.05384   0.00000   0.00000   0.00000   0.00000   2.05384
    R6        2.64938   0.00000   0.00000   0.00000   0.00000   2.64938
    R7        2.85796   0.00000   0.00000   0.00000   0.00000   2.85796
    R8        2.64107  -0.00000   0.00000  -0.00000  -0.00000   2.64107
    R9        2.05631   0.00000   0.00000   0.00000   0.00000   2.05631
   R10        2.64938   0.00000   0.00000   0.00000   0.00000   2.64938
   R11        2.05631   0.00000   0.00000   0.00000   0.00000   2.05631
   R12        2.85796   0.00000   0.00000   0.00000   0.00000   2.85796
   R13        2.07189  -0.00000   0.00000  -0.00000  -0.00000   2.07189
   R14        2.07014   0.00000   0.00000   0.00000   0.00000   2.07014
   R15        2.99597   0.00000   0.00000   0.00000   0.00000   2.99597
   R16        2.07189  -0.00000   0.00000  -0.00000  -0.00000   2.07189
   R17        2.07014   0.00000   0.00000   0.00000   0.00000   2.07014
   R18        2.99597   0.00000   0.00000   0.00000   0.00000   2.99597
   R19        2.07158  -0.00000   0.00000  -0.00000  -0.00000   2.07158
   R20        2.07043  -0.00000   0.00000  -0.00000  -0.00000   2.07043
   R21        2.87550  -0.00000   0.00000   0.00000   0.00000   2.87550
   R22        2.07043  -0.00000   0.00000  -0.00000  -0.00000   2.07043
   R23        2.07158  -0.00000   0.00000  -0.00000  -0.00000   2.07158
   R24        2.87550  -0.00000   0.00000   0.00000   0.00000   2.87550
   R25        2.64790   0.00000   0.00000   0.00000   0.00000   2.64790
   R26        2.64763  -0.00000   0.00000  -0.00000  -0.00000   2.64763
   R27        2.64790   0.00000   0.00000   0.00000   0.00000   2.64790
   R28        2.04859   0.00000   0.00000  -0.00000  -0.00000   2.04859
   R29        2.64046  -0.00000   0.00000  -0.00000  -0.00000   2.64046
   R30        2.05532   0.00000   0.00000   0.00000   0.00000   2.05532
   R31        2.64763  -0.00000   0.00000  -0.00000  -0.00000   2.64763
   R32        2.64046  -0.00000   0.00000  -0.00000  -0.00000   2.64046
   R33        2.05355  -0.00000   0.00000  -0.00000  -0.00000   2.05355
   R34        2.05532   0.00000   0.00000   0.00000   0.00000   2.05532
    A1        2.10236  -0.00000   0.00000  -0.00000  -0.00000   2.10236
    A2        2.08071   0.00000   0.00000   0.00000   0.00000   2.08071
    A3        2.08590   0.00000   0.00000   0.00000   0.00000   2.08590
    A4        2.10236  -0.00000   0.00000  -0.00000  -0.00000   2.10236
    A5        2.08071   0.00000   0.00000   0.00000   0.00000   2.08071
    A6        2.08590   0.00000   0.00000   0.00000   0.00000   2.08590
    A7        2.04858   0.00000   0.00000   0.00000   0.00000   2.04858
    A8        2.07411  -0.00000   0.00000   0.00000   0.00000   2.07411
    A9        2.11590  -0.00000   0.00000   0.00000   0.00000   2.11590
   A10        2.09974  -0.00000   0.00000  -0.00000  -0.00000   2.09974
   A11        2.08959   0.00000   0.00000   0.00000   0.00000   2.08959
   A12        2.08085   0.00000   0.00000   0.00000   0.00000   2.08085
   A13        2.09974  -0.00000   0.00000  -0.00000  -0.00000   2.09974
   A14        2.08085   0.00000   0.00000   0.00000   0.00000   2.08085
   A15        2.08959   0.00000   0.00000   0.00000   0.00000   2.08959
   A16        2.04858   0.00000   0.00000   0.00000   0.00000   2.04858
   A17        2.07411  -0.00000   0.00000   0.00000   0.00000   2.07411
   A18        2.11590  -0.00000   0.00000   0.00000   0.00000   2.11590
   A19        1.96947  -0.00000   0.00000  -0.00000  -0.00000   1.96947
   A20        1.91861   0.00000   0.00000   0.00000   0.00000   1.91861
   A21        1.91347   0.00000   0.00000   0.00000   0.00000   1.91347
   A22        1.87259   0.00000   0.00000  -0.00000  -0.00000   1.87259
   A23        1.88728  -0.00000   0.00000  -0.00000  -0.00000   1.88728
   A24        1.90083   0.00000   0.00000   0.00000   0.00000   1.90083
   A25        1.96947  -0.00000   0.00000  -0.00000  -0.00000   1.96947
   A26        1.91861   0.00000   0.00000   0.00000   0.00000   1.91861
   A27        1.91347   0.00000   0.00000   0.00000   0.00000   1.91347
   A28        1.87259   0.00000   0.00000  -0.00000  -0.00000   1.87259
   A29        1.88728  -0.00000   0.00000  -0.00000  -0.00000   1.88728
   A30        1.90083   0.00000   0.00000   0.00000   0.00000   1.90083
   A31        1.88970  -0.00000   0.00000  -0.00000  -0.00000   1.88970
   A32        1.88222  -0.00000   0.00000  -0.00000  -0.00000   1.88222
   A33        1.98237   0.00000   0.00000   0.00000   0.00000   1.98237
   A34        1.86589   0.00000   0.00000  -0.00000  -0.00000   1.86589
   A35        1.93851  -0.00000   0.00000  -0.00000  -0.00000   1.93851
   A36        1.90083  -0.00000   0.00000  -0.00000  -0.00000   1.90083
   A37        1.88222  -0.00000   0.00000  -0.00000  -0.00000   1.88222
   A38        1.88970  -0.00000   0.00000  -0.00000  -0.00000   1.88970
   A39        1.98237   0.00000   0.00000   0.00000   0.00000   1.98237
   A40        1.86589   0.00000   0.00000  -0.00000  -0.00000   1.86589
   A41        1.90083  -0.00000   0.00000  -0.00000  -0.00000   1.90083
   A42        1.93851  -0.00000   0.00000  -0.00000  -0.00000   1.93851
   A43        2.08206  -0.00000   0.00000   0.00000   0.00000   2.08206
   A44        2.13698   0.00000   0.00000  -0.00000  -0.00000   2.13698
   A45        2.05468   0.00000   0.00000  -0.00000  -0.00000   2.05468
   A46        2.13809  -0.00000   0.00000  -0.00000  -0.00000   2.13809
   A47        2.06818   0.00000   0.00000  -0.00000  -0.00000   2.06818
   A48        2.06818   0.00000   0.00000  -0.00000  -0.00000   2.06818
   A49        2.09936   0.00000   0.00000  -0.00000  -0.00000   2.09936
   A50        2.09270  -0.00000   0.00000  -0.00000  -0.00000   2.09270
   A51        2.09088   0.00000   0.00000   0.00000   0.00000   2.09088
   A52        2.08206  -0.00000   0.00000   0.00000   0.00000   2.08206
   A53        2.13698   0.00000   0.00000  -0.00000  -0.00000   2.13698
   A54        2.05468   0.00000   0.00000  -0.00000  -0.00000   2.05468
   A55        2.10375  -0.00000   0.00000  -0.00000  -0.00000   2.10375
   A56        2.08909  -0.00000   0.00000  -0.00000  -0.00000   2.08909
   A57        2.08909  -0.00000   0.00000  -0.00000  -0.00000   2.08909
   A58        2.09936   0.00000   0.00000  -0.00000  -0.00000   2.09936
   A59        2.09270  -0.00000   0.00000  -0.00000  -0.00000   2.09270
   A60        2.09088   0.00000   0.00000   0.00000   0.00000   2.09088
    D1        0.00000   0.00000   0.00000   0.00000   0.00000   0.00000
    D2        2.96035  -0.00000   0.00000  -0.00000  -0.00000   2.96035
    D3       -2.96035   0.00000   0.00000   0.00000   0.00000  -2.96035
    D4       -0.00000   0.00000   0.00000   0.00000   0.00000   0.00000
    D5        0.27033   0.00000   0.00000   0.00000   0.00000   0.27033
    D6       -2.55905   0.00000   0.00000   0.00000   0.00000  -2.55905
    D7       -3.05304   0.00000   0.00000   0.00000   0.00000  -3.05304
    D8        0.40076   0.00000   0.00000   0.00000   0.00000   0.40076
    D9       -0.27033  -0.00000   0.00000  -0.00000  -0.00000  -0.27033
   D10        2.55905  -0.00000   0.00000  -0.00000  -0.00000   2.55905
   D11        3.05304  -0.00000   0.00000  -0.00000  -0.00000   3.05304
   D12       -0.40076  -0.00000   0.00000  -0.00000  -0.00000  -0.40076
   D13        0.26991   0.00000   0.00000   0.00000   0.00000   0.26991
   D14       -3.04566   0.00000   0.00000   0.00000   0.00000  -3.04566
   D15       -2.55157   0.00000   0.00000   0.00000   0.00000  -2.55157
   D16        0.41605   0.00000   0.00000  -0.00000  -0.00000   0.41605
   D17        2.62006  -0.00000   0.00000  -0.00000  -0.00000   2.62006
   D18        0.53052  -0.00000   0.00000  -0.00000  -0.00000   0.53052
   D19       -1.55850  -0.00000   0.00000  -0.00000  -0.00000  -1.55850
   D20       -0.84620  -0.00000   0.00000  -0.00000  -0.00000  -0.84620
   D21       -2.93574  -0.00000   0.00000  -0.00000  -0.00000  -2.93574
   D22        1.25843  -0.00000   0.00000  -0.00000  -0.00000   1.25842
   D23        0.00000  -0.00000   0.00000   0.00000   0.00000   0.00000
   D24        2.96848  -0.00000   0.00000  -0.00000  -0.00000   2.96848
   D25       -2.96848   0.00000   0.00000   0.00000   0.00000  -2.96848
   D26        0.00000   0.00000   0.00000  -0.00000  -0.00000   0.00000
   D27       -0.26991  -0.00000   0.00000  -0.00000  -0.00000  -0.26991
   D28        2.55157  -0.00000   0.00000  -0.00000  -0.00000   2.55157
   D29        3.04566  -0.00000   0.00000  -0.00000  -0.00000   3.04566
   D30       -0.41605  -0.00000   0.00000   0.00000   0.00000  -0.41605
   D31       -2.62006   0.00000   0.00000   0.00000   0.00000  -2.62006
   D32       -0.53052   0.00000   0.00000   0.00000   0.00000  -0.53052
   D33        1.55850   0.00000   0.00000   0.00000   0.00000   1.55850
   D34        0.84620   0.00000   0.00000   0.00000   0.00000   0.84620
   D35        2.93574   0.00000   0.00000   0.00000   0.00000   2.93574
   D36       -1.25843   0.00000   0.00000   0.00000   0.00000  -1.25842
   D37        2.81895   0.00000   0.00000   0.00000   0.00000   2.81896
   D38       -1.45112   0.00000   0.00000   0.00000   0.00000  -1.45112
   D39        0.65716   0.00000   0.00000   0.00000   0.00000   0.65716
   D40       -1.31043   0.00000   0.00000   0.00000   0.00000  -1.31043
   D41        0.70267  -0.00000   0.00000   0.00000   0.00000   0.70267
   D42        2.81096  -0.00000   0.00000   0.00000   0.00000   2.81096
   D43        0.71908  -0.00000   0.00000   0.00000   0.00000   0.71908
   D44        2.73218  -0.00000   0.00000   0.00000   0.00000   2.73218
   D45       -1.44272  -0.00000   0.00000   0.00000   0.00000  -1.44272
   D46        1.45112  -0.00000   0.00000  -0.00000  -0.00000   1.45112
   D47       -2.81895  -0.00000   0.00000  -0.00000  -0.00000  -2.81896
   D48       -0.65716  -0.00000   0.00000  -0.00000  -0.00000  -0.65716
   D49       -0.70267   0.00000   0.00000  -0.00000  -0.00000  -0.70267
   D50        1.31043  -0.00000   0.00000  -0.00000  -0.00000   1.31043
   D51       -2.81096   0.00000   0.00000  -0.00000  -0.00000  -2.81096
   D52       -2.73218   0.00000   0.00000  -0.00000  -0.00000  -2.73218
   D53       -0.71908   0.00000   0.00000  -0.00000  -0.00000  -0.71908
   D54        1.44272   0.00000   0.00000  -0.00000  -0.00000   1.44272
   D55       -1.49785   0.00000   0.00000   0.00000   0.00000  -1.49785
   D56        1.49297   0.00000   0.00000   0.00000   0.00000   1.49297
   D57        2.65032   0.00000   0.00000   0.00000   0.00000   2.65032
   D58       -0.64204  -0.00000   0.00000   0.00000   0.00000  -0.64204
   D59        0.59994   0.00000   0.00000   0.00000   0.00000   0.59994
   D60       -2.69242   0.00000   0.00000   0.00000   0.00000  -2.69242
   D61        1.49785  -0.00000   0.00000  -0.00000  -0.00000   1.49785
   D62       -1.49297  -0.00000   0.00000  -0.00000  -0.00000  -1.49297
   D63       -0.59994  -0.00000   0.00000  -0.00000  -0.00000  -0.59994
   D64        2.69242  -0.00000   0.00000  -0.00000  -0.00000   2.69242
   D65       -2.65032  -0.00000   0.00000  -0.00000  -0.00000  -2.65032
   D66        0.64204   0.00000   0.00000  -0.00000  -0.00000   0.64204
   D67       -2.81586   0.00000   0.00000   0.00000   0.00000  -2.81586
   D68        0.18189   0.00000   0.00000   0.00000   0.00000   0.18189
   D69        0.18204   0.00000   0.00000   0.00000   0.00000   0.18204
   D70       -3.10339  -0.00000   0.00000   0.00000   0.00000  -3.10339
   D71        2.94280  -0.00000   0.00000  -0.00000  -0.00000   2.94280
   D72       -0.17483  -0.00000   0.00000  -0.00000  -0.00000  -0.17483
   D73       -0.05027  -0.00000   0.00000  -0.00000  -0.00000  -0.05027
   D74        3.11529  -0.00000   0.00000  -0.00000  -0.00000   3.11529
   D75        2.81586  -0.00000   0.00000  -0.00000  -0.00000   2.81586
   D76       -0.18204  -0.00000   0.00000  -0.00000  -0.00000  -0.18204
   D77       -0.18189  -0.00000   0.00000  -0.00000  -0.00000  -0.18189
   D78        3.10339   0.00000   0.00000  -0.00000  -0.00000   3.10339
   D79       -0.07449  -0.00000   0.00000  -0.00000  -0.00000  -0.07449
   D80        3.12106   0.00000   0.00000   0.00000   0.00000   3.12106
   D81        3.04316  -0.00000   0.00000  -0.00000  -0.00000   3.04316
   D82       -0.04448  -0.00000   0.00000  -0.00000  -0.00000  -0.04448
   D83       -2.94280   0.00000   0.00000   0.00000   0.00000  -2.94280
   D84        0.17483   0.00000   0.00000   0.00000   0.00000   0.17483
   D85        0.05027   0.00000   0.00000   0.00000   0.00000   0.05027
   D86       -3.11529   0.00000   0.00000   0.00000   0.00000  -3.11529
   D87        0.07449   0.00000   0.00000   0.00000   0.00000   0.07449
   D88       -3.04316   0.00000   0.00000   0.00000   0.00000  -3.04316
   D89       -3.12106  -0.00000   0.00000  -0.00000  -0.00000  -3.12106
   D90        0.04448   0.00000   0.00000   0.00000   0.00000   0.04448
         Item               Value     Threshold  Converged?
 Maximum Force            0.000000     0.000002     YES
 RMS     Force            0.000000     0.000001     YES
 Maximum Displacement     0.000007     0.000006     NO 
 RMS     Displacement     0.000001     0.000004     YES
 Predicted change in Energy=-4.406907D-13
 GradGradGradGradGradGradGradGradGradGradGradGradGradGradGradGradGradGrad

 Leave Link  103 at Mon Jul 28 11:51:09 2025, MaxMem=   104857600 cpu:               1.9 elap:               0.1
 (Enter /opt/linux/rocky/8/software/gaussian/16c01_avx2/g16/l202.exe)
                          Input orientation:                          
 ---------------------------------------------------------------------
 Center     Atomic      Atomic             Coordinates (Angstroms)
 Number     Number       Type             X           Y           Z
 ---------------------------------------------------------------------
      1          6           0        0.965867    1.549295    0.696083
      2          6           0        0.965867    1.549295   -0.696083
      3          6           0        1.469349    0.451479   -1.406266
      4          6           0        2.256733   -0.467811   -0.698796
      5          6           0        2.256733   -0.467811    0.698796
      6          6           0        1.469349    0.451479    1.406266
      7          1           0        0.421488    2.326123    1.226572
      8          1           0        0.421488    2.326123   -1.226572
      9          1           0        2.741031   -1.284694   -1.230058
     10          1           0        2.741031   -1.284694    1.230058
     11          6           0        0.835217    0.085791   -2.729675
     12          1           0        1.541993   -0.381277   -3.425663
     13          1           0        0.444128    0.985294   -3.217533
     14          6           0        0.835217    0.085791    2.729675
     15          1           0        1.541993   -0.381277    3.425663
     16          1           0        0.444128    0.985294    3.217533
     17          6           0       -0.359685   -0.927274   -2.485953
     18          1           0       -1.001751   -0.921587   -3.374458
     19          1           0        0.064832   -1.934144   -2.406038
     20          6           0       -0.359685   -0.927274    2.485953
     21          1           0        0.064832   -1.934144    2.406038
     22          1           0       -1.001751   -0.921587    3.374458
     23          6           0       -1.163204   -0.629658    1.228496
     24          6           0       -0.730316   -1.146174   -0.000000
     25          6           0       -2.223552    0.285996    1.213323
     26          6           0       -1.163204   -0.629658   -1.228496
     27          1           0        0.065139   -1.882691    0.000000
     28          6           0       -2.776056    0.704262   -0.000000
     29          1           0       -2.604127    0.690437    2.148482
     30          6           0       -2.223552    0.285996   -1.213323
     31          1           0       -3.610796    1.400039   -0.000000
     32          1           0       -2.604127    0.690437   -2.148482
 ---------------------------------------------------------------------
                    Distance matrix (angstroms):
                    1          2          3          4          5
     1  C    0.000000
     2  C    1.392166   0.000000
     3  C    2.424575   1.401090   0.000000
     4  C    2.771415   2.394799   1.401992   0.000000
     5  C    2.394799   2.771415   2.428241   1.397592   0.000000
     6  C    1.401090   2.424575   2.812532   2.428241   1.401992
     7  H    1.086843   2.143925   3.397667   3.857621   3.384190
     8  H    2.143925   1.086843   2.155131   3.384190   3.857621
     9  H    3.859109   3.386419   2.159288   1.088155   2.149958
    10  H    3.386419   3.859109   3.403186   2.149958   1.088155
    11  C    3.727564   2.508866   1.512370   2.540010   3.752546
    12  H    4.587791   3.392586   2.185572   2.820310   4.186825
    13  H    3.988320   2.635909   2.148656   3.426527   4.553535
    14  C    2.508866   3.727564   4.200221   3.752546   2.540010
    15  H    3.392586   4.587791   4.903703   4.186825   2.820310
    16  H    2.635909   3.988320   4.766083   4.553535   3.426527
    17  C    4.244506   3.330783   2.532202   3.201668   4.147213
    18  H    5.152289   4.141312   3.444622   4.240613   5.235936
    19  H    4.750723   3.983737   2.943367   3.141534   4.073642
    20  C    3.330783   4.244506   4.516159   4.147213   3.201668
    21  H    3.983737   4.750723   4.711425   4.073642   3.141534
    22  H    4.141312   5.152289   5.554004   5.235936   4.240613
    23  C    3.092611   3.603440   3.878293   3.928946   3.464498
    24  C    3.259926   3.259926   3.060817   3.141807   3.141807
    25  C    3.469273   3.926086   4.530690   4.929238   4.572299
    26  C    3.603440   3.092611   2.851454   3.464498   3.928946
    27  H    3.615850   3.615850   3.065573   2.700608   2.700608
    28  C    3.898794   3.898794   4.479391   5.214503   5.214503
    29  H    3.948665   4.644787   5.411704   5.751217   5.202989
    30  C    3.926086   3.469273   3.701639   4.572299   4.929238
    31  H    4.631700   4.631700   5.355858   6.197183   6.197183
    32  H    4.644787   3.948665   4.147432   5.202989   5.751217
                    6          7          8          9         10
     6  C    0.000000
     7  H    2.155131   0.000000
     8  H    3.397667   2.453145   0.000000
     9  H    3.403186   4.945029   4.291654   0.000000
    10  H    2.159288   4.291654   4.945029   2.460116   0.000000
    11  C    4.200221   4.565321   2.729391   2.785535   4.603242
    12  H    4.903703   5.498076   3.663543   2.659800   4.891788
    13  H    4.766083   4.642026   2.400470   3.791921   5.496332
    14  C    1.512370   2.729391   4.565321   4.603242   2.785535
    15  H    2.185572   3.663543   5.498076   4.891788   2.659800
    16  H    2.148656   2.400470   4.642026   5.496332   3.791921
    17  C    4.516159   4.997766   3.575033   3.364441   4.852929
    18  H    5.554004   5.808847   4.145677   4.328824   5.944899
    19  H    4.711425   5.610075   4.434886   2.994454   4.561252
    20  C    2.532202   3.575033   4.997766   4.852929   3.364441
    21  H    2.943367   4.434886   5.610075   4.561252   2.994454
    22  H    3.444622   4.145677   5.808847   5.944899   4.328824
    23  C    2.851454   3.353787   4.156350   4.660108   3.958804
    24  C    3.060817   3.858494   3.858494   3.685441   3.685441
    25  C    3.701639   3.340439   4.136598   5.751892   5.207152
    26  C    3.878293   4.156350   3.353787   3.958804   4.660108
    27  H    3.065573   4.398361   4.398361   3.005168   3.005168
    28  C    4.479391   3.789353   3.789353   5.992265   5.992265
    29  H    4.147432   3.560861   4.818797   6.624680   5.771946
    30  C    4.530690   4.136598   3.340439   5.207152   5.751892
    31  H    5.355858   4.315254   4.315254   7.004751   7.004751
    32  H    5.411704   4.818797   3.560861   5.771946   6.624680
                   11         12         13         14         15
    11  C    0.000000
    12  H    1.096396   0.000000
    13  H    1.095473   1.765260   0.000000
    14  C    5.459350   6.213363   6.027548   0.000000
    15  H    6.213363   6.851327   6.870581   1.096396   0.000000
    16  H    6.027548   6.870581   6.435066   1.095473   1.765260
    17  C    1.585400   2.190331   2.199827   5.445812   6.233915
    18  H    2.192033   2.600998   2.398205   6.453658   7.280399
    19  H    2.185949   2.373402   3.053769   5.572179   6.213062
    20  C    5.445812   6.233915   6.069084   1.585400   2.190331
    21  H    5.572179   6.213062   6.347561   2.185949   2.373402
    22  H    6.453658   7.280399   7.012924   2.192033   2.600998
    23  C    4.491400   5.388969   4.995874   2.599826   3.493899
    24  C    3.379313   4.181342   4.034227   3.379313   4.181342
    25  C    4.994336   6.012053   5.219006   3.419865   4.418035
    26  C    2.599826   3.493899   3.024542   4.491400   5.388969
    27  H    3.452400   4.021257   4.326833   3.452400   4.021257
    28  C    4.568909   5.617750   4.560820   4.568909   5.617750
    29  H    5.999258   7.029223   6.178423   3.540124   4.468790
    30  C    3.419865   4.418035   3.409163   4.994336   6.012053
    31  H    5.380093   6.438904   5.192970   5.380093   6.438904
    32  H    3.540124   4.468790   3.243713   5.999258   7.029223
                   16         17         18         19         20
    16  H    0.000000
    17  C    6.069084   0.000000
    18  H    7.012924   1.096231   0.000000
    19  H    6.347561   1.095623   1.760883   0.000000
    20  C    2.199827   4.971905   5.895481   5.012542   0.000000
    21  H    3.053769   5.012542   5.964646   4.812076   1.095623
    22  H    2.398205   5.895481   6.748916   5.964646   1.096231
    23  C    3.024542   3.812000   4.615027   4.052110   1.521649
    24  C    4.034227   2.522944   3.392799   2.653710   2.522944
    25  C    3.409163   4.316326   4.898856   4.823433   2.562345
    26  C    4.995874   1.521649   2.171737   2.143913   3.812000
    27  H    4.326833   2.696898   3.667280   2.406588   2.696898
    28  C    4.560820   3.831543   4.144697   4.562987   3.831543
    29  H    3.243713   5.397452   5.972361   5.895373   2.787184
    30  C    5.219006   2.562345   2.760717   3.404158   4.316326
    31  H    5.192970   4.708085   4.856339   5.515074   4.708085
    32  H    6.178423   2.787184   2.582489   3.752080   5.397452
                   21         22         23         24         25
    21  H    0.000000
    22  H    1.760883   0.000000
    23  C    2.143913   2.171737   0.000000
    24  C    2.653710   3.392799   1.401208   0.000000
    25  C    3.404158   2.760717   1.401068   2.398545   0.000000
    26  C    4.052110   4.615027   2.456992   1.401208   2.815181
    27  H    2.406588   3.667280   2.141990   1.084069   3.378382
    28  C    4.562987   4.144697   2.426899   2.758472   1.397269
    29  H    3.752080   2.582489   2.159927   3.391207   1.087626
    30  C    4.823433   4.898856   2.815181   2.398545   2.426647
    31  H    5.515074   4.856339   3.408750   3.844524   2.153530
    32  H    5.895373   5.972361   3.901652   3.391207   3.407366
                   26         27         28         29         30
    26  C    0.000000
    27  H    2.141990   0.000000
    28  C    2.426899   3.842489   0.000000
    29  H    3.901652   4.285084   2.155394   0.000000
    30  C    1.401068   3.378382   1.397269   3.407366   0.000000
    31  H    3.408750   4.928369   1.086690   2.476467   2.153530
    32  H    2.159927   4.285084   2.155394   4.296963   1.087626
                   31         32
    31  H    0.000000
    32  H    2.476467   0.000000
 Stoichiometry    C16H16
 Framework group  CS[SG(C2H2),X(C14H14)]
 Deg. of freedom    47
 Full point group                 CS      NOp   2
 RotChk:  IX=0 Diff= 1.17D-06
 Largest Abelian subgroup         CS      NOp   2
 Largest concise Abelian subgroup CS      NOp   2
                         Standard orientation:                         
 ---------------------------------------------------------------------
 Center     Atomic      Atomic             Coordinates (Angstroms)
 Number     Number       Type             X           Y           Z
 ---------------------------------------------------------------------
      1          6           0        0.965867    1.549295    0.696083
      2          6           0        0.965867    1.549295   -0.696083
      3          6           0        1.469349    0.451479   -1.406266
      4          6           0        2.256733   -0.467812   -0.698796
      5          6           0        2.256733   -0.467812    0.698796
      6          6           0        1.469349    0.451479    1.406266
      7          1           0        0.421489    2.326123    1.226572
      8          1           0        0.421489    2.326123   -1.226572
      9          1           0        2.741031   -1.284695   -1.230058
     10          1           0        2.741031   -1.284695    1.230058
     11          6           0        0.835217    0.085791   -2.729675
     12          1           0        1.541993   -0.381278   -3.425663
     13          1           0        0.444129    0.985294   -3.217533
     14          6           0        0.835217    0.085791    2.729675
     15          1           0        1.541993   -0.381278    3.425663
     16          1           0        0.444129    0.985294    3.217533
     17          6           0       -0.359685   -0.927274   -2.485953
     18          1           0       -1.001751   -0.921587   -3.374458
     19          1           0        0.064832   -1.934144   -2.406038
     20          6           0       -0.359685   -0.927274    2.485953
     21          1           0        0.064832   -1.934144    2.406038
     22          1           0       -1.001751   -0.921587    3.374458
     23          6           0       -1.163204   -0.629657    1.228496
     24          6           0       -0.730316   -1.146174   -0.000000
     25          6           0       -2.223552    0.285997    1.213323
     26          6           0       -1.163204   -0.629657   -1.228496
     27          1           0        0.065139   -1.882691    0.000000
     28          6           0       -2.776056    0.704263   -0.000000
     29          1           0       -2.604127    0.690438    2.148482
     30          6           0       -2.223552    0.285997   -1.213323
     31          1           0       -3.610795    1.400040   -0.000000
     32          1           0       -2.604127    0.690438   -2.148482
 ---------------------------------------------------------------------
 Rotational constants (GHZ):           0.7544989           0.7042620           0.4678160
 Leave Link  202 at Mon Jul 28 11:51:09 2025, MaxMem=   104857600 cpu:               0.1 elap:               0.0
 (Enter /opt/linux/rocky/8/software/gaussian/16c01_avx2/g16/l301.exe)
 Standard basis: 6-31G(d,p) (6D, 7F)
 Ernie: Thresh=  0.10000D-02 Tol=  0.10000D-05 Strict=F.
 There are   170 symmetry adapted cartesian basis functions of A'  symmetry.
 There are   150 symmetry adapted cartesian basis functions of A"  symmetry.
 There are   170 symmetry adapted basis functions of A'  symmetry.
 There are   150 symmetry adapted basis functions of A"  symmetry.
   320 basis functions,   560 primitive gaussians,   320 cartesian basis functions
    56 alpha electrons       56 beta electrons
       nuclear repulsion energy      1088.3276597194 Hartrees.
 IExCor=  402 DFT=T Ex+Corr=B3LYP ExCW=0 ScaHFX=  0.200000
 ScaDFX=  0.800000  0.720000  1.000000  0.810000 ScalE2=  1.000000  1.000000
 IRadAn=      5 IRanWt=     -1 IRanGd=            0 ICorTp=0 IEmpDi=  4
 NAtoms=   32 NActive=   32 NUniq=   18 SFac= 3.16D+00 NAtFMM=   60 NAOKFM=F Big=F
 Integral buffers will be    131072 words long.
 Raffenetti 2 integral format.
 Two-electron integral symmetry is turned on.
 Leave Link  301 at Mon Jul 28 11:51:10 2025, MaxMem=   104857600 cpu:               1.1 elap:               0.0
 (Enter /opt/linux/rocky/8/software/gaussian/16c01_avx2/g16/l302.exe)
 NPDir=0 NMtPBC=     1 NCelOv=     1 NCel=       1 NClECP=     1 NCelD=      1
         NCelK=      1 NCelE2=     1 NClLst=     1 CellRange=     0.0.
 One-electron integrals computed using PRISM.
 One-electron integral symmetry used in STVInt
 PrsmSu:  requested number of processors reduced to:  28 ShMem   1 Linda.
 NBasis=   320 RedAO= T EigKep=  4.49D-04  NBF=   170   150
 NBsUse=   320 1.00D-06 EigRej= -1.00D+00 NBFU=   170   150
 Precomputing XC quadrature grid using
 IXCGrd= 4 IRadAn=           5 IRanWt=          -1 IRanGd=           0 AccXCQ= 0.00D+00.
 Generated NRdTot=       0 NPtTot=           0 NUsed=           0 NTot=          32
 NSgBfM=   320   320   320   320   320 MxSgAt=    32 MxSgA2=    32.
 Leave Link  302 at Mon Jul 28 11:51:10 2025, MaxMem=   104857600 cpu:               6.3 elap:               0.2
 (Enter /opt/linux/rocky/8/software/gaussian/16c01_avx2/g16/l303.exe)
 DipDrv:  MaxL=1.
 Leave Link  303 at Mon Jul 28 11:51:10 2025, MaxMem=   104857600 cpu:               0.7 elap:               0.0
 (Enter /opt/linux/rocky/8/software/gaussian/16c01_avx2/g16/l401.exe)
 Initial guess from the checkpoint file:  "metapara_b3lyp631gdp_vtight.chk"
 B after Tr=     0.000000   -0.000000   -0.000000
         Rot=    1.000000    0.000000    0.000000    0.000000 Ang=   0.00 deg.
 Guess basis will be translated and rotated to current coordinates.
 JPrj=2 DoOrth=T DoCkMO=T.
 Initial guess orbital symmetries:
       Occupied  (A") (A') (A") (A') (A') (A") (A") (A') (A') (A')
                 (A") (A") (A') (A') (A") (A') (A') (A') (A") (A')
                 (A") (A') (A') (A") (A') (A") (A") (A') (A') (A")
                 (A') (A') (A') (A") (A") (A') (A') (A") (A') (A")
                 (A') (A') (A") (A") (A') (A') (A") (A') (A') (A")
                 (A") (A') (A') (A') (A") (A")
       Virtual   (A') (A") (A") (A') (A') (A") (A') (A') (A") (A')
                 (A") (A') (A') (A") (A') (A") (A") (A') (A') (A")
                 (A') (A") (A') (A") (A') (A") (A') (A") (A') (A")
                 (A') (A") (A') (A") (A") (A') (A") (A') (A') (A")
                 (A') (A') (A") (A') (A') (A") (A') (A') (A") (A")
                 (A') (A") (A') (A") (A') (A') (A") (A') (A") (A')
                 (A") (A') (A") (A") (A') (A") (A') (A') (A") (A')
                 (A') (A") (A') (A") (A") (A') (A") (A') (A") (A")
                 (A') (A') (A') (A") (A') (A') (A") (A") (A") (A')
                 (A') (A") (A') (A") (A") (A') (A") (A') (A") (A')
                 (A') (A") (A') (A") (A') (A') (A") (A') (A") (A")
                 (A') (A') (A") (A') (A") (A') (A") (A') (A') (A")
                 (A') (A') (A") (A") (A") (A') (A') (A") (A") (A')
                 (A') (A") (A") (A') (A') (A") (A') (A") (A') (A")
                 (A') (A') (A") (A') (A') (A") (A") (A') (A') (A')
                 (A") (A') (A') (A') (A") (A') (A") (A") (A") (A')
                 (A') (A') (A") (A") (A") (A') (A') (A") (A') (A")
                 (A') (A") (A") (A') (A') (A') (A") (A") (A") (A')
                 (A") (A') (A') (A") (A') (A') (A") (A') (A') (A")
                 (A') (A") (A") (A') (A') (A") (A') (A") (A") (A')
                 (A") (A') (A") (A") (A') (A") (A") (A') (A") (A")
                 (A") (A') (A') (A") (A') (A") (A") (A') (A') (A")
                 (A') (A") (A') (A") (A') (A') (A") (A") (A") (A')
                 (A') (A') (A') (A") (A') (A") (A") (A") (A') (A")
                 (A') (A') (A") (A") (A') (A") (A") (A') (A') (A")
                 (A') (A') (A") (A') (A') (A") (A') (A") (A') (A")
                 (A') (A") (A") (A')
 The electronic state of the initial guess is 1-A'.
 Leave Link  401 at Mon Jul 28 11:51:10 2025, MaxMem=   104857600 cpu:               4.4 elap:               0.1
 (Enter /opt/linux/rocky/8/software/gaussian/16c01_avx2/g16/l502.exe)
 Integral symmetry usage will be decided dynamically.
 Closed shell SCF:
 Using DIIS extrapolation, IDIIS=  1040.
 NGot=   104857600 LenX=   104636278 LenY=   104533437
 Requested convergence on RMS density matrix=1.00D-10 within 128 cycles.
 Requested convergence on MAX density matrix=1.00D-08.
 Requested convergence on             energy=1.00D-08.
 No special actions if energy rises.
 Fock matrices will be formed incrementally for  20 cycles.

 Cycle   1  Pass 1  IDiag  1:
 FoFJK:  IHMeth= 1 ICntrl=       0 DoSepK=F KAlg= 0 I1Cent=           0 FoldK=F
 IRaf= 910000000 NMat=       1 IRICut=       1 DoRegI=T DoRafI=F ISym2E= 1 IDoP0=0 IntGTp=1.
 FoFCou: FMM=F IPFlag=           0 FMFlag=      100000 FMFlg1=           0
         NFxFlg=           0 DoJE=F BraDBF=F KetDBF=F FulRan=T
         wScrn=  0.000000 ICntrl=         0 IOpCl=  0 I1Cent=           0 NGrid=           0
         NMat0=    1 NMatS0=      1 NMatT0=    0 NMatD0=    1 NMtDS0=    0 NMtDT0=    0
 Petite list used in FoFCou.
 E= -619.341347022568    
 DIIS: error= 1.72D-07 at cycle   1 NSaved=   1.
 NSaved= 1 IEnMin= 1 EnMin= -619.341347022568     IErMin= 1 ErrMin= 1.72D-07
 ErrMax= 1.72D-07  0.00D+00 EMaxC= 1.00D-01 BMatC= 2.22D-12 BMatP= 2.22D-12
 IDIUse=1 WtCom= 1.00D+00 WtEn= 0.00D+00
 Coeff-Com:  0.100D+01
 Coeff:      0.100D+01
 Gap=     0.209 Goal=   None    Shift=    0.000
 RMSDP=8.65D-09 MaxDP=2.75D-07              OVMax= 6.05D-07

 Cycle   2  Pass 1  IDiag  1:
 RMSU=  8.65D-09    CP:  1.00D+00
 E= -619.341347022575     Delta-E=       -0.000000000007 Rises=F Damp=F
 DIIS: error= 2.48D-08 at cycle   2 NSaved=   2.
 NSaved= 2 IEnMin= 2 EnMin= -619.341347022575     IErMin= 2 ErrMin= 2.48D-08
 ErrMax= 2.48D-08  0.00D+00 EMaxC= 1.00D-01 BMatC= 2.79D-14 BMatP= 2.22D-12
 IDIUse=1 WtCom= 1.00D+00 WtEn= 0.00D+00
 Coeff-Com: -0.864D-01 0.109D+01
 Coeff:     -0.864D-01 0.109D+01
 Gap=     0.209 Goal=   None    Shift=    0.000
 RMSDP=1.34D-09 MaxDP=3.87D-08 DE=-7.05D-12 OVMax= 1.02D-07

 Cycle   3  Pass 1  IDiag  1:
 RMSU=  1.02D-09    CP:  1.00D+00  1.10D+00
 E= -619.341347022564     Delta-E=        0.000000000011 Rises=F Damp=F
 DIIS: error= 7.06D-09 at cycle   3 NSaved=   3.
 NSaved= 3 IEnMin= 2 EnMin= -619.341347022575     IErMin= 3 ErrMin= 7.06D-09
 ErrMax= 7.06D-09  0.00D+00 EMaxC= 1.00D-01 BMatC= 1.51D-14 BMatP= 2.79D-14
 IDIUse=1 WtCom= 1.00D+00 WtEn= 0.00D+00
 Coeff-Com: -0.490D-01 0.560D+00 0.489D+00
 Coeff:     -0.490D-01 0.560D+00 0.489D+00
 Gap=     0.209 Goal=   None    Shift=    0.000
 RMSDP=6.24D-10 MaxDP=1.84D-08 DE= 1.07D-11 OVMax= 5.55D-08

 Cycle   4  Pass 1  IDiag  1:
 RMSU=  4.90D-10    CP:  1.00D+00  1.11D+00  6.41D-01
 E= -619.341347022564     Delta-E=        0.000000000000 Rises=F Damp=F
 DIIS: error= 3.39D-09 at cycle   4 NSaved=   4.
 NSaved= 4 IEnMin= 2 EnMin= -619.341347022575     IErMin= 4 ErrMin= 3.39D-09
 ErrMax= 3.39D-09  0.00D+00 EMaxC= 1.00D-01 BMatC= 2.64D-15 BMatP= 1.51D-14
 IDIUse=1 WtCom= 1.00D+00 WtEn= 0.00D+00
 Coeff-Com: -0.842D-02 0.755D-01 0.291D+00 0.642D+00
 Coeff:     -0.842D-02 0.755D-01 0.291D+00 0.642D+00
 Gap=     0.209 Goal=   None    Shift=    0.000
 RMSDP=2.53D-10 MaxDP=7.36D-09 DE= 0.00D+00 OVMax= 2.72D-08

 Cycle   5  Pass 1  IDiag  1:
 RMSU=  1.50D-10    CP:  1.00D+00  1.11D+00  7.74D-01  6.94D-01
 E= -619.341347022572     Delta-E=       -0.000000000007 Rises=F Damp=F
 DIIS: error= 1.07D-09 at cycle   5 NSaved=   5.
 NSaved= 5 IEnMin= 2 EnMin= -619.341347022575     IErMin= 5 ErrMin= 1.07D-09
 ErrMax= 1.07D-09  0.00D+00 EMaxC= 1.00D-01 BMatC= 4.22D-16 BMatP= 2.64D-15
 IDIUse=1 WtCom= 1.00D+00 WtEn= 0.00D+00
 Coeff-Com:  0.957D-03-0.236D-01 0.109D+00 0.383D+00 0.531D+00
 Coeff:      0.957D-03-0.236D-01 0.109D+00 0.383D+00 0.531D+00
 Gap=     0.209 Goal=   None    Shift=    0.000
 RMSDP=8.38D-11 MaxDP=2.79D-09 DE=-7.28D-12 OVMax= 6.52D-09

 SCF Done:  E(RB3LYP) =  -619.341347023     A.U. after    5 cycles
            NFock=  5  Conv=0.84D-10     -V/T= 2.0099
 KE= 6.132660328066D+02 PE=-3.610140303416D+03 EE= 1.289205263867D+03
 Leave Link  502 at Mon Jul 28 11:51:13 2025, MaxMem=   104857600 cpu:              96.9 elap:               2.7
 (Enter /opt/linux/rocky/8/software/gaussian/16c01_avx2/g16/l701.exe)
 ... and contract with generalized density number  0.
 Compute integral first derivatives.
 PrsmSu:  requested number of processors reduced to:  29 ShMem   1 Linda.
 Leave Link  701 at Mon Jul 28 11:51:13 2025, MaxMem=   104857600 cpu:               5.2 elap:               0.2
 (Enter /opt/linux/rocky/8/software/gaussian/16c01_avx2/g16/l702.exe)
 L702 exits ... SP integral derivatives will be done elsewhere.
 Leave Link  702 at Mon Jul 28 11:51:13 2025, MaxMem=   104857600 cpu:               0.3 elap:               0.0
 (Enter /opt/linux/rocky/8/software/gaussian/16c01_avx2/g16/l703.exe)
 Integral derivatives from FoFJK, PRISM(SPDF).
 Compute integral first derivatives, UseDBF=F ICtDFT=           0.
 Calling FoFJK, ICntrl=      2127 FMM=F ISym2X=1 I1Cent= 0 IOpClX= 0 NMat=1 NMatS=1 NMatT=0.
 FoFJK:  IHMeth= 1 ICntrl=    2127 DoSepK=F KAlg= 0 I1Cent=           0 FoldK=F
 IRaf=         0 NMat=       1 IRICut=       1 DoRegI=T DoRafI=F ISym2E= 1 IDoP0=0 IntGTp=1.
 FoFCou: FMM=F IPFlag=           0 FMFlag=      100000 FMFlg1=         800
         NFxFlg=           0 DoJE=F BraDBF=F KetDBF=F FulRan=T
         wScrn=  0.000000 ICntrl=      2127 IOpCl=  0 I1Cent=           0 NGrid=           0
         NMat0=    1 NMatS0=      1 NMatT0=    0 NMatD0=    1 NMtDS0=    0 NMtDT0=    0
 Petite list used in FoFCou.
 Leave Link  703 at Mon Jul 28 11:51:14 2025, MaxMem=   104857600 cpu:              33.4 elap:               1.0
 (Enter /opt/linux/rocky/8/software/gaussian/16c01_avx2/g16/l716.exe)
 Dipole        =-7.79618132D-02-9.48722937D-02-2.66453526D-15
 ***** Axes restored to original set *****
 -------------------------------------------------------------------
 Center     Atomic                   Forces (Hartrees/Bohr)
 Number     Number              X              Y              Z
 -------------------------------------------------------------------
      1        6           0.000000764   -0.000000510    0.000000019
      2        6           0.000000764   -0.000000510   -0.000000019
      3        6           0.000000219   -0.000000707   -0.000000015
      4        6          -0.000000215   -0.000001139    0.000000034
      5        6          -0.000000215   -0.000001139   -0.000000034
      6        6           0.000000219   -0.000000707    0.000000015
      7        1           0.000001171   -0.000000212    0.000000008
      8        1           0.000001171   -0.000000212   -0.000000008
      9        1          -0.000000616   -0.000001357   -0.000000005
     10        1          -0.000000616   -0.000001357    0.000000005
     11        6           0.000000082   -0.000000436   -0.000000010
     12        1          -0.000000174   -0.000000778   -0.000000011
     13        1           0.000000502   -0.000000226    0.000000011
     14        6           0.000000082   -0.000000436    0.000000010
     15        1          -0.000000174   -0.000000778    0.000000011
     16        1           0.000000502   -0.000000226   -0.000000011
     17        6          -0.000000461    0.000000155    0.000000025
     18        1          -0.000000428    0.000000503   -0.000000008
     19        1          -0.000000932   -0.000000032   -0.000000003
     20        6          -0.000000461    0.000000155   -0.000000025
     21        1          -0.000000932   -0.000000032    0.000000003
     22        1          -0.000000428    0.000000503    0.000000008
     23        6          -0.000000273    0.000000595    0.000000037
     24        6          -0.000000497    0.000000382    0.000000000
     25        6           0.000000156    0.000001111   -0.000000015
     26        6          -0.000000273    0.000000595   -0.000000037
     27        1          -0.000000916   -0.000000041    0.000000000
     28        6           0.000000377    0.000001372    0.000000000
     29        1           0.000000365    0.000001285    0.000000002
     30        6           0.000000156    0.000001111    0.000000015
     31        1           0.000000713    0.000001785    0.000000000
     32        1           0.000000365    0.000001285   -0.000000002
 -------------------------------------------------------------------
 Cartesian Forces:  Max     0.000001785 RMS     0.000000577
 Leave Link  716 at Mon Jul 28 11:51:14 2025, MaxMem=   104857600 cpu:               0.3 elap:               0.0
 (Enter /opt/linux/rocky/8/software/gaussian/16c01_avx2/g16/l103.exe)

 GradGradGradGradGradGradGradGradGradGradGradGradGradGradGradGradGradGrad
 Berny optimization.
 Using GEDIIS/GDIIS optimizer.
 FormGI is forming the generalized inverse of G from B-inverse, IUseBI=4.
 Internal  Forces:  Max     0.000000055 RMS     0.000000014
 Search for a local minimum.
 Step number   9 out of a maximum of  192
 All quantities printed in internal units (Hartrees-Bohrs-Radians)
 RMS Force = .14481D-07 SwitMx=.10000D-02 MixMth= 2
 Mixed Optimization -- En-DIIS/RFO-DIIS
 Swapping is turned off.
 Update second derivatives using D2CorX and points    1    2    9
 Trust test= 0.00D+00 RLast= 7.00D-06 DXMaxT set to 1.50D-01
 ITU=  0  0  0  0  0 -1  0  0  0
     Eigenvalues ---    0.00453   0.00528   0.01017   0.01504   0.01653
     Eigenvalues ---    0.01724   0.01979   0.01986   0.02077   0.02100
     Eigenvalues ---    0.02106   0.02116   0.02120   0.02122   0.02124
     Eigenvalues ---    0.02141   0.02155   0.02172   0.02174   0.02447
     Eigenvalues ---    0.03135   0.04021   0.05006   0.05167   0.05421
     Eigenvalues ---    0.05490   0.06184   0.06403   0.07436   0.07808
     Eigenvalues ---    0.08305   0.08789   0.09058   0.09389   0.09657
     Eigenvalues ---    0.10561   0.12915   0.14210   0.14957   0.15653
     Eigenvalues ---    0.15695   0.15846   0.15947   0.15977   0.15981
     Eigenvalues ---    0.15996   0.16398   0.19983   0.21822   0.21996
     Eigenvalues ---    0.22124   0.22588   0.22941   0.22958   0.23274
     Eigenvalues ---    0.23614   0.24052   0.24749   0.28600   0.29931
     Eigenvalues ---    0.30624   0.31047   0.34072   0.34084   0.34102
     Eigenvalues ---    0.34107   0.34142   0.34171   0.34188   0.34220
     Eigenvalues ---    0.35026   0.35027   0.35087   0.35088   0.35176
     Eigenvalues ---    0.35180   0.35228   0.35756   0.38944   0.40952
     Eigenvalues ---    0.41045   0.41590   0.43021   0.43626   0.44507
     Eigenvalues ---    0.45279   0.45491   0.45843   0.45958   0.46290
 En-DIIS/RFO-DIIS/Sim-DIIS IScMMF=       -3 using points:     9    8    7    6    5    4    3    2    1
 RFO step:  Lambda=-2.58081792D-13.
 NNeg= 0 NGDIIS= 9 SimSw=  2.50D-03 Rises=F DC= -9.98D-11 SmlDif=  1.00D-05
 NRisDI= 0 DoIntr=F SqrtH=F CThrHd= 10.0 CDAdj=  3.0
 RMS Error=  0.4070865477D-06 NUsed= 9 OKEnD=F EnDIS=F
 InvSVX:  RCond= 1.38D-17 Info=          11 Equed=N FErr=  0.00D+00 BErr=  0.00D+00
 DIIS inversion failure, remove point   9.
 InvSVX:  RCond= 2.20D-17 Info=          10 Equed=N FErr=  0.00D+00 BErr=  0.00D+00
 DIIS inversion failure, remove point   8.
 InvSVX:  RCond= 4.80D-16 Info=           0 Equed=N FErr=  2.68D-11 BErr=  6.07D-17
 DIIS inversion failure, remove point   7.
 InvSVX:  RCond= 6.31D-16 Info=           0 Equed=N FErr=  1.83D-11 BErr=  9.48D-17
 DIIS inversion failure, remove point   6.
 InvSVX:  RCond= 1.37D-15 Info=           0 Equed=N FErr=  9.13D-12 BErr=  9.50D-17
 DIIS inversion failure, remove point   5.
 InvSVX:  RCond= 2.33D-15 Info=           0 Equed=N FErr=  6.15D-12 BErr=  5.85D-17
 DIIS inversion failure, remove point   4.
 InvSVX:  RCond= 8.12D-15 Info=           0 Equed=N FErr=  1.68D-12 BErr=  1.01D-16
 DIIS inversion failure, remove point   3.
 InvSVX:  RCond= 1.74D-10 Info=           0 Equed=N FErr=  1.31D-15 BErr=  2.77D-17
 DIIS inversion failure, remove point   2.
 Use linear search instead of GDIIS.
 RFO step:  Lambda= 0.00000000D+00 EMin= 4.52585173D-03
 Skip linear search -- no minimum in search direction.
 Iteration  1 RMS(Cart)=  0.00000115 RMS(Int)=  0.00000000
 Iteration  2 RMS(Cart)=  0.00000000 RMS(Int)=  0.00000000
 ITry= 1 IFail=0 DXMaxC= 5.88D-06 DCOld= 1.00D+10 DXMaxT= 1.50D-01 DXLimC= 3.00D+00 Rises=F
 ClnCor:  largest displacement from symmetrization is 1.84D-08 for atom     8.
 Variable       Old X    -DE/DX   Delta X   Delta X   Delta X     New X
                                 (Linear)    (Quad)   (Total)
    R1        2.63081   0.00000   0.00000   0.00000   0.00000   2.63081
    R2        2.64768  -0.00000   0.00000  -0.00000  -0.00000   2.64768
    R3        2.05384   0.00000   0.00000  -0.00000  -0.00000   2.05384
    R4        2.64768  -0.00000   0.00000  -0.00000  -0.00000   2.64768
    R5        2.05384   0.00000   0.00000  -0.00000  -0.00000   2.05384
    R6        2.64938   0.00000   0.00000   0.00000   0.00000   2.64938
    R7        2.85796  -0.00000   0.00000  -0.00000  -0.00000   2.85796
    R8        2.64107  -0.00000   0.00000  -0.00000  -0.00000   2.64107
    R9        2.05631  -0.00000   0.00000  -0.00000  -0.00000   2.05631
   R10        2.64938   0.00000   0.00000   0.00000   0.00000   2.64938
   R11        2.05631  -0.00000   0.00000  -0.00000  -0.00000   2.05631
   R12        2.85796  -0.00000   0.00000  -0.00000  -0.00000   2.85796
   R13        2.07189   0.00000   0.00000   0.00000   0.00000   2.07189
   R14        2.07014  -0.00000   0.00000  -0.00000  -0.00000   2.07014
   R15        2.99597  -0.00000   0.00000  -0.00000  -0.00000   2.99597
   R16        2.07189   0.00000   0.00000   0.00000   0.00000   2.07189
   R17        2.07014  -0.00000   0.00000  -0.00000  -0.00000   2.07014
   R18        2.99597  -0.00000   0.00000  -0.00000  -0.00000   2.99597
   R19        2.07158   0.00000   0.00000   0.00000   0.00000   2.07158
   R20        2.07043  -0.00000   0.00000   0.00000   0.00000   2.07043
   R21        2.87550  -0.00000   0.00000  -0.00000  -0.00000   2.87550
   R22        2.07043  -0.00000   0.00000   0.00000   0.00000   2.07043
   R23        2.07158   0.00000   0.00000   0.00000   0.00000   2.07158
   R24        2.87550  -0.00000   0.00000  -0.00000  -0.00000   2.87550
   R25        2.64790   0.00000   0.00000   0.00000   0.00000   2.64790
   R26        2.64763   0.00000   0.00000   0.00000   0.00000   2.64763
   R27        2.64790   0.00000   0.00000   0.00000   0.00000   2.64790
   R28        2.04859   0.00000   0.00000   0.00000   0.00000   2.04859
   R29        2.64046  -0.00000   0.00000  -0.00000  -0.00000   2.64046
   R30        2.05532  -0.00000   0.00000   0.00000   0.00000   2.05532
   R31        2.64763   0.00000   0.00000   0.00000   0.00000   2.64763
   R32        2.64046  -0.00000   0.00000  -0.00000  -0.00000   2.64046
   R33        2.05355  -0.00000   0.00000   0.00000   0.00000   2.05355
   R34        2.05532  -0.00000   0.00000   0.00000   0.00000   2.05532
    A1        2.10236   0.00000   0.00000   0.00000   0.00000   2.10236
    A2        2.08071   0.00000   0.00000   0.00000   0.00000   2.08071
    A3        2.08590  -0.00000   0.00000  -0.00000  -0.00000   2.08590
    A4        2.10236   0.00000   0.00000   0.00000   0.00000   2.10236
    A5        2.08071   0.00000   0.00000   0.00000   0.00000   2.08071
    A6        2.08590  -0.00000   0.00000  -0.00000  -0.00000   2.08590
    A7        2.04858  -0.00000   0.00000  -0.00000  -0.00000   2.04858
    A8        2.07411  -0.00000   0.00000  -0.00000  -0.00000   2.07411
    A9        2.11590   0.00000   0.00000  -0.00000  -0.00000   2.11590
   A10        2.09974   0.00000   0.00000   0.00000   0.00000   2.09974
   A11        2.08959  -0.00000   0.00000  -0.00000  -0.00000   2.08959
   A12        2.08085   0.00000   0.00000   0.00000   0.00000   2.08085
   A13        2.09974   0.00000   0.00000   0.00000   0.00000   2.09974
   A14        2.08085   0.00000   0.00000   0.00000   0.00000   2.08085
   A15        2.08959  -0.00000   0.00000  -0.00000  -0.00000   2.08959
   A16        2.04858  -0.00000   0.00000  -0.00000  -0.00000   2.04858
   A17        2.07411  -0.00000   0.00000  -0.00000  -0.00000   2.07411
   A18        2.11590   0.00000   0.00000  -0.00000  -0.00000   2.11590
   A19        1.96947   0.00000   0.00000   0.00000   0.00000   1.96947
   A20        1.91861  -0.00000   0.00000  -0.00000  -0.00000   1.91861
   A21        1.91347  -0.00000   0.00000  -0.00000  -0.00000   1.91347
   A22        1.87259   0.00000   0.00000   0.00000   0.00000   1.87259
   A23        1.88728   0.00000   0.00000   0.00000   0.00000   1.88728
   A24        1.90083  -0.00000   0.00000  -0.00000  -0.00000   1.90083
   A25        1.96947   0.00000   0.00000   0.00000   0.00000   1.96947
   A26        1.91861  -0.00000   0.00000  -0.00000  -0.00000   1.91861
   A27        1.91347  -0.00000   0.00000  -0.00000  -0.00000   1.91347
   A28        1.87259   0.00000   0.00000   0.00000   0.00000   1.87259
   A29        1.88728   0.00000   0.00000   0.00000   0.00000   1.88728
   A30        1.90083  -0.00000   0.00000  -0.00000  -0.00000   1.90083
   A31        1.88970  -0.00000   0.00000  -0.00000  -0.00000   1.88970
   A32        1.88222   0.00000   0.00000   0.00000   0.00000   1.88222
   A33        1.98237  -0.00000   0.00000  -0.00000  -0.00000   1.98237
   A34        1.86589  -0.00000   0.00000   0.00000   0.00000   1.86589
   A35        1.93851   0.00000   0.00000   0.00000   0.00000   1.93851
   A36        1.90083   0.00000   0.00000   0.00000   0.00000   1.90083
   A37        1.88222   0.00000   0.00000   0.00000   0.00000   1.88222
   A38        1.88970  -0.00000   0.00000  -0.00000  -0.00000   1.88970
   A39        1.98237  -0.00000   0.00000  -0.00000  -0.00000   1.98237
   A40        1.86589  -0.00000   0.00000   0.00000   0.00000   1.86589
   A41        1.90083   0.00000   0.00000   0.00000   0.00000   1.90083
   A42        1.93851   0.00000   0.00000   0.00000   0.00000   1.93851
   A43        2.08206   0.00000   0.00000  -0.00000  -0.00000   2.08206
   A44        2.13698   0.00000   0.00000   0.00000   0.00000   2.13698
   A45        2.05468  -0.00000   0.00000   0.00000   0.00000   2.05468
   A46        2.13809   0.00000   0.00000   0.00000   0.00000   2.13809
   A47        2.06818  -0.00000   0.00000   0.00000   0.00000   2.06818
   A48        2.06818  -0.00000   0.00000   0.00000   0.00000   2.06818
   A49        2.09936   0.00000   0.00000   0.00000   0.00000   2.09936
   A50        2.09270  -0.00000   0.00000  -0.00000  -0.00000   2.09270
   A51        2.09088   0.00000   0.00000   0.00000   0.00000   2.09088
   A52        2.08206   0.00000   0.00000  -0.00000  -0.00000   2.08206
   A53        2.13698   0.00000   0.00000   0.00000   0.00000   2.13698
   A54        2.05468  -0.00000   0.00000   0.00000   0.00000   2.05468
   A55        2.10375   0.00000   0.00000   0.00000   0.00000   2.10375
   A56        2.08909  -0.00000   0.00000   0.00000   0.00000   2.08909
   A57        2.08909  -0.00000   0.00000   0.00000   0.00000   2.08909
   A58        2.09936   0.00000   0.00000   0.00000   0.00000   2.09936
   A59        2.09270  -0.00000   0.00000  -0.00000  -0.00000   2.09270
   A60        2.09088   0.00000   0.00000   0.00000   0.00000   2.09088
    D1        0.00000  -0.00000   0.00000  -0.00000  -0.00000   0.00000
    D2        2.96035   0.00000   0.00000   0.00000   0.00000   2.96035
    D3       -2.96035  -0.00000   0.00000  -0.00000  -0.00000  -2.96035
    D4       -0.00000  -0.00000   0.00000  -0.00000   0.00000   0.00000
    D5        0.27033  -0.00000   0.00000  -0.00000  -0.00000   0.27033
    D6       -2.55905  -0.00000   0.00000  -0.00000  -0.00000  -2.55905
    D7       -3.05304  -0.00000   0.00000  -0.00000  -0.00000  -3.05304
    D8        0.40076  -0.00000   0.00000  -0.00000  -0.00000   0.40076
    D9       -0.27033   0.00000   0.00000   0.00000   0.00000  -0.27033
   D10        2.55905   0.00000   0.00000   0.00000   0.00000   2.55905
   D11        3.05304   0.00000   0.00000   0.00000   0.00000   3.05304
   D12       -0.40076   0.00000   0.00000   0.00000   0.00000  -0.40076
   D13        0.26991  -0.00000   0.00000  -0.00000  -0.00000   0.26991
   D14       -3.04566  -0.00000   0.00000  -0.00000  -0.00000  -3.04566
   D15       -2.55157  -0.00000   0.00000  -0.00000  -0.00000  -2.55157
   D16        0.41605  -0.00000   0.00000   0.00000   0.00000   0.41605
   D17        2.62006   0.00000   0.00000   0.00000   0.00000   2.62006
   D18        0.53052  -0.00000   0.00000   0.00000   0.00000   0.53052
   D19       -1.55850   0.00000   0.00000   0.00000   0.00000  -1.55850
   D20       -0.84620   0.00000   0.00000   0.00000   0.00000  -0.84620
   D21       -2.93574  -0.00000   0.00000   0.00000   0.00000  -2.93574
   D22        1.25842   0.00000   0.00000   0.00000   0.00000   1.25843
   D23        0.00000  -0.00000   0.00000  -0.00000   0.00000   0.00000
   D24        2.96848   0.00000   0.00000   0.00000   0.00000   2.96848
   D25       -2.96848  -0.00000   0.00000  -0.00000  -0.00000  -2.96848
   D26        0.00000   0.00000   0.00000   0.00000   0.00000   0.00000
   D27       -0.26991   0.00000   0.00000   0.00000   0.00000  -0.26991
   D28        2.55157   0.00000   0.00000   0.00000   0.00000   2.55157
   D29        3.04566   0.00000   0.00000   0.00000   0.00000   3.04566
   D30       -0.41605   0.00000   0.00000  -0.00000  -0.00000  -0.41605
   D31       -2.62006  -0.00000   0.00000  -0.00000  -0.00000  -2.62006
   D32       -0.53052   0.00000   0.00000  -0.00000  -0.00000  -0.53052
   D33        1.55850  -0.00000   0.00000  -0.00000  -0.00000   1.55850
   D34        0.84620  -0.00000   0.00000  -0.00000  -0.00000   0.84620
   D35        2.93574   0.00000   0.00000  -0.00000  -0.00000   2.93574
   D36       -1.25842  -0.00000   0.00000  -0.00000  -0.00000  -1.25843
   D37        2.81896  -0.00000   0.00000  -0.00000  -0.00000   2.81895
   D38       -1.45112  -0.00000   0.00000  -0.00000  -0.00000  -1.45112
   D39        0.65716  -0.00000   0.00000  -0.00000  -0.00000   0.65716
   D40       -1.31043   0.00000   0.00000  -0.00000  -0.00000  -1.31043
   D41        0.70267   0.00000   0.00000  -0.00000  -0.00000   0.70267
   D42        2.81096   0.00000   0.00000  -0.00000  -0.00000   2.81096
   D43        0.71908   0.00000   0.00000  -0.00000  -0.00000   0.71908
   D44        2.73218   0.00000   0.00000  -0.00000  -0.00000   2.73218
   D45       -1.44272   0.00000   0.00000  -0.00000  -0.00000  -1.44272
   D46        1.45112   0.00000   0.00000   0.00000   0.00000   1.45112
   D47       -2.81896   0.00000   0.00000   0.00000   0.00000  -2.81895
   D48       -0.65716   0.00000   0.00000   0.00000   0.00000  -0.65716
   D49       -0.70267  -0.00000   0.00000   0.00000   0.00000  -0.70267
   D50        1.31043  -0.00000   0.00000   0.00000   0.00000   1.31043
   D51       -2.81096  -0.00000   0.00000   0.00000   0.00000  -2.81096
   D52       -2.73218  -0.00000   0.00000   0.00000   0.00000  -2.73218
   D53       -0.71908  -0.00000   0.00000   0.00000   0.00000  -0.71908
   D54        1.44272  -0.00000   0.00000   0.00000   0.00000   1.44272
   D55       -1.49785  -0.00000   0.00000  -0.00000  -0.00000  -1.49785
   D56        1.49297  -0.00000   0.00000  -0.00000  -0.00000   1.49297
   D57        2.65032  -0.00000   0.00000  -0.00000  -0.00000   2.65032
   D58       -0.64204   0.00000   0.00000  -0.00000  -0.00000  -0.64204
   D59        0.59994  -0.00000   0.00000  -0.00000  -0.00000   0.59994
   D60       -2.69242  -0.00000   0.00000  -0.00000  -0.00000  -2.69242
   D61        1.49785   0.00000   0.00000   0.00000   0.00000   1.49785
   D62       -1.49297   0.00000   0.00000   0.00000   0.00000  -1.49297
   D63       -0.59994   0.00000   0.00000   0.00000   0.00000  -0.59994
   D64        2.69242   0.00000   0.00000   0.00000   0.00000   2.69242
   D65       -2.65032   0.00000   0.00000   0.00000   0.00000  -2.65032
   D66        0.64204  -0.00000   0.00000   0.00000   0.00000   0.64204
   D67       -2.81586  -0.00000   0.00000  -0.00000  -0.00000  -2.81586
   D68        0.18189  -0.00000   0.00000  -0.00000  -0.00000   0.18189
   D69        0.18204  -0.00000   0.00000  -0.00000  -0.00000   0.18204
   D70       -3.10339   0.00000   0.00000   0.00000   0.00000  -3.10339
   D71        2.94280   0.00000   0.00000   0.00000   0.00000   2.94280
   D72       -0.17483   0.00000   0.00000   0.00000   0.00000  -0.17483
   D73       -0.05027   0.00000   0.00000   0.00000   0.00000  -0.05027
   D74        3.11529   0.00000   0.00000   0.00000   0.00000   3.11529
   D75        2.81586   0.00000   0.00000   0.00000   0.00000   2.81586
   D76       -0.18204   0.00000   0.00000   0.00000   0.00000  -0.18204
   D77       -0.18189   0.00000   0.00000   0.00000   0.00000  -0.18189
   D78        3.10339  -0.00000   0.00000  -0.00000  -0.00000   3.10339
   D79       -0.07449   0.00000   0.00000   0.00000   0.00000  -0.07449
   D80        3.12106  -0.00000   0.00000  -0.00000  -0.00000   3.12106
   D81        3.04316   0.00000   0.00000   0.00000   0.00000   3.04316
   D82       -0.04448   0.00000   0.00000   0.00000   0.00000  -0.04448
   D83       -2.94280  -0.00000   0.00000  -0.00000  -0.00000  -2.94280
   D84        0.17483  -0.00000   0.00000  -0.00000  -0.00000   0.17483
   D85        0.05027  -0.00000   0.00000  -0.00000  -0.00000   0.05027
   D86       -3.11529  -0.00000   0.00000  -0.00000  -0.00000  -3.11529
   D87        0.07449  -0.00000   0.00000  -0.00000  -0.00000   0.07449
   D88       -3.04316  -0.00000   0.00000  -0.00000  -0.00000  -3.04316
   D89       -3.12106   0.00000   0.00000   0.00000   0.00000  -3.12106
   D90        0.04448  -0.00000   0.00000  -0.00000  -0.00000   0.04448
         Item               Value     Threshold  Converged?
 Maximum Force            0.000000     0.000002     YES
 RMS     Force            0.000000     0.000001     YES
 Maximum Displacement     0.000006     0.000006     YES
 RMS     Displacement     0.000001     0.000004     YES
 Predicted change in Energy=-2.862738D-13
 Optimization completed.
    -- Stationary point found.
                           ----------------------------
                           !   Optimized Parameters   !
                           ! (Angstroms and Degrees)  !
 --------------------------                            --------------------------
 ! Name  Definition              Value          Derivative Info.                !
 --------------------------------------------------------------------------------
 ! R1    R(1,2)                  1.3922         -DE/DX =    0.0                 !
 ! R2    R(1,6)                  1.4011         -DE/DX =    0.0                 !
 ! R3    R(1,7)                  1.0868         -DE/DX =    0.0                 !
 ! R4    R(2,3)                  1.4011         -DE/DX =    0.0                 !
 ! R5    R(2,8)                  1.0868         -DE/DX =    0.0                 !
 ! R6    R(3,4)                  1.402          -DE/DX =    0.0                 !
 ! R7    R(3,11)                 1.5124         -DE/DX =    0.0                 !
 ! R8    R(4,5)                  1.3976         -DE/DX =    0.0                 !
 ! R9    R(4,9)                  1.0882         -DE/DX =    0.0                 !
 ! R10   R(5,6)                  1.402          -DE/DX =    0.0                 !
 ! R11   R(5,10)                 1.0882         -DE/DX =    0.0                 !
 ! R12   R(6,14)                 1.5124         -DE/DX =    0.0                 !
 ! R13   R(11,12)                1.0964         -DE/DX =    0.0                 !
 ! R14   R(11,13)                1.0955         -DE/DX =    0.0                 !
 ! R15   R(11,17)                1.5854         -DE/DX =    0.0                 !
 ! R16   R(14,15)                1.0964         -DE/DX =    0.0                 !
 ! R17   R(14,16)                1.0955         -DE/DX =    0.0                 !
 ! R18   R(14,20)                1.5854         -DE/DX =    0.0                 !
 ! R19   R(17,18)                1.0962         -DE/DX =    0.0                 !
 ! R20   R(17,19)                1.0956         -DE/DX =    0.0                 !
 ! R21   R(17,26)                1.5216         -DE/DX =    0.0                 !
 ! R22   R(20,21)                1.0956         -DE/DX =    0.0                 !
 ! R23   R(20,22)                1.0962         -DE/DX =    0.0                 !
 ! R24   R(20,23)                1.5216         -DE/DX =    0.0                 !
 ! R25   R(23,24)                1.4012         -DE/DX =    0.0                 !
 ! R26   R(23,25)                1.4011         -DE/DX =    0.0                 !
 ! R27   R(24,26)                1.4012         -DE/DX =    0.0                 !
 ! R28   R(24,27)                1.0841         -DE/DX =    0.0                 !
 ! R29   R(25,28)                1.3973         -DE/DX =    0.0                 !
 ! R30   R(25,29)                1.0876         -DE/DX =    0.0                 !
 ! R31   R(26,30)                1.4011         -DE/DX =    0.0                 !
 ! R32   R(28,30)                1.3973         -DE/DX =    0.0                 !
 ! R33   R(28,31)                1.0867         -DE/DX =    0.0                 !
 ! R34   R(30,32)                1.0876         -DE/DX =    0.0                 !
 ! A1    A(2,1,6)              120.4562         -DE/DX =    0.0                 !
 ! A2    A(2,1,7)              119.2158         -DE/DX =    0.0                 !
 ! A3    A(6,1,7)              119.5133         -DE/DX =    0.0                 !
 ! A4    A(1,2,3)              120.4562         -DE/DX =    0.0                 !
 ! A5    A(1,2,8)              119.2158         -DE/DX =    0.0                 !
 ! A6    A(3,2,8)              119.5133         -DE/DX =    0.0                 !
 ! A7    A(2,3,4)              117.3748         -DE/DX =    0.0                 !
 ! A8    A(2,3,11)             118.8379         -DE/DX =    0.0                 !
 ! A9    A(4,3,11)             121.2321         -DE/DX =    0.0                 !
 ! A10   A(3,4,5)              120.306          -DE/DX =    0.0                 !
 ! A11   A(3,4,9)              119.7244         -DE/DX =    0.0                 !
 ! A12   A(5,4,9)              119.2238         -DE/DX =    0.0                 !
 ! A13   A(4,5,6)              120.306          -DE/DX =    0.0                 !
 ! A14   A(4,5,10)             119.2238         -DE/DX =    0.0                 !
 ! A15   A(6,5,10)             119.7244         -DE/DX =    0.0                 !
 ! A16   A(1,6,5)              117.3748         -DE/DX =    0.0                 !
 ! A17   A(1,6,14)             118.8379         -DE/DX =    0.0                 !
 ! A18   A(5,6,14)             121.2321         -DE/DX =    0.0                 !
 ! A19   A(3,11,12)            112.8423         -DE/DX =    0.0                 !
 ! A20   A(3,11,13)            109.9284         -DE/DX =    0.0                 !
 ! A21   A(3,11,17)            109.6337         -DE/DX =    0.0                 !
 ! A22   A(12,11,13)           107.2915         -DE/DX =    0.0                 !
 ! A23   A(12,11,17)           108.1333         -DE/DX =    0.0                 !
 ! A24   A(13,11,17)           108.9096         -DE/DX =    0.0                 !
 ! A25   A(6,14,15)            112.8423         -DE/DX =    0.0                 !
 ! A26   A(6,14,16)            109.9284         -DE/DX =    0.0                 !
 ! A27   A(6,14,20)            109.6337         -DE/DX =    0.0                 !
 ! A28   A(15,14,16)           107.2915         -DE/DX =    0.0                 !
 ! A29   A(15,14,20)           108.1333         -DE/DX =    0.0                 !
 ! A30   A(16,14,20)           108.9096         -DE/DX =    0.0                 !
 ! A31   A(11,17,18)           108.2718         -DE/DX =    0.0                 !
 ! A32   A(11,17,19)           107.8434         -DE/DX =    0.0                 !
 ! A33   A(11,17,26)           113.5814         -DE/DX =    0.0                 !
 ! A34   A(18,17,19)           106.9074         -DE/DX =    0.0                 !
 ! A35   A(18,17,26)           111.0687         -DE/DX =    0.0                 !
 ! A36   A(19,17,26)           108.9094         -DE/DX =    0.0                 !
 ! A37   A(14,20,21)           107.8434         -DE/DX =    0.0                 !
 ! A38   A(14,20,22)           108.2718         -DE/DX =    0.0                 !
 ! A39   A(14,20,23)           113.5814         -DE/DX =    0.0                 !
 ! A40   A(21,20,22)           106.9074         -DE/DX =    0.0                 !
 ! A41   A(21,20,23)           108.9094         -DE/DX =    0.0                 !
 ! A42   A(22,20,23)           111.0687         -DE/DX =    0.0                 !
 ! A43   A(20,23,24)           119.2935         -DE/DX =    0.0                 !
 ! A44   A(20,23,25)           122.44           -DE/DX =    0.0                 !
 ! A45   A(24,23,25)           117.7248         -DE/DX =    0.0                 !
 ! A46   A(23,24,26)           122.5033         -DE/DX =    0.0                 !
 ! A47   A(23,24,27)           118.4982         -DE/DX =    0.0                 !
 ! A48   A(26,24,27)           118.4982         -DE/DX =    0.0                 !
 ! A49   A(23,25,28)           120.2846         -DE/DX =    0.0                 !
 ! A50   A(23,25,29)           119.9029         -DE/DX =    0.0                 !
 ! A51   A(28,25,29)           119.7983         -DE/DX =    0.0                 !
 ! A52   A(17,26,24)           119.2935         -DE/DX =    0.0                 !
 ! A53   A(17,26,30)           122.44           -DE/DX =    0.0                 !
 ! A54   A(24,26,30)           117.7248         -DE/DX =    0.0                 !
 ! A55   A(25,28,30)           120.5357         -DE/DX =    0.0                 !
 ! A56   A(25,28,31)           119.6962         -DE/DX =    0.0                 !
 ! A57   A(30,28,31)           119.6962         -DE/DX =    0.0                 !
 ! A58   A(26,30,28)           120.2846         -DE/DX =    0.0                 !
 ! A59   A(26,30,32)           119.9029         -DE/DX =    0.0                 !
 ! A60   A(28,30,32)           119.7983         -DE/DX =    0.0                 !
 ! D1    D(6,1,2,3)              0.0            -DE/DX =    0.0                 !
 ! D2    D(6,1,2,8)            169.6155         -DE/DX =    0.0                 !
 ! D3    D(7,1,2,3)           -169.6155         -DE/DX =    0.0                 !
 ! D4    D(7,1,2,8)              0.0            -DE/DX =    0.0                 !
 ! D5    D(2,1,6,5)             15.489          -DE/DX =    0.0                 !
 ! D6    D(2,1,6,14)          -146.6227         -DE/DX =    0.0                 !
 ! D7    D(7,1,6,5)           -174.9262         -DE/DX =    0.0                 !
 ! D8    D(7,1,6,14)            22.9621         -DE/DX =    0.0                 !
 ! D9    D(1,2,3,4)            -15.489          -DE/DX =    0.0                 !
 ! D10   D(1,2,3,11)           146.6227         -DE/DX =    0.0                 !
 ! D11   D(8,2,3,4)            174.9262         -DE/DX =    0.0                 !
 ! D12   D(8,2,3,11)           -22.9621         -DE/DX =    0.0                 !
 ! D13   D(2,3,4,5)             15.4646         -DE/DX =    0.0                 !
 ! D14   D(2,3,4,9)           -174.5034         -DE/DX =    0.0                 !
 ! D15   D(11,3,4,5)          -146.1942         -DE/DX =    0.0                 !
 ! D16   D(11,3,4,9)            23.8377         -DE/DX =    0.0                 !
 ! D17   D(2,3,11,12)          150.1185         -DE/DX =    0.0                 !
 ! D18   D(2,3,11,13)           30.3967         -DE/DX =    0.0                 !
 ! D19   D(2,3,11,17)          -89.2954         -DE/DX =    0.0                 !
 ! D20   D(4,3,11,12)          -48.4837         -DE/DX =    0.0                 !
 ! D21   D(4,3,11,13)         -168.2055         -DE/DX =    0.0                 !
 ! D22   D(4,3,11,17)           72.1024         -DE/DX =    0.0                 !
 ! D23   D(3,4,5,6)              0.0            -DE/DX =    0.0                 !
 ! D24   D(3,4,5,10)           170.0815         -DE/DX =    0.0                 !
 ! D25   D(9,4,5,6)           -170.0815         -DE/DX =    0.0                 !
 ! D26   D(9,4,5,10)             0.0            -DE/DX =    0.0                 !
 ! D27   D(4,5,6,1)            -15.4646         -DE/DX =    0.0                 !
 ! D28   D(4,5,6,14)           146.1942         -DE/DX =    0.0                 !
 ! D29   D(10,5,6,1)           174.5034         -DE/DX =    0.0                 !
 ! D30   D(10,5,6,14)          -23.8377         -DE/DX =    0.0                 !
 ! D31   D(1,6,14,15)         -150.1185         -DE/DX =    0.0                 !
 ! D32   D(1,6,14,16)          -30.3967         -DE/DX =    0.0                 !
 ! D33   D(1,6,14,20)           89.2954         -DE/DX =    0.0                 !
 ! D34   D(5,6,14,15)           48.4837         -DE/DX =    0.0                 !
 ! D35   D(5,6,14,16)          168.2055         -DE/DX =    0.0                 !
 ! D36   D(5,6,14,20)          -72.1024         -DE/DX =    0.0                 !
 ! D37   D(3,11,17,18)         161.5143         -DE/DX =    0.0                 !
 ! D38   D(3,11,17,19)         -83.1433         -DE/DX =    0.0                 !
 ! D39   D(3,11,17,26)          37.6526         -DE/DX =    0.0                 !
 ! D40   D(12,11,17,18)        -75.0823         -DE/DX =    0.0                 !
 ! D41   D(12,11,17,19)         40.2602         -DE/DX =    0.0                 !
 ! D42   D(12,11,17,26)        161.056          -DE/DX =    0.0                 !
 ! D43   D(13,11,17,18)         41.2002         -DE/DX =    0.0                 !
 ! D44   D(13,11,17,19)        156.5426         -DE/DX =    0.0                 !
 ! D45   D(13,11,17,26)        -82.6615         -DE/DX =    0.0                 !
 ! D46   D(6,14,20,21)          83.1433         -DE/DX =    0.0                 !
 ! D47   D(6,14,20,22)        -161.5143         -DE/DX =    0.0                 !
 ! D48   D(6,14,20,23)         -37.6526         -DE/DX =    0.0                 !
 ! D49   D(15,14,20,21)        -40.2602         -DE/DX =    0.0                 !
 ! D50   D(15,14,20,22)         75.0823         -DE/DX =    0.0                 !
 ! D51   D(15,14,20,23)       -161.056          -DE/DX =    0.0                 !
 ! D52   D(16,14,20,21)       -156.5426         -DE/DX =    0.0                 !
 ! D53   D(16,14,20,22)        -41.2002         -DE/DX =    0.0                 !
 ! D54   D(16,14,20,23)         82.6615         -DE/DX =    0.0                 !
 ! D55   D(11,17,26,24)        -85.8205         -DE/DX =    0.0                 !
 ! D56   D(11,17,26,30)         85.541          -DE/DX =    0.0                 !
 ! D57   D(18,17,26,24)        151.852          -DE/DX =    0.0                 !
 ! D58   D(18,17,26,30)        -36.7864         -DE/DX =    0.0                 !
 ! D59   D(19,17,26,24)         34.374          -DE/DX =    0.0                 !
 ! D60   D(19,17,26,30)       -154.2644         -DE/DX =    0.0                 !
 ! D61   D(14,20,23,24)         85.8205         -DE/DX =    0.0                 !
 ! D62   D(14,20,23,25)        -85.541          -DE/DX =    0.0                 !
 ! D63   D(21,20,23,24)        -34.374          -DE/DX =    0.0                 !
 ! D64   D(21,20,23,25)        154.2644         -DE/DX =    0.0                 !
 ! D65   D(22,20,23,24)       -151.852          -DE/DX =    0.0                 !
 ! D66   D(22,20,23,25)         36.7864         -DE/DX =    0.0                 !
 ! D67   D(20,23,24,26)       -161.3368         -DE/DX =    0.0                 !
 ! D68   D(20,23,24,27)         10.4217         -DE/DX =    0.0                 !
 ! D69   D(25,23,24,26)         10.43           -DE/DX =    0.0                 !
 ! D70   D(25,23,24,27)       -177.8114         -DE/DX =    0.0                 !
 ! D71   D(20,23,25,28)        168.6099         -DE/DX =    0.0                 !
 ! D72   D(20,23,25,29)        -10.0169         -DE/DX =    0.0                 !
 ! D73   D(24,23,25,28)         -2.8801         -DE/DX =    0.0                 !
 ! D74   D(24,23,25,29)        178.4931         -DE/DX =    0.0                 !
 ! D75   D(23,24,26,17)        161.3368         -DE/DX =    0.0                 !
 ! D76   D(23,24,26,30)        -10.43           -DE/DX =    0.0                 !
 ! D77   D(27,24,26,17)        -10.4217         -DE/DX =    0.0                 !
 ! D78   D(27,24,26,30)        177.8114         -DE/DX =    0.0                 !
 ! D79   D(23,25,28,30)         -4.2679         -DE/DX =    0.0                 !
 ! D80   D(23,25,28,31)        178.8234         -DE/DX =    0.0                 !
 ! D81   D(29,25,28,30)        174.3604         -DE/DX =    0.0                 !
 ! D82   D(29,25,28,31)         -2.5484         -DE/DX =    0.0                 !
 ! D83   D(17,26,30,28)       -168.6099         -DE/DX =    0.0                 !
 ! D84   D(17,26,30,32)         10.0169         -DE/DX =    0.0                 !
 ! D85   D(24,26,30,28)          2.8801         -DE/DX =    0.0                 !
 ! D86   D(24,26,30,32)       -178.4931         -DE/DX =    0.0                 !
 ! D87   D(25,28,30,26)          4.2679         -DE/DX =    0.0                 !
 ! D88   D(25,28,30,32)       -174.3604         -DE/DX =    0.0                 !
 ! D89   D(31,28,30,26)       -178.8234         -DE/DX =    0.0                 !
 ! D90   D(31,28,30,32)          2.5484         -DE/DX =    0.0                 !
 --------------------------------------------------------------------------------
 Largest change from initial coordinates is atom   22       0.000 Angstoms.
 GradGradGradGradGradGradGradGradGradGradGradGradGradGradGradGradGradGrad

 Leave Link  103 at Mon Jul 28 11:51:15 2025, MaxMem=   104857600 cpu:               2.1 elap:               0.1
 (Enter /opt/linux/rocky/8/software/gaussian/16c01_avx2/g16/l202.exe)
                          Input orientation:                          
 ---------------------------------------------------------------------
 Center     Atomic      Atomic             Coordinates (Angstroms)
 Number     Number       Type             X           Y           Z
 ---------------------------------------------------------------------
      1          6           0        0.965867    1.549295    0.696083
      2          6           0        0.965867    1.549295   -0.696083
      3          6           0        1.469349    0.451479   -1.406266
      4          6           0        2.256733   -0.467811   -0.698796
      5          6           0        2.256733   -0.467811    0.698796
      6          6           0        1.469349    0.451479    1.406266
      7          1           0        0.421488    2.326123    1.226572
      8          1           0        0.421488    2.326123   -1.226572
      9          1           0        2.741031   -1.284694   -1.230058
     10          1           0        2.741031   -1.284694    1.230058
     11          6           0        0.835217    0.085791   -2.729675
     12          1           0        1.541993   -0.381277   -3.425663
     13          1           0        0.444128    0.985294   -3.217533
     14          6           0        0.835217    0.085791    2.729675
     15          1           0        1.541993   -0.381277    3.425663
     16          1           0        0.444128    0.985294    3.217533
     17          6           0       -0.359685   -0.927274   -2.485953
     18          1           0       -1.001751   -0.921587   -3.374458
     19          1           0        0.064832   -1.934144   -2.406038
     20          6           0       -0.359685   -0.927274    2.485953
     21          1           0        0.064832   -1.934144    2.406038
     22          1           0       -1.001751   -0.921587    3.374458
     23          6           0       -1.163204   -0.629658    1.228496
     24          6           0       -0.730316   -1.146174   -0.000000
     25          6           0       -2.223552    0.285996    1.213323
     26          6           0       -1.163204   -0.629658   -1.228496
     27          1           0        0.065139   -1.882691    0.000000
     28          6           0       -2.776056    0.704262   -0.000000
     29          1           0       -2.604127    0.690437    2.148482
     30          6           0       -2.223552    0.285996   -1.213323
     31          1           0       -3.610796    1.400039   -0.000000
     32          1           0       -2.604127    0.690437   -2.148482
 ---------------------------------------------------------------------
                    Distance matrix (angstroms):
                    1          2          3          4          5
     1  C    0.000000
     2  C    1.392166   0.000000
     3  C    2.424575   1.401090   0.000000
     4  C    2.771415   2.394799   1.401992   0.000000
     5  C    2.394799   2.771415   2.428241   1.397592   0.000000
     6  C    1.401090   2.424575   2.812532   2.428241   1.401992
     7  H    1.086843   2.143925   3.397667   3.857621   3.384190
     8  H    2.143925   1.086843   2.155131   3.384190   3.857621
     9  H    3.859109   3.386419   2.159288   1.088155   2.149958
    10  H    3.386419   3.859109   3.403186   2.149958   1.088155
    11  C    3.727564   2.508866   1.512370   2.540010   3.752546
    12  H    4.587791   3.392586   2.185572   2.820310   4.186825
    13  H    3.988320   2.635909   2.148656   3.426527   4.553535
    14  C    2.508866   3.727564   4.200221   3.752546   2.540010
    15  H    3.392586   4.587791   4.903703   4.186825   2.820310
    16  H    2.635909   3.988320   4.766083   4.553535   3.426527
    17  C    4.244506   3.330783   2.532202   3.201668   4.147213
    18  H    5.152289   4.141312   3.444622   4.240613   5.235936
    19  H    4.750723   3.983737   2.943367   3.141534   4.073642
    20  C    3.330783   4.244506   4.516159   4.147213   3.201668
    21  H    3.983737   4.750723   4.711425   4.073642   3.141534
    22  H    4.141312   5.152289   5.554004   5.235936   4.240613
    23  C    3.092611   3.603440   3.878293   3.928946   3.464498
    24  C    3.259926   3.259926   3.060817   3.141807   3.141807
    25  C    3.469273   3.926086   4.530690   4.929238   4.572299
    26  C    3.603440   3.092611   2.851454   3.464498   3.928946
    27  H    3.615850   3.615850   3.065573   2.700608   2.700608
    28  C    3.898794   3.898794   4.479391   5.214503   5.214503
    29  H    3.948665   4.644787   5.411704   5.751217   5.202989
    30  C    3.926086   3.469273   3.701639   4.572299   4.929238
    31  H    4.631700   4.631700   5.355858   6.197183   6.197183
    32  H    4.644787   3.948665   4.147432   5.202989   5.751217
                    6          7          8          9         10
     6  C    0.000000
     7  H    2.155131   0.000000
     8  H    3.397667   2.453145   0.000000
     9  H    3.403186   4.945029   4.291654   0.000000
    10  H    2.159288   4.291654   4.945029   2.460116   0.000000
    11  C    4.200221   4.565321   2.729391   2.785535   4.603242
    12  H    4.903703   5.498076   3.663543   2.659800   4.891788
    13  H    4.766083   4.642026   2.400470   3.791921   5.496332
    14  C    1.512370   2.729391   4.565321   4.603242   2.785535
    15  H    2.185572   3.663543   5.498076   4.891788   2.659800
    16  H    2.148656   2.400470   4.642026   5.496332   3.791921
    17  C    4.516159   4.997766   3.575033   3.364441   4.852929
    18  H    5.554004   5.808847   4.145677   4.328824   5.944899
    19  H    4.711425   5.610075   4.434886   2.994454   4.561252
    20  C    2.532202   3.575033   4.997766   4.852929   3.364441
    21  H    2.943367   4.434886   5.610075   4.561252   2.994454
    22  H    3.444622   4.145677   5.808847   5.944899   4.328824
    23  C    2.851454   3.353787   4.156350   4.660108   3.958804
    24  C    3.060817   3.858494   3.858494   3.685441   3.685441
    25  C    3.701639   3.340439   4.136598   5.751892   5.207152
    26  C    3.878293   4.156350   3.353787   3.958804   4.660108
    27  H    3.065573   4.398361   4.398361   3.005168   3.005168
    28  C    4.479391   3.789353   3.789353   5.992265   5.992265
    29  H    4.147432   3.560861   4.818797   6.624680   5.771946
    30  C    4.530690   4.136598   3.340439   5.207152   5.751892
    31  H    5.355858   4.315254   4.315254   7.004751   7.004751
    32  H    5.411704   4.818797   3.560861   5.771946   6.624680
                   11         12         13         14         15
    11  C    0.000000
    12  H    1.096396   0.000000
    13  H    1.095473   1.765260   0.000000
    14  C    5.459350   6.213363   6.027548   0.000000
    15  H    6.213363   6.851327   6.870581   1.096396   0.000000
    16  H    6.027548   6.870581   6.435066   1.095473   1.765260
    17  C    1.585400   2.190331   2.199827   5.445812   6.233915
    18  H    2.192033   2.600998   2.398205   6.453658   7.280399
    19  H    2.185949   2.373402   3.053769   5.572179   6.213062
    20  C    5.445812   6.233915   6.069084   1.585400   2.190331
    21  H    5.572179   6.213062   6.347561   2.185949   2.373402
    22  H    6.453658   7.280399   7.012924   2.192033   2.600998
    23  C    4.491400   5.388969   4.995874   2.599826   3.493899
    24  C    3.379313   4.181342   4.034227   3.379313   4.181342
    25  C    4.994336   6.012053   5.219006   3.419865   4.418035
    26  C    2.599826   3.493899   3.024542   4.491400   5.388969
    27  H    3.452400   4.021257   4.326833   3.452400   4.021257
    28  C    4.568909   5.617750   4.560820   4.568909   5.617750
    29  H    5.999258   7.029223   6.178423   3.540124   4.468790
    30  C    3.419865   4.418035   3.409163   4.994336   6.012053
    31  H    5.380093   6.438904   5.192970   5.380093   6.438904
    32  H    3.540124   4.468790   3.243713   5.999258   7.029223
                   16         17         18         19         20
    16  H    0.000000
    17  C    6.069084   0.000000
    18  H    7.012924   1.096231   0.000000
    19  H    6.347561   1.095623   1.760883   0.000000
    20  C    2.199827   4.971905   5.895481   5.012542   0.000000
    21  H    3.053769   5.012542   5.964646   4.812076   1.095623
    22  H    2.398205   5.895481   6.748916   5.964646   1.096231
    23  C    3.024542   3.812000   4.615027   4.052110   1.521649
    24  C    4.034227   2.522944   3.392799   2.653710   2.522944
    25  C    3.409163   4.316326   4.898856   4.823433   2.562345
    26  C    4.995874   1.521649   2.171737   2.143913   3.812000
    27  H    4.326833   2.696898   3.667280   2.406588   2.696898
    28  C    4.560820   3.831543   4.144697   4.562987   3.831543
    29  H    3.243713   5.397452   5.972361   5.895373   2.787184
    30  C    5.219006   2.562345   2.760717   3.404158   4.316326
    31  H    5.192970   4.708085   4.856339   5.515074   4.708085
    32  H    6.178423   2.787184   2.582489   3.752080   5.397452
                   21         22         23         24         25
    21  H    0.000000
    22  H    1.760883   0.000000
    23  C    2.143913   2.171737   0.000000
    24  C    2.653710   3.392799   1.401208   0.000000
    25  C    3.404158   2.760717   1.401068   2.398545   0.000000
    26  C    4.052110   4.615027   2.456992   1.401208   2.815181
    27  H    2.406588   3.667280   2.141990   1.084069   3.378382
    28  C    4.562987   4.144697   2.426899   2.758472   1.397269
    29  H    3.752080   2.582489   2.159927   3.391207   1.087626
    30  C    4.823433   4.898856   2.815181   2.398545   2.426647
    31  H    5.515074   4.856339   3.408750   3.844524   2.153530
    32  H    5.895373   5.972361   3.901652   3.391207   3.407366
                   26         27         28         29         30
    26  C    0.000000
    27  H    2.141990   0.000000
    28  C    2.426899   3.842489   0.000000
    29  H    3.901652   4.285084   2.155394   0.000000
    30  C    1.401068   3.378382   1.397269   3.407366   0.000000
    31  H    3.408750   4.928369   1.086690   2.476467   2.153530
    32  H    2.159927   4.285084   2.155394   4.296963   1.087626
                   31         32
    31  H    0.000000
    32  H    2.476467   0.000000
 Stoichiometry    C16H16
 Framework group  CS[SG(C2H2),X(C14H14)]
 Deg. of freedom    47
 Full point group                 CS      NOp   2
 RotChk:  IX=0 Diff= 2.33D-15
 Largest Abelian subgroup         CS      NOp   2
 Largest concise Abelian subgroup CS      NOp   2
                         Standard orientation:                         
 ---------------------------------------------------------------------
 Center     Atomic      Atomic             Coordinates (Angstroms)
 Number     Number       Type             X           Y           Z
 ---------------------------------------------------------------------
      1          6           0        0.965867    1.549295    0.696083
      2          6           0        0.965867    1.549295   -0.696083
      3          6           0        1.469349    0.451479   -1.406266
      4          6           0        2.256733   -0.467812   -0.698796
      5          6           0        2.256733   -0.467812    0.698796
      6          6           0        1.469349    0.451479    1.406266
      7          1           0        0.421489    2.326123    1.226572
      8          1           0        0.421489    2.326123   -1.226572
      9          1           0        2.741031   -1.284695   -1.230058
     10          1           0        2.741031   -1.284695    1.230058
     11          6           0        0.835217    0.085791   -2.729675
     12          1           0        1.541993   -0.381278   -3.425663
     13          1           0        0.444129    0.985294   -3.217533
     14          6           0        0.835217    0.085791    2.729675
     15          1           0        1.541993   -0.381278    3.425663
     16          1           0        0.444129    0.985294    3.217533
     17          6           0       -0.359685   -0.927274   -2.485953
     18          1           0       -1.001751   -0.921587   -3.374458
     19          1           0        0.064832   -1.934144   -2.406038
     20          6           0       -0.359685   -0.927274    2.485953
     21          1           0        0.064832   -1.934144    2.406038
     22          1           0       -1.001751   -0.921587    3.374458
     23          6           0       -1.163204   -0.629657    1.228496
     24          6           0       -0.730316   -1.146174    0.000000
     25          6           0       -2.223552    0.285997    1.213323
     26          6           0       -1.163204   -0.629657   -1.228496
     27          1           0        0.065139   -1.882691   -0.000000
     28          6           0       -2.776056    0.704263    0.000000
     29          1           0       -2.604127    0.690438    2.148482
     30          6           0       -2.223552    0.285997   -1.213323
     31          1           0       -3.610795    1.400040    0.000000
     32          1           0       -2.604127    0.690438   -2.148482
 ---------------------------------------------------------------------
 Rotational constants (GHZ):           0.7544989           0.7042620           0.4678160
 Leave Link  202 at Mon Jul 28 11:51:15 2025, MaxMem=   104857600 cpu:               0.1 elap:               0.0
 (Enter /opt/linux/rocky/8/software/gaussian/16c01_avx2/g16/l601.exe)
 Copying SCF densities to generalized density rwf, IOpCl= 0 IROHF=0.

 **********************************************************************

            Population analysis using the SCF Density.

 **********************************************************************

 Orbital symmetries:
       Occupied  (A") (A') (A") (A') (A') (A") (A") (A') (A') (A')
                 (A") (A") (A') (A') (A") (A') (A') (A') (A") (A')
                 (A") (A') (A') (A") (A') (A") (A") (A') (A') (A")
                 (A') (A') (A') (A") (A") (A') (A') (A") (A') (A")
                 (A') (A') (A") (A") (A') (A') (A") (A') (A') (A")
                 (A") (A') (A') (A') (A") (A")
       Virtual   (A') (A") (A") (A') (A') (A") (A') (A') (A") (A')
                 (A") (A') (A') (A") (A') (A") (A") (A') (A') (A")
                 (A') (A") (A') (A") (A') (A") (A') (A") (A') (A")
                 (A') (A") (A') (A") (A") (A') (A") (A') (A') (A")
                 (A') (A') (A") (A') (A') (A") (A') (A') (A") (A")
                 (A') (A") (A') (A") (A') (A') (A") (A') (A") (A')
                 (A") (A') (A") (A") (A') (A") (A') (A') (A") (A')
                 (A') (A") (A') (A") (A") (A') (A") (A') (A") (A")
                 (A') (A') (A') (A") (A') (A') (A") (A") (A") (A')
                 (A') (A") (A') (A") (A") (A') (A") (A') (A") (A')
                 (A') (A") (A') (A") (A') (A') (A") (A') (A") (A")
                 (A') (A') (A") (A') (A") (A') (A") (A') (A') (A")
                 (A') (A') (A") (A") (A") (A') (A') (A") (A") (A')
                 (A') (A") (A") (A') (A') (A") (A') (A") (A') (A")
                 (A') (A') (A") (A') (A') (A") (A") (A') (A') (A')
                 (A") (A') (A') (A') (A") (A') (A") (A") (A") (A')
                 (A') (A') (A") (A") (A") (A') (A') (A") (A') (A")
                 (A') (A") (A") (A') (A') (A') (A") (A") (A") (A')
                 (A") (A') (A') (A") (A') (A') (A") (A') (A') (A")
                 (A') (A") (A") (A') (A') (A") (A') (A") (A") (A')
                 (A") (A') (A") (A") (A') (A") (A") (A') (A") (A")
                 (A") (A') (A') (A") (A') (A") (A") (A') (A') (A")
                 (A') (A") (A') (A") (A') (A') (A") (A") (A") (A')
                 (A') (A') (A') (A") (A') (A") (A") (A") (A') (A")
                 (A') (A') (A") (A") (A') (A") (A") (A') (A') (A")
                 (A') (A') (A") (A') (A') (A") (A') (A") (A') (A")
                 (A') (A") (A") (A')
 The electronic state is 1-A'.
 Alpha  occ. eigenvalues --  -10.19058 -10.19057 -10.18962 -10.18961 -10.18640
 Alpha  occ. eigenvalues --  -10.18640 -10.18446 -10.18445 -10.18163 -10.18150
 Alpha  occ. eigenvalues --  -10.18109 -10.17890 -10.17885 -10.17794 -10.17738
 Alpha  occ. eigenvalues --  -10.17227  -0.86101  -0.83982  -0.80666  -0.76286
 Alpha  occ. eigenvalues --   -0.74952  -0.73527  -0.72307  -0.68617  -0.64183
 Alpha  occ. eigenvalues --   -0.62077  -0.59739  -0.58734  -0.56104  -0.54854
 Alpha  occ. eigenvalues --   -0.49765  -0.48026  -0.46814  -0.46692  -0.44757
 Alpha  occ. eigenvalues --   -0.43545  -0.42724  -0.42283  -0.40915  -0.40623
 Alpha  occ. eigenvalues --   -0.39969  -0.38967  -0.38859  -0.36956  -0.35123
 Alpha  occ. eigenvalues --   -0.34817  -0.34689  -0.33191  -0.32348  -0.32299
 Alpha  occ. eigenvalues --   -0.32146  -0.30398  -0.23987  -0.23089  -0.22946
 Alpha  occ. eigenvalues --   -0.21721
 Alpha virt. eigenvalues --   -0.00835   0.00319   0.00559   0.00883   0.08973
 Alpha virt. eigenvalues --    0.10434   0.11208   0.11764   0.12333   0.13195
 Alpha virt. eigenvalues --    0.13738   0.15049   0.15784   0.16085   0.16626
 Alpha virt. eigenvalues --    0.17593   0.18751   0.18959   0.20082   0.20129
 Alpha virt. eigenvalues --    0.21112   0.21270   0.23033   0.23466   0.25410
 Alpha virt. eigenvalues --    0.26042   0.27016   0.28680   0.32833   0.33519
 Alpha virt. eigenvalues --    0.34265   0.34795   0.35511   0.35675   0.36452
 Alpha virt. eigenvalues --    0.37521   0.43721   0.46091   0.48213   0.50984
 Alpha virt. eigenvalues --    0.51720   0.51921   0.52945   0.53620   0.54090
 Alpha virt. eigenvalues --    0.54948   0.55717   0.57174   0.57652   0.57961
 Alpha virt. eigenvalues --    0.58710   0.58936   0.60379   0.61253   0.61407
 Alpha virt. eigenvalues --    0.62451   0.62483   0.63785   0.63984   0.65022
 Alpha virt. eigenvalues --    0.65104   0.66466   0.68050   0.71703   0.72154
 Alpha virt. eigenvalues --    0.72299   0.74247   0.76217   0.76900   0.77446
 Alpha virt. eigenvalues --    0.78698   0.79000   0.79623   0.81417   0.82036
 Alpha virt. eigenvalues --    0.82419   0.82980   0.83402   0.83557   0.84073
 Alpha virt. eigenvalues --    0.86040   0.87250   0.87617   0.88907   0.89210
 Alpha virt. eigenvalues --    0.89498   0.90909   0.92706   0.93368   0.93852
 Alpha virt. eigenvalues --    0.95389   0.95414   0.97086   0.98933   1.01437
 Alpha virt. eigenvalues --    1.02922   1.04129   1.04297   1.06815   1.06904
 Alpha virt. eigenvalues --    1.09971   1.12312   1.12434   1.13163   1.14496
 Alpha virt. eigenvalues --    1.19127   1.23502   1.24662   1.24830   1.27554
 Alpha virt. eigenvalues --    1.28704   1.32328   1.33538   1.35388   1.37275
 Alpha virt. eigenvalues --    1.38013   1.39891   1.39891   1.42842   1.43666
 Alpha virt. eigenvalues --    1.43800   1.44918   1.45240   1.47068   1.52583
 Alpha virt. eigenvalues --    1.54173   1.55988   1.60381   1.65841   1.67318
 Alpha virt. eigenvalues --    1.69389   1.71625   1.75434   1.76580   1.77332
 Alpha virt. eigenvalues --    1.78689   1.79616   1.79787   1.80091   1.81486
 Alpha virt. eigenvalues --    1.82274   1.85054   1.85332   1.86431   1.89215
 Alpha virt. eigenvalues --    1.89218   1.91760   1.92097   1.93412   1.94319
 Alpha virt. eigenvalues --    1.97189   1.97269   1.99065   2.00937   2.01098
 Alpha virt. eigenvalues --    2.01180   2.03327   2.04711   2.08796   2.08863
 Alpha virt. eigenvalues --    2.11436   2.11588   2.12001   2.12518   2.15125
 Alpha virt. eigenvalues --    2.16096   2.20382   2.20485   2.21754   2.23335
 Alpha virt. eigenvalues --    2.23494   2.23933   2.26442   2.27251   2.27380
 Alpha virt. eigenvalues --    2.29685   2.30848   2.32959   2.34123   2.34856
 Alpha virt. eigenvalues --    2.36123   2.37584   2.38176   2.39491   2.40818
 Alpha virt. eigenvalues --    2.42577   2.43569   2.44158   2.44281   2.45860
 Alpha virt. eigenvalues --    2.46657   2.48133   2.49866   2.50668   2.52184
 Alpha virt. eigenvalues --    2.53609   2.53678   2.54471   2.59121   2.60948
 Alpha virt. eigenvalues --    2.62077   2.62125   2.63448   2.63975   2.64000
 Alpha virt. eigenvalues --    2.65312   2.67149   2.67452   2.68345   2.70282
 Alpha virt. eigenvalues --    2.71351   2.72664   2.73685   2.76983   2.77078
 Alpha virt. eigenvalues --    2.81225   2.81881   2.83178   2.85986   2.86027
 Alpha virt. eigenvalues --    2.90480   2.91774   2.93241   2.93376   3.00772
 Alpha virt. eigenvalues --    3.06138   3.06774   3.08553   3.15884   3.19614
 Alpha virt. eigenvalues --    3.24460   3.25779   3.26157   3.26761   3.30172
 Alpha virt. eigenvalues --    3.30357   3.32115   3.32520   3.38626   3.42039
 Alpha virt. eigenvalues --    3.46791   3.48675   3.50110   3.50394   3.50458
 Alpha virt. eigenvalues --    3.52994   3.80448   3.83081   4.10689   4.15901
 Alpha virt. eigenvalues --    4.16419   4.25244   4.31033   4.31735   4.43164
 Alpha virt. eigenvalues --    4.47556   4.47999   4.49052   4.57186   4.66756
 Alpha virt. eigenvalues --    4.70806   4.74744   4.83705   4.85724
          Condensed to atoms (all electrons):
               1          2          3          4          5          6
     1  C    4.900848   0.498969  -0.035961  -0.047316  -0.036870   0.545984
     2  C    0.498969   4.900848   0.545984  -0.036870  -0.047316  -0.035961
     3  C   -0.035961   0.545984   4.758377   0.535728  -0.035140  -0.035259
     4  C   -0.047316  -0.036870   0.535728   4.943297   0.490271  -0.035140
     5  C   -0.036870  -0.047316  -0.035140   0.490271   4.943297   0.535728
     6  C    0.545984  -0.035961  -0.035259  -0.035140   0.535728   4.758377
     7  H    0.364025  -0.039646   0.004703   0.000484   0.005832  -0.044769
     8  H   -0.039646   0.364025  -0.044769   0.005832   0.000484   0.004703
     9  H    0.000540   0.005487  -0.046077   0.365821  -0.041387   0.004269
    10  H    0.005487   0.000540   0.004269  -0.041387   0.365821  -0.046077
    11  C    0.007010  -0.052163   0.377648  -0.059141   0.005581   0.000496
    12  H   -0.000236   0.004265  -0.026352  -0.004353  -0.000140  -0.000022
    13  H   -0.000061  -0.006129  -0.032515   0.005204  -0.000219  -0.000012
    14  C   -0.052163   0.007010   0.000496   0.005581  -0.059141   0.377648
    15  H    0.004265  -0.000236  -0.000022  -0.000140  -0.004353  -0.026352
    16  H   -0.006129  -0.000061  -0.000012  -0.000219   0.005204  -0.032515
    17  C    0.000095  -0.012814  -0.051316  -0.005397   0.000942   0.000200
    18  H   -0.000023   0.000310   0.005350   0.000129  -0.000004  -0.000005
    19  H    0.000005   0.000150  -0.005089   0.003515  -0.000276  -0.000013
    20  C   -0.012814   0.000095   0.000200   0.000942  -0.005397  -0.051316
    21  H    0.000150   0.000005  -0.000013  -0.000276   0.003515  -0.005089
    22  H    0.000310  -0.000023  -0.000005  -0.000004   0.000129   0.005350
    23  C    0.007615  -0.001607   0.000625  -0.000488  -0.006216  -0.012740
    24  C   -0.004210  -0.004210   0.001930  -0.003469  -0.003469   0.001930
    25  C    0.001707  -0.000439   0.000265   0.000026   0.000171  -0.003754
    26  C   -0.001607   0.007615  -0.012740  -0.006216  -0.000488   0.000625
    27  H   -0.000290  -0.000290  -0.001992   0.003447   0.003447  -0.001992
    28  C    0.000100   0.000100  -0.000110  -0.000014  -0.000014  -0.000110
    29  H   -0.000117  -0.000015   0.000004  -0.000000   0.000000   0.000109
    30  C   -0.000439   0.001707  -0.003754   0.000171   0.000026   0.000265
    31  H    0.000001   0.000001  -0.000002   0.000000   0.000000  -0.000002
    32  H   -0.000015  -0.000117   0.000109   0.000000  -0.000000   0.000004
               7          8          9         10         11         12
     1  C    0.364025  -0.039646   0.000540   0.005487   0.007010  -0.000236
     2  C   -0.039646   0.364025   0.005487   0.000540  -0.052163   0.004265
     3  C    0.004703  -0.044769  -0.046077   0.004269   0.377648  -0.026352
     4  C    0.000484   0.005832   0.365821  -0.041387  -0.059141  -0.004353
     5  C    0.005832   0.000484  -0.041387   0.365821   0.005581  -0.000140
     6  C   -0.044769   0.004703   0.004269  -0.046077   0.000496  -0.000022
     7  H    0.639673  -0.007174   0.000017  -0.000207  -0.000166   0.000003
     8  H   -0.007174   0.639673  -0.000207   0.000017  -0.009853   0.000081
     9  H    0.000017  -0.000207   0.645044  -0.006834  -0.007010   0.003830
    10  H   -0.000207   0.000017  -0.006834   0.645044  -0.000179  -0.000004
    11  C   -0.000166  -0.009853  -0.007010  -0.000179   5.023709   0.358241
    12  H    0.000003   0.000081   0.003830  -0.000004   0.358241   0.638193
    13  H   -0.000014   0.006366  -0.000004   0.000003   0.369173  -0.034185
    14  C   -0.009853  -0.000166  -0.000179  -0.007010   0.000010  -0.000000
    15  H    0.000081   0.000003  -0.000004   0.003830  -0.000000  -0.000000
    16  H    0.006366  -0.000014   0.000003  -0.000004  -0.000000  -0.000000
    17  C    0.000000   0.000278  -0.000411   0.000010   0.339690  -0.036370
    18  H   -0.000001  -0.000019  -0.000019  -0.000000  -0.035097   0.001526
    19  H   -0.000000   0.000004   0.000594  -0.000001  -0.034281  -0.007760
    20  C    0.000278   0.000000   0.000010  -0.000411  -0.000003  -0.000000
    21  H    0.000004  -0.000000  -0.000001   0.000594   0.000000  -0.000000
    22  H   -0.000019  -0.000001  -0.000000  -0.000019  -0.000000  -0.000000
    23  C   -0.000586  -0.000098  -0.000013   0.000316   0.000014  -0.000001
    24  C   -0.000155  -0.000155  -0.000456  -0.000456  -0.009801   0.000251
    25  C    0.001844  -0.000060   0.000001  -0.000000   0.000041  -0.000000
    26  C   -0.000098  -0.000586   0.000316  -0.000013  -0.044457   0.004512
    27  H   -0.000020  -0.000020   0.000518   0.000518   0.000268  -0.000062
    28  C    0.000266   0.000266  -0.000000  -0.000000   0.000064   0.000002
    29  H    0.000140  -0.000002  -0.000000   0.000000   0.000000   0.000000
    30  C   -0.000060   0.001844  -0.000000   0.000001  -0.001037  -0.000052
    31  H   -0.000007  -0.000007  -0.000000  -0.000000   0.000002  -0.000000
    32  H   -0.000002   0.000140   0.000000  -0.000000   0.000018  -0.000020
              13         14         15         16         17         18
     1  C   -0.000061  -0.052163   0.004265  -0.006129   0.000095  -0.000023
     2  C   -0.006129   0.007010  -0.000236  -0.000061  -0.012814   0.000310
     3  C   -0.032515   0.000496  -0.000022  -0.000012  -0.051316   0.005350
     4  C    0.005204   0.005581  -0.000140  -0.000219  -0.005397   0.000129
     5  C   -0.000219  -0.059141  -0.004353   0.005204   0.000942  -0.000004
     6  C   -0.000012   0.377648  -0.026352  -0.032515   0.000200  -0.000005
     7  H   -0.000014  -0.009853   0.000081   0.006366   0.000000  -0.000001
     8  H    0.006366  -0.000166   0.000003  -0.000014   0.000278  -0.000019
     9  H   -0.000004  -0.000179  -0.000004   0.000003  -0.000411  -0.000019
    10  H    0.000003  -0.007010   0.003830  -0.000004   0.000010  -0.000000
    11  C    0.369173   0.000010  -0.000000  -0.000000   0.339690  -0.035097
    12  H   -0.034185  -0.000000  -0.000000  -0.000000  -0.036370   0.001526
    13  H    0.632054  -0.000000  -0.000000   0.000000  -0.035924  -0.007162
    14  C   -0.000000   5.023709   0.358241   0.369173  -0.000003  -0.000000
    15  H   -0.000000   0.358241   0.638193  -0.034185  -0.000000  -0.000000
    16  H    0.000000   0.369173  -0.034185   0.632054   0.000000  -0.000000
    17  C   -0.035924  -0.000003  -0.000000   0.000000   5.060878   0.359810
    18  H   -0.007162  -0.000000  -0.000000  -0.000000   0.359810   0.635347
    19  H    0.005394   0.000000  -0.000000  -0.000000   0.366045  -0.034136
    20  C    0.000000   0.339690  -0.036370  -0.035924  -0.000183   0.000002
    21  H   -0.000000  -0.034281  -0.007760   0.005394   0.000002  -0.000000
    22  H   -0.000000  -0.035097   0.001526  -0.007162   0.000002  -0.000000
    23  C    0.000019  -0.044457   0.004512  -0.003818   0.006215  -0.000184
    24  C   -0.000039  -0.009801   0.000251  -0.000039  -0.048348   0.004010
    25  C   -0.000002  -0.001037  -0.000052   0.002207   0.000593  -0.000005
    26  C   -0.003818   0.000014  -0.000001   0.000019   0.363927  -0.027307
    27  H    0.000005   0.000268  -0.000062   0.000005  -0.010187   0.000101
    28  C   -0.000061   0.000064   0.000002  -0.000061   0.005911   0.000041
    29  H   -0.000000   0.000018  -0.000020   0.000265   0.000009  -0.000000
    30  C    0.002207   0.000041  -0.000000  -0.000002  -0.058106  -0.005528
    31  H    0.000000   0.000002  -0.000000   0.000000  -0.000186  -0.000002
    32  H    0.000265   0.000000   0.000000  -0.000000  -0.008374   0.004431
              19         20         21         22         23         24
     1  C    0.000005  -0.012814   0.000150   0.000310   0.007615  -0.004210
     2  C    0.000150   0.000095   0.000005  -0.000023  -0.001607  -0.004210
     3  C   -0.005089   0.000200  -0.000013  -0.000005   0.000625   0.001930
     4  C    0.003515   0.000942  -0.000276  -0.000004  -0.000488  -0.003469
     5  C   -0.000276  -0.005397   0.003515   0.000129  -0.006216  -0.003469
     6  C   -0.000013  -0.051316  -0.005089   0.005350  -0.012740   0.001930
     7  H   -0.000000   0.000278   0.000004  -0.000019  -0.000586  -0.000155
     8  H    0.000004   0.000000  -0.000000  -0.000001  -0.000098  -0.000155
     9  H    0.000594   0.000010  -0.000001  -0.000000  -0.000013  -0.000456
    10  H   -0.000001  -0.000411   0.000594  -0.000019   0.000316  -0.000456
    11  C   -0.034281  -0.000003   0.000000  -0.000000   0.000014  -0.009801
    12  H   -0.007760  -0.000000  -0.000000  -0.000000  -0.000001   0.000251
    13  H    0.005394   0.000000  -0.000000  -0.000000   0.000019  -0.000039
    14  C    0.000000   0.339690  -0.034281  -0.035097  -0.044457  -0.009801
    15  H   -0.000000  -0.036370  -0.007760   0.001526   0.004512   0.000251
    16  H   -0.000000  -0.035924   0.005394  -0.007162  -0.003818  -0.000039
    17  C    0.366045  -0.000183   0.000002   0.000002   0.006215  -0.048348
    18  H   -0.034136   0.000002  -0.000000  -0.000000  -0.000184   0.004010
    19  H    0.630956   0.000002  -0.000006  -0.000000   0.000073  -0.006624
    20  C    0.000002   5.060878   0.366045   0.359810   0.363927  -0.048348
    21  H   -0.000006   0.366045   0.630956  -0.034136  -0.030568  -0.006624
    22  H   -0.000000   0.359810  -0.034136   0.635347  -0.027307   0.004010
    23  C    0.000073   0.363927  -0.030568  -0.027307   4.735155   0.517671
    24  C   -0.006624  -0.048348  -0.006624   0.004010   0.517671   4.992789
    25  C   -0.000004  -0.058106   0.004630  -0.005528   0.539547  -0.042684
    26  C   -0.030568   0.006215   0.000073  -0.000184  -0.021419   0.517671
    27  H    0.005562  -0.010187   0.005562   0.000101  -0.047007   0.363285
    28  C   -0.000220   0.005911  -0.000220   0.000041  -0.020413  -0.051086
    29  H   -0.000000  -0.008374   0.000036   0.004431  -0.045470   0.005880
    30  C    0.004630   0.000593  -0.000004  -0.000005  -0.040460  -0.042684
    31  H    0.000003  -0.000186   0.000003  -0.000002   0.003633   0.001113
    32  H    0.000036   0.000009  -0.000000  -0.000000   0.000619   0.005880
              25         26         27         28         29         30
     1  C    0.001707  -0.001607  -0.000290   0.000100  -0.000117  -0.000439
     2  C   -0.000439   0.007615  -0.000290   0.000100  -0.000015   0.001707
     3  C    0.000265  -0.012740  -0.001992  -0.000110   0.000004  -0.003754
     4  C    0.000026  -0.006216   0.003447  -0.000014  -0.000000   0.000171
     5  C    0.000171  -0.000488   0.003447  -0.000014   0.000000   0.000026
     6  C   -0.003754   0.000625  -0.001992  -0.000110   0.000109   0.000265
     7  H    0.001844  -0.000098  -0.000020   0.000266   0.000140  -0.000060
     8  H   -0.000060  -0.000586  -0.000020   0.000266  -0.000002   0.001844
     9  H    0.000001   0.000316   0.000518  -0.000000  -0.000000  -0.000000
    10  H   -0.000000  -0.000013   0.000518  -0.000000   0.000000   0.000001
    11  C    0.000041  -0.044457   0.000268   0.000064   0.000000  -0.001037
    12  H   -0.000000   0.004512  -0.000062   0.000002   0.000000  -0.000052
    13  H   -0.000002  -0.003818   0.000005  -0.000061  -0.000000   0.002207
    14  C   -0.001037   0.000014   0.000268   0.000064   0.000018   0.000041
    15  H   -0.000052  -0.000001  -0.000062   0.000002  -0.000020  -0.000000
    16  H    0.002207   0.000019   0.000005  -0.000061   0.000265  -0.000002
    17  C    0.000593   0.363927  -0.010187   0.005911   0.000009  -0.058106
    18  H   -0.000005  -0.027307   0.000101   0.000041  -0.000000  -0.005528
    19  H   -0.000004  -0.030568   0.005562  -0.000220  -0.000000   0.004630
    20  C   -0.058106   0.006215  -0.010187   0.005911  -0.008374   0.000593
    21  H    0.004630   0.000073   0.005562  -0.000220   0.000036  -0.000004
    22  H   -0.005528  -0.000184   0.000101   0.000041   0.004431  -0.000005
    23  C    0.539547  -0.021419  -0.047007  -0.020413  -0.045470  -0.040460
    24  C   -0.042684   0.517671   0.363285  -0.051086   0.005880  -0.042684
    25  C    4.910068  -0.040460   0.006482   0.521303   0.364168  -0.041861
    26  C   -0.040460   4.735155  -0.047007  -0.020413   0.000619   0.539547
    27  H    0.006482  -0.047007   0.651380   0.000206  -0.000197   0.006482
    28  C    0.521303  -0.020413   0.000206   4.846745  -0.043745   0.521303
    29  H    0.364168   0.000619  -0.000197  -0.043745   0.651599   0.004740
    30  C   -0.041861   0.539547   0.006482   0.521303   0.004740   4.910068
    31  H   -0.038387   0.003633   0.000019   0.361884  -0.006024  -0.038387
    32  H    0.004740  -0.045470  -0.000197  -0.043745  -0.000193   0.364168
              31         32
     1  C    0.000001  -0.000015
     2  C    0.000001  -0.000117
     3  C   -0.000002   0.000109
     4  C    0.000000   0.000000
     5  C    0.000000  -0.000000
     6  C   -0.000002   0.000004
     7  H   -0.000007  -0.000002
     8  H   -0.000007   0.000140
     9  H   -0.000000   0.000000
    10  H   -0.000000  -0.000000
    11  C    0.000002   0.000018
    12  H   -0.000000  -0.000020
    13  H    0.000000   0.000265
    14  C    0.000002   0.000000
    15  H   -0.000000   0.000000
    16  H    0.000000  -0.000000
    17  C   -0.000186  -0.008374
    18  H   -0.000002   0.004431
    19  H    0.000003   0.000036
    20  C   -0.000186   0.000009
    21  H    0.000003  -0.000000
    22  H   -0.000002  -0.000000
    23  C    0.003633   0.000619
    24  C    0.001113   0.005880
    25  C   -0.038387   0.004740
    26  C    0.003633  -0.045470
    27  H    0.000019  -0.000197
    28  C    0.361884  -0.043745
    29  H   -0.006024  -0.000193
    30  C   -0.038387   0.364168
    31  H    0.640449  -0.006024
    32  H   -0.006024   0.651599
 Mulliken charges:
               1
     1  C   -0.099214
     2  C   -0.099214
     3  C    0.095439
     4  C   -0.120019
     5  C   -0.120019
     6  C    0.095439
     7  H    0.079060
     8  H    0.079060
     9  H    0.076151
    10  H    0.076151
    11  C   -0.228775
    12  H    0.098652
    13  H    0.099455
    14  C   -0.228775
    15  H    0.098652
    16  H    0.099455
    17  C   -0.236990
    18  H    0.098435
    19  H    0.102010
    20  C   -0.236990
    21  H    0.102010
    22  H    0.098435
    23  C    0.122910
    24  C   -0.134015
    25  C   -0.125412
    26  C    0.122910
    27  H    0.071855
    28  C   -0.084001
    29  H    0.072142
    30  C   -0.125412
    31  H    0.078475
    32  H    0.072142
 Sum of Mulliken charges =  -0.00000
 Mulliken charges with hydrogens summed into heavy atoms:
               1
     1  C   -0.020154
     2  C   -0.020154
     3  C    0.095439
     4  C   -0.043868
     5  C   -0.043868
     6  C    0.095439
    11  C   -0.030669
    14  C   -0.030669
    17  C   -0.036545
    20  C   -0.036545
    23  C    0.122910
    24  C   -0.062160
    25  C   -0.053270
    26  C    0.122910
    28  C   -0.005526
    30  C   -0.053270
 Electronic spatial extent (au):  <R**2>=           2718.6168
 Charge=             -0.0000 electrons
 Dipole moment (field-independent basis, Debye):
    X=             -0.1982    Y=             -0.2411    Z=              0.0000  Tot=              0.3121
 Quadrupole moment (field-independent basis, Debye-Ang):
   XX=            -97.3151   YY=            -92.5404   ZZ=            -86.6648
   XY=             -6.9257   XZ=              0.0000   YZ=              0.0000
 Traceless Quadrupole moment (field-independent basis, Debye-Ang):
   XX=             -5.1417   YY=             -0.3669   ZZ=              5.5086
   XY=             -6.9257   XZ=              0.0000   YZ=              0.0000
 Octapole moment (field-independent basis, Debye-Ang**2):
  XXX=             -9.0375  YYY=              0.9785  ZZZ=              0.0000  XYY=              1.2843
  XXY=             -0.3666  XXZ=              0.0000  XZZ=             -3.4708  YZZ=             -0.2723
  YYZ=              0.0000  XYZ=              0.0000
 Hexadecapole moment (field-independent basis, Debye-Ang**3):
 XXXX=          -1543.1810 YYYY=           -545.6818 ZZZZ=          -1666.8725 XXXY=            -68.1415
 XXXZ=             -0.0000 YYYX=            -20.3660 YYYZ=             -0.0000 ZZZX=             -0.0000
 ZZZY=             -0.0000 XXYY=           -345.6971 XXZZ=           -524.7497 YYZZ=           -371.2542
 XXYZ=             -0.0000 YYXZ=             -0.0000 ZZXY=            -17.1769
 N-N= 1.088327659719D+03 E-N=-3.610140303689D+03  KE= 6.132660328066D+02
 Symmetry A'   KE= 3.450717576854D+02
 Symmetry A"   KE= 2.681942751213D+02
 No NMR shielding tensors so no spin-rotation constants.
 Leave Link  601 at Mon Jul 28 11:51:15 2025, MaxMem=   104857600 cpu:               4.2 elap:               0.1
 (Enter /opt/linux/rocky/8/software/gaussian/16c01_avx2/g16/l9999.exe)
 Unable to Open any file for archive entry.
 1\1\GINC-A003\FOpt\RB3LYP\6-31G(d,p)\C16H16\DJO04747\28-Jul-2025\0\\#P
  opt=vtight freq rb3lyp/6-31g(d,p) integral=grid=ultrafine scf=conver=
 10\\Title Card Required\\0,1\C,0.9658667016,1.5492950699,0.6960828831\
 C,0.9658667016,1.5492950699,-0.6960828831\C,1.4693485062,0.4514789671,
 -1.4062659084\C,2.2567331979,-0.4678113544,-0.6987961364\C,2.256733197
 9,-0.4678113544,0.6987961364\C,1.4693485062,0.4514789671,1.4062659084\
 H,0.421487841,2.3261227823,1.2265723868\H,0.421487841,2.3261227823,-1.
 2265723868\H,2.7410309548,-1.2846943328,-1.2300577824\H,2.7410309548,-
 1.2846943328,1.2300577824\C,0.8352174121,0.0857911424,-2.7296751515\H,
 1.5419932105,-0.3812771866,-3.42566327\H,0.4441283004,0.985293709,-3.2
 17532809\C,0.8352174121,0.0857911424,2.7296751515\H,1.5419932105,-0.38
 12771866,3.42566327\H,0.4441283004,0.985293709,3.217532809\C,-0.359685
 0756,-0.9272739195,-2.4859525589\H,-1.0017507296,-0.9215869104,-3.3744
 578802\H,0.0648321605,-1.9341442498,-2.4060381718\C,-0.3596850756,-0.9
 272739195,2.4859525589\H,0.0648321605,-1.9341442498,2.4060381718\H,-1.
 0017507296,-0.9215869104,3.3744578802\C,-1.1632039179,-0.6296575533,1.
 2284960442\C,-0.7303158306,-1.1461740917,0.\C,-2.2235522848,0.28599602
 62,1.2133234898\C,-1.1632039179,-0.6296575533,-1.2284960442\H,0.065139
 4876,-1.8826911377,0.\C,-2.7760559652,0.7042624023,0.\H,-2.6041273649,
 0.6904370194,2.1484815561\C,-2.2235522848,0.2859960262,-1.2133234898\H
 ,-3.6107955202,1.4000393872,0.\H,-2.6041273649,0.6904370194,-2.1484815
 561\\Version=ES64L-G16RevC.01\State=1-A'\HF=-619.341347\RMSD=8.382e-11
 \RMSF=5.774e-07\Dipole=-0.0779618,-0.0948723,0.\Quadrupole=-3.8226966,
 -0.2728112,4.0955078,-5.1491203,0.,0.\PG=CS [SG(C2H2),X(C14H14)]\\@
 The archive entry for this job was punched.


 "WHERE SHALL I START, PLEASE YOUR MAJESTY?" HE ASKED.
 "BEGIN AT THE BEGINNING," THE KING SAID GRAVELY,
 "AND GO ON TILL YOU COME TO THE END: THEN STOP." 

                                      -- LEWIS CARROLL
 Leave Link 9999 at Mon Jul 28 11:51:15 2025, MaxMem=   104857600 cpu:               1.0 elap:               0.0
 Job cpu time:       0 days  0 hours 27 minutes  2.6 seconds.
 Elapsed time:       0 days  0 hours  0 minutes 47.3 seconds.
 File lengths (MBytes):  RWF=     63 Int=      0 D2E=      0 Chk=      9 Scr=      1
 Normal termination of Gaussian 16 at Mon Jul 28 11:51:15 2025.
 (Enter /opt/linux/rocky/8/software/gaussian/16c01_avx2/g16/l1.exe)
 Link1:  Proceeding to internal job step number  2.
 ----------------------------------------------------------------------
 #P Geom=AllCheck Guess=TCheck SCRF=Check GenChk RB3LYP/6-31G(d,p) Freq
 ----------------------------------------------------------------------
 1/7=1,10=4,29=7,30=1,38=1,40=1/1,3;
 2/12=2,40=1/2;
 3/5=1,6=6,7=101,11=2,14=-4,25=1,30=1,70=2,71=2,74=-5,75=-5,116=1,140=1/1,2,3;
 4/5=101/1;
 5/5=2,6=10,38=6,98=1/2;
 8/6=4,10=90,11=11/1;
 11/6=1,8=1,9=11,15=111,16=1/1,2,10;
 10/6=1/2;
 6/7=2,8=2,9=2,10=2,28=1/1;
 7/8=1,10=1,25=1/1,2,3,16;
 1/7=1,10=4,30=1/3;
 99//99;
 Leave Link    1 at Mon Jul 28 11:51:15 2025, MaxMem=   104857600 cpu:               0.8 elap:               0.0
 (Enter /opt/linux/rocky/8/software/gaussian/16c01_avx2/g16/l101.exe)
 Structure from the checkpoint file:  "metapara_b3lyp631gdp_vtight.chk"
 -------------------
 Title Card Required
 -------------------
 Charge =  0 Multiplicity = 1
 Redundant internal coordinates found in file.  (old form).
 C,0,0.9658667016,1.5492950699,0.6960828831
 C,0,0.9658667016,1.5492950699,-0.6960828831
 C,0,1.4693485062,0.4514789671,-1.4062659084
 C,0,2.2567331979,-0.4678113544,-0.6987961364
 C,0,2.2567331979,-0.4678113544,0.6987961364
 C,0,1.4693485062,0.4514789671,1.4062659084
 H,0,0.421487841,2.3261227823,1.2265723868
 H,0,0.421487841,2.3261227823,-1.2265723868
 H,0,2.7410309548,-1.2846943328,-1.2300577824
 H,0,2.7410309548,-1.2846943328,1.2300577824
 C,0,0.8352174121,0.0857911424,-2.7296751515
 H,0,1.5419932105,-0.3812771866,-3.42566327
 H,0,0.4441283004,0.985293709,-3.217532809
 C,0,0.8352174121,0.0857911424,2.7296751515
 H,0,1.5419932105,-0.3812771866,3.42566327
 H,0,0.4441283004,0.985293709,3.217532809
 C,0,-0.3596850756,-0.9272739195,-2.4859525589
 H,0,-1.0017507296,-0.9215869104,-3.3744578802
 H,0,0.0648321605,-1.9341442498,-2.4060381718
 C,0,-0.3596850756,-0.9272739195,2.4859525589
 H,0,0.0648321605,-1.9341442498,2.4060381718
 H,0,-1.0017507296,-0.9215869104,3.3744578802
 C,0,-1.1632039179,-0.6296575533,1.2284960442
 C,0,-0.7303158306,-1.1461740917,0.
 C,0,-2.2235522848,0.2859960262,1.2133234898
 C,0,-1.1632039179,-0.6296575533,-1.2284960442
 H,0,0.0651394876,-1.8826911377,0.
 C,0,-2.7760559652,0.7042624023,0.
 H,0,-2.6041273649,0.6904370194,2.1484815561
 C,0,-2.2235522848,0.2859960262,-1.2133234898
 H,0,-3.6107955202,1.4000393872,0.
 H,0,-2.6041273649,0.6904370194,-2.1484815561
 Recover connectivity data from disk.
 ITRead=  0  0  0  0  0  0  0  0  0  0  0  0  0  0  0  0  0  0  0  0
 ITRead=  0  0  0  0  0  0  0  0  0  0  0  0
 MicOpt= -1 -1 -1 -1 -1 -1 -1 -1 -1 -1 -1 -1 -1 -1 -1 -1 -1 -1 -1 -1
 MicOpt= -1 -1 -1 -1 -1 -1 -1 -1 -1 -1 -1 -1
 NAtoms=     32 NQM=       32 NQMF=       0 NMMI=      0 NMMIF=      0
                NMic=       0 NMicF=      0.
                    Isotopes and Nuclear Properties:
 (Nuclear quadrupole moments (NQMom) in fm**2, nuclear magnetic moments (NMagM)
  in nuclear magnetons)

  Atom         1           2           3           4           5           6           7           8           9          10
 IAtWgt=          12          12          12          12          12          12           1           1           1           1
 AtmWgt=  12.0000000  12.0000000  12.0000000  12.0000000  12.0000000  12.0000000   1.0078250   1.0078250   1.0078250   1.0078250
 NucSpn=           0           0           0           0           0           0           1           1           1           1
 AtZEff=   3.6000000   3.6000000   3.6000000   3.6000000   3.6000000   3.6000000   1.0000000   1.0000000   1.0000000   1.0000000
 NQMom=    0.0000000   0.0000000   0.0000000   0.0000000   0.0000000   0.0000000   0.0000000   0.0000000   0.0000000   0.0000000
 NMagM=    0.0000000   0.0000000   0.0000000   0.0000000   0.0000000   0.0000000   2.7928460   2.7928460   2.7928460   2.7928460
 AtZNuc=   6.0000000   6.0000000   6.0000000   6.0000000   6.0000000   6.0000000   1.0000000   1.0000000   1.0000000   1.0000000

  Atom        11          12          13          14          15          16          17          18          19          20
 IAtWgt=          12           1           1          12           1           1          12           1           1          12
 AtmWgt=  12.0000000   1.0078250   1.0078250  12.0000000   1.0078250   1.0078250  12.0000000   1.0078250   1.0078250  12.0000000
 NucSpn=           0           1           1           0           1           1           0           1           1           0
 AtZEff=   3.6000000   1.0000000   1.0000000   3.6000000   1.0000000   1.0000000   3.6000000   1.0000000   1.0000000   3.6000000
 NQMom=    0.0000000   0.0000000   0.0000000   0.0000000   0.0000000   0.0000000   0.0000000   0.0000000   0.0000000   0.0000000
 NMagM=    0.0000000   2.7928460   2.7928460   0.0000000   2.7928460   2.7928460   0.0000000   2.7928460   2.7928460   0.0000000
 AtZNuc=   6.0000000   1.0000000   1.0000000   6.0000000   1.0000000   1.0000000   6.0000000   1.0000000   1.0000000   6.0000000

  Atom        21          22          23          24          25          26          27          28          29          30
 IAtWgt=           1           1          12          12          12          12           1          12           1          12
 AtmWgt=   1.0078250   1.0078250  12.0000000  12.0000000  12.0000000  12.0000000   1.0078250  12.0000000   1.0078250  12.0000000
 NucSpn=           1           1           0           0           0           0           1           0           1           0
 AtZEff=   1.0000000   1.0000000   3.6000000   3.6000000   3.6000000   3.6000000   1.0000000   3.6000000   1.0000000   3.6000000
 NQMom=    0.0000000   0.0000000   0.0000000   0.0000000   0.0000000   0.0000000   0.0000000   0.0000000   0.0000000   0.0000000
 NMagM=    2.7928460   2.7928460   0.0000000   0.0000000   0.0000000   0.0000000   2.7928460   0.0000000   2.7928460   0.0000000
 AtZNuc=   1.0000000   1.0000000   6.0000000   6.0000000   6.0000000   6.0000000   1.0000000   6.0000000   1.0000000   6.0000000

  Atom        31          32
 IAtWgt=           1           1
 AtmWgt=   1.0078250   1.0078250
 NucSpn=           1           1
 AtZEff=   1.0000000   1.0000000
 NQMom=    0.0000000   0.0000000
 NMagM=    2.7928460   2.7928460
 AtZNuc=   1.0000000   1.0000000
 Leave Link  101 at Mon Jul 28 11:51:15 2025, MaxMem=   104857600 cpu:               2.3 elap:               0.1
 (Enter /opt/linux/rocky/8/software/gaussian/16c01_avx2/g16/l103.exe)

 GradGradGradGradGradGradGradGradGradGradGradGradGradGradGradGradGradGrad
 Berny optimization.
 Initialization pass.
                           ----------------------------
                           !    Initial Parameters    !
                           ! (Angstroms and Degrees)  !
 --------------------------                            --------------------------
 ! Name  Definition              Value          Derivative Info.                !
 --------------------------------------------------------------------------------
 ! R1    R(1,2)                  1.3922         calculate D2E/DX2 analytically  !
 ! R2    R(1,6)                  1.4011         calculate D2E/DX2 analytically  !
 ! R3    R(1,7)                  1.0868         calculate D2E/DX2 analytically  !
 ! R4    R(2,3)                  1.4011         calculate D2E/DX2 analytically  !
 ! R5    R(2,8)                  1.0868         calculate D2E/DX2 analytically  !
 ! R6    R(3,4)                  1.402          calculate D2E/DX2 analytically  !
 ! R7    R(3,11)                 1.5124         calculate D2E/DX2 analytically  !
 ! R8    R(4,5)                  1.3976         calculate D2E/DX2 analytically  !
 ! R9    R(4,9)                  1.0882         calculate D2E/DX2 analytically  !
 ! R10   R(5,6)                  1.402          calculate D2E/DX2 analytically  !
 ! R11   R(5,10)                 1.0882         calculate D2E/DX2 analytically  !
 ! R12   R(6,14)                 1.5124         calculate D2E/DX2 analytically  !
 ! R13   R(11,12)                1.0964         calculate D2E/DX2 analytically  !
 ! R14   R(11,13)                1.0955         calculate D2E/DX2 analytically  !
 ! R15   R(11,17)                1.5854         calculate D2E/DX2 analytically  !
 ! R16   R(14,15)                1.0964         calculate D2E/DX2 analytically  !
 ! R17   R(14,16)                1.0955         calculate D2E/DX2 analytically  !
 ! R18   R(14,20)                1.5854         calculate D2E/DX2 analytically  !
 ! R19   R(17,18)                1.0962         calculate D2E/DX2 analytically  !
 ! R20   R(17,19)                1.0956         calculate D2E/DX2 analytically  !
 ! R21   R(17,26)                1.5216         calculate D2E/DX2 analytically  !
 ! R22   R(20,21)                1.0956         calculate D2E/DX2 analytically  !
 ! R23   R(20,22)                1.0962         calculate D2E/DX2 analytically  !
 ! R24   R(20,23)                1.5216         calculate D2E/DX2 analytically  !
 ! R25   R(23,24)                1.4012         calculate D2E/DX2 analytically  !
 ! R26   R(23,25)                1.4011         calculate D2E/DX2 analytically  !
 ! R27   R(24,26)                1.4012         calculate D2E/DX2 analytically  !
 ! R28   R(24,27)                1.0841         calculate D2E/DX2 analytically  !
 ! R29   R(25,28)                1.3973         calculate D2E/DX2 analytically  !
 ! R30   R(25,29)                1.0876         calculate D2E/DX2 analytically  !
 ! R31   R(26,30)                1.4011         calculate D2E/DX2 analytically  !
 ! R32   R(28,30)                1.3973         calculate D2E/DX2 analytically  !
 ! R33   R(28,31)                1.0867         calculate D2E/DX2 analytically  !
 ! R34   R(30,32)                1.0876         calculate D2E/DX2 analytically  !
 ! A1    A(2,1,6)              120.4562         calculate D2E/DX2 analytically  !
 ! A2    A(2,1,7)              119.2158         calculate D2E/DX2 analytically  !
 ! A3    A(6,1,7)              119.5133         calculate D2E/DX2 analytically  !
 ! A4    A(1,2,3)              120.4562         calculate D2E/DX2 analytically  !
 ! A5    A(1,2,8)              119.2158         calculate D2E/DX2 analytically  !
 ! A6    A(3,2,8)              119.5133         calculate D2E/DX2 analytically  !
 ! A7    A(2,3,4)              117.3748         calculate D2E/DX2 analytically  !
 ! A8    A(2,3,11)             118.8379         calculate D2E/DX2 analytically  !
 ! A9    A(4,3,11)             121.2321         calculate D2E/DX2 analytically  !
 ! A10   A(3,4,5)              120.306          calculate D2E/DX2 analytically  !
 ! A11   A(3,4,9)              119.7244         calculate D2E/DX2 analytically  !
 ! A12   A(5,4,9)              119.2238         calculate D2E/DX2 analytically  !
 ! A13   A(4,5,6)              120.306          calculate D2E/DX2 analytically  !
 ! A14   A(4,5,10)             119.2238         calculate D2E/DX2 analytically  !
 ! A15   A(6,5,10)             119.7244         calculate D2E/DX2 analytically  !
 ! A16   A(1,6,5)              117.3748         calculate D2E/DX2 analytically  !
 ! A17   A(1,6,14)             118.8379         calculate D2E/DX2 analytically  !
 ! A18   A(5,6,14)             121.2321         calculate D2E/DX2 analytically  !
 ! A19   A(3,11,12)            112.8423         calculate D2E/DX2 analytically  !
 ! A20   A(3,11,13)            109.9284         calculate D2E/DX2 analytically  !
 ! A21   A(3,11,17)            109.6337         calculate D2E/DX2 analytically  !
 ! A22   A(12,11,13)           107.2915         calculate D2E/DX2 analytically  !
 ! A23   A(12,11,17)           108.1333         calculate D2E/DX2 analytically  !
 ! A24   A(13,11,17)           108.9096         calculate D2E/DX2 analytically  !
 ! A25   A(6,14,15)            112.8423         calculate D2E/DX2 analytically  !
 ! A26   A(6,14,16)            109.9284         calculate D2E/DX2 analytically  !
 ! A27   A(6,14,20)            109.6337         calculate D2E/DX2 analytically  !
 ! A28   A(15,14,16)           107.2915         calculate D2E/DX2 analytically  !
 ! A29   A(15,14,20)           108.1333         calculate D2E/DX2 analytically  !
 ! A30   A(16,14,20)           108.9096         calculate D2E/DX2 analytically  !
 ! A31   A(11,17,18)           108.2718         calculate D2E/DX2 analytically  !
 ! A32   A(11,17,19)           107.8434         calculate D2E/DX2 analytically  !
 ! A33   A(11,17,26)           113.5814         calculate D2E/DX2 analytically  !
 ! A34   A(18,17,19)           106.9074         calculate D2E/DX2 analytically  !
 ! A35   A(18,17,26)           111.0687         calculate D2E/DX2 analytically  !
 ! A36   A(19,17,26)           108.9094         calculate D2E/DX2 analytically  !
 ! A37   A(14,20,21)           107.8434         calculate D2E/DX2 analytically  !
 ! A38   A(14,20,22)           108.2718         calculate D2E/DX2 analytically  !
 ! A39   A(14,20,23)           113.5814         calculate D2E/DX2 analytically  !
 ! A40   A(21,20,22)           106.9074         calculate D2E/DX2 analytically  !
 ! A41   A(21,20,23)           108.9094         calculate D2E/DX2 analytically  !
 ! A42   A(22,20,23)           111.0687         calculate D2E/DX2 analytically  !
 ! A43   A(20,23,24)           119.2935         calculate D2E/DX2 analytically  !
 ! A44   A(20,23,25)           122.44           calculate D2E/DX2 analytically  !
 ! A45   A(24,23,25)           117.7248         calculate D2E/DX2 analytically  !
 ! A46   A(23,24,26)           122.5033         calculate D2E/DX2 analytically  !
 ! A47   A(23,24,27)           118.4982         calculate D2E/DX2 analytically  !
 ! A48   A(26,24,27)           118.4982         calculate D2E/DX2 analytically  !
 ! A49   A(23,25,28)           120.2846         calculate D2E/DX2 analytically  !
 ! A50   A(23,25,29)           119.9029         calculate D2E/DX2 analytically  !
 ! A51   A(28,25,29)           119.7983         calculate D2E/DX2 analytically  !
 ! A52   A(17,26,24)           119.2935         calculate D2E/DX2 analytically  !
 ! A53   A(17,26,30)           122.44           calculate D2E/DX2 analytically  !
 ! A54   A(24,26,30)           117.7248         calculate D2E/DX2 analytically  !
 ! A55   A(25,28,30)           120.5357         calculate D2E/DX2 analytically  !
 ! A56   A(25,28,31)           119.6962         calculate D2E/DX2 analytically  !
 ! A57   A(30,28,31)           119.6962         calculate D2E/DX2 analytically  !
 ! A58   A(26,30,28)           120.2846         calculate D2E/DX2 analytically  !
 ! A59   A(26,30,32)           119.9029         calculate D2E/DX2 analytically  !
 ! A60   A(28,30,32)           119.7983         calculate D2E/DX2 analytically  !
 ! D1    D(6,1,2,3)              0.0            calculate D2E/DX2 analytically  !
 ! D2    D(6,1,2,8)            169.6155         calculate D2E/DX2 analytically  !
 ! D3    D(7,1,2,3)           -169.6155         calculate D2E/DX2 analytically  !
 ! D4    D(7,1,2,8)              0.0            calculate D2E/DX2 analytically  !
 ! D5    D(2,1,6,5)             15.489          calculate D2E/DX2 analytically  !
 ! D6    D(2,1,6,14)          -146.6227         calculate D2E/DX2 analytically  !
 ! D7    D(7,1,6,5)           -174.9262         calculate D2E/DX2 analytically  !
 ! D8    D(7,1,6,14)            22.9621         calculate D2E/DX2 analytically  !
 ! D9    D(1,2,3,4)            -15.489          calculate D2E/DX2 analytically  !
 ! D10   D(1,2,3,11)           146.6227         calculate D2E/DX2 analytically  !
 ! D11   D(8,2,3,4)            174.9262         calculate D2E/DX2 analytically  !
 ! D12   D(8,2,3,11)           -22.9621         calculate D2E/DX2 analytically  !
 ! D13   D(2,3,4,5)             15.4646         calculate D2E/DX2 analytically  !
 ! D14   D(2,3,4,9)           -174.5034         calculate D2E/DX2 analytically  !
 ! D15   D(11,3,4,5)          -146.1942         calculate D2E/DX2 analytically  !
 ! D16   D(11,3,4,9)            23.8377         calculate D2E/DX2 analytically  !
 ! D17   D(2,3,11,12)          150.1185         calculate D2E/DX2 analytically  !
 ! D18   D(2,3,11,13)           30.3967         calculate D2E/DX2 analytically  !
 ! D19   D(2,3,11,17)          -89.2954         calculate D2E/DX2 analytically  !
 ! D20   D(4,3,11,12)          -48.4837         calculate D2E/DX2 analytically  !
 ! D21   D(4,3,11,13)         -168.2055         calculate D2E/DX2 analytically  !
 ! D22   D(4,3,11,17)           72.1024         calculate D2E/DX2 analytically  !
 ! D23   D(3,4,5,6)              0.0            calculate D2E/DX2 analytically  !
 ! D24   D(3,4,5,10)           170.0815         calculate D2E/DX2 analytically  !
 ! D25   D(9,4,5,6)           -170.0815         calculate D2E/DX2 analytically  !
 ! D26   D(9,4,5,10)             0.0            calculate D2E/DX2 analytically  !
 ! D27   D(4,5,6,1)            -15.4646         calculate D2E/DX2 analytically  !
 ! D28   D(4,5,6,14)           146.1942         calculate D2E/DX2 analytically  !
 ! D29   D(10,5,6,1)           174.5034         calculate D2E/DX2 analytically  !
 ! D30   D(10,5,6,14)          -23.8377         calculate D2E/DX2 analytically  !
 ! D31   D(1,6,14,15)         -150.1185         calculate D2E/DX2 analytically  !
 ! D32   D(1,6,14,16)          -30.3967         calculate D2E/DX2 analytically  !
 ! D33   D(1,6,14,20)           89.2954         calculate D2E/DX2 analytically  !
 ! D34   D(5,6,14,15)           48.4837         calculate D2E/DX2 analytically  !
 ! D35   D(5,6,14,16)          168.2055         calculate D2E/DX2 analytically  !
 ! D36   D(5,6,14,20)          -72.1024         calculate D2E/DX2 analytically  !
 ! D37   D(3,11,17,18)         161.5143         calculate D2E/DX2 analytically  !
 ! D38   D(3,11,17,19)         -83.1433         calculate D2E/DX2 analytically  !
 ! D39   D(3,11,17,26)          37.6526         calculate D2E/DX2 analytically  !
 ! D40   D(12,11,17,18)        -75.0823         calculate D2E/DX2 analytically  !
 ! D41   D(12,11,17,19)         40.2602         calculate D2E/DX2 analytically  !
 ! D42   D(12,11,17,26)        161.056          calculate D2E/DX2 analytically  !
 ! D43   D(13,11,17,18)         41.2002         calculate D2E/DX2 analytically  !
 ! D44   D(13,11,17,19)        156.5426         calculate D2E/DX2 analytically  !
 ! D45   D(13,11,17,26)        -82.6615         calculate D2E/DX2 analytically  !
 ! D46   D(6,14,20,21)          83.1433         calculate D2E/DX2 analytically  !
 ! D47   D(6,14,20,22)        -161.5143         calculate D2E/DX2 analytically  !
 ! D48   D(6,14,20,23)         -37.6526         calculate D2E/DX2 analytically  !
 ! D49   D(15,14,20,21)        -40.2602         calculate D2E/DX2 analytically  !
 ! D50   D(15,14,20,22)         75.0823         calculate D2E/DX2 analytically  !
 ! D51   D(15,14,20,23)       -161.056          calculate D2E/DX2 analytically  !
 ! D52   D(16,14,20,21)       -156.5426         calculate D2E/DX2 analytically  !
 ! D53   D(16,14,20,22)        -41.2002         calculate D2E/DX2 analytically  !
 ! D54   D(16,14,20,23)         82.6615         calculate D2E/DX2 analytically  !
 ! D55   D(11,17,26,24)        -85.8205         calculate D2E/DX2 analytically  !
 ! D56   D(11,17,26,30)         85.541          calculate D2E/DX2 analytically  !
 ! D57   D(18,17,26,24)        151.852          calculate D2E/DX2 analytically  !
 ! D58   D(18,17,26,30)        -36.7864         calculate D2E/DX2 analytically  !
 ! D59   D(19,17,26,24)         34.374          calculate D2E/DX2 analytically  !
 ! D60   D(19,17,26,30)       -154.2644         calculate D2E/DX2 analytically  !
 ! D61   D(14,20,23,24)         85.8205         calculate D2E/DX2 analytically  !
 ! D62   D(14,20,23,25)        -85.541          calculate D2E/DX2 analytically  !
 ! D63   D(21,20,23,24)        -34.374          calculate D2E/DX2 analytically  !
 ! D64   D(21,20,23,25)        154.2644         calculate D2E/DX2 analytically  !
 ! D65   D(22,20,23,24)       -151.852          calculate D2E/DX2 analytically  !
 ! D66   D(22,20,23,25)         36.7864         calculate D2E/DX2 analytically  !
 ! D67   D(20,23,24,26)       -161.3368         calculate D2E/DX2 analytically  !
 ! D68   D(20,23,24,27)         10.4217         calculate D2E/DX2 analytically  !
 ! D69   D(25,23,24,26)         10.43           calculate D2E/DX2 analytically  !
 ! D70   D(25,23,24,27)       -177.8114         calculate D2E/DX2 analytically  !
 ! D71   D(20,23,25,28)        168.6099         calculate D2E/DX2 analytically  !
 ! D72   D(20,23,25,29)        -10.0169         calculate D2E/DX2 analytically  !
 ! D73   D(24,23,25,28)         -2.8801         calculate D2E/DX2 analytically  !
 ! D74   D(24,23,25,29)        178.4931         calculate D2E/DX2 analytically  !
 ! D75   D(23,24,26,17)        161.3368         calculate D2E/DX2 analytically  !
 ! D76   D(23,24,26,30)        -10.43           calculate D2E/DX2 analytically  !
 ! D77   D(27,24,26,17)        -10.4217         calculate D2E/DX2 analytically  !
 ! D78   D(27,24,26,30)        177.8114         calculate D2E/DX2 analytically  !
 ! D79   D(23,25,28,30)         -4.2679         calculate D2E/DX2 analytically  !
 ! D80   D(23,25,28,31)        178.8234         calculate D2E/DX2 analytically  !
 ! D81   D(29,25,28,30)        174.3604         calculate D2E/DX2 analytically  !
 ! D82   D(29,25,28,31)         -2.5484         calculate D2E/DX2 analytically  !
 ! D83   D(17,26,30,28)       -168.6099         calculate D2E/DX2 analytically  !
 ! D84   D(17,26,30,32)         10.0169         calculate D2E/DX2 analytically  !
 ! D85   D(24,26,30,28)          2.8801         calculate D2E/DX2 analytically  !
 ! D86   D(24,26,30,32)       -178.4931         calculate D2E/DX2 analytically  !
 ! D87   D(25,28,30,26)          4.2679         calculate D2E/DX2 analytically  !
 ! D88   D(25,28,30,32)       -174.3604         calculate D2E/DX2 analytically  !
 ! D89   D(31,28,30,26)       -178.8234         calculate D2E/DX2 analytically  !
 ! D90   D(31,28,30,32)          2.5484         calculate D2E/DX2 analytically  !
 --------------------------------------------------------------------------------
 Trust Radius=3.00D-01 FncErr=1.00D-07 GrdErr=1.00D-07 EigMax=2.50D+02 EigMin=1.00D-04
 Number of steps in this run=      2 maximum allowed number of steps=      2.
 GradGradGradGradGradGradGradGradGradGradGradGradGradGradGradGradGradGrad

 Leave Link  103 at Mon Jul 28 11:51:15 2025, MaxMem=   104857600 cpu:               0.3 elap:               0.0
 (Enter /opt/linux/rocky/8/software/gaussian/16c01_avx2/g16/l202.exe)
                          Input orientation:                          
 ---------------------------------------------------------------------
 Center     Atomic      Atomic             Coordinates (Angstroms)
 Number     Number       Type             X           Y           Z
 ---------------------------------------------------------------------
      1          6           0        0.965867    1.549295    0.696083
      2          6           0        0.965867    1.549295   -0.696083
      3          6           0        1.469349    0.451479   -1.406266
      4          6           0        2.256733   -0.467811   -0.698796
      5          6           0        2.256733   -0.467811    0.698796
      6          6           0        1.469349    0.451479    1.406266
      7          1           0        0.421488    2.326123    1.226572
      8          1           0        0.421488    2.326123   -1.226572
      9          1           0        2.741031   -1.284694   -1.230058
     10          1           0        2.741031   -1.284694    1.230058
     11          6           0        0.835217    0.085791   -2.729675
     12          1           0        1.541993   -0.381277   -3.425663
     13          1           0        0.444128    0.985294   -3.217533
     14          6           0        0.835217    0.085791    2.729675
     15          1           0        1.541993   -0.381277    3.425663
     16          1           0        0.444128    0.985294    3.217533
     17          6           0       -0.359685   -0.927274   -2.485953
     18          1           0       -1.001751   -0.921587   -3.374458
     19          1           0        0.064832   -1.934144   -2.406038
     20          6           0       -0.359685   -0.927274    2.485953
     21          1           0        0.064832   -1.934144    2.406038
     22          1           0       -1.001751   -0.921587    3.374458
     23          6           0       -1.163204   -0.629658    1.228496
     24          6           0       -0.730316   -1.146174   -0.000000
     25          6           0       -2.223552    0.285996    1.213323
     26          6           0       -1.163204   -0.629658   -1.228496
     27          1           0        0.065139   -1.882691    0.000000
     28          6           0       -2.776056    0.704262   -0.000000
     29          1           0       -2.604127    0.690437    2.148482
     30          6           0       -2.223552    0.285996   -1.213323
     31          1           0       -3.610796    1.400039   -0.000000
     32          1           0       -2.604127    0.690437   -2.148482
 ---------------------------------------------------------------------
                    Distance matrix (angstroms):
                    1          2          3          4          5
     1  C    0.000000
     2  C    1.392166   0.000000
     3  C    2.424575   1.401090   0.000000
     4  C    2.771415   2.394799   1.401992   0.000000
     5  C    2.394799   2.771415   2.428241   1.397592   0.000000
     6  C    1.401090   2.424575   2.812532   2.428241   1.401992
     7  H    1.086843   2.143925   3.397667   3.857621   3.384190
     8  H    2.143925   1.086843   2.155131   3.384190   3.857621
     9  H    3.859109   3.386419   2.159288   1.088155   2.149958
    10  H    3.386419   3.859109   3.403186   2.149958   1.088155
    11  C    3.727564   2.508866   1.512370   2.540010   3.752546
    12  H    4.587791   3.392586   2.185572   2.820310   4.186825
    13  H    3.988320   2.635909   2.148656   3.426527   4.553535
    14  C    2.508866   3.727564   4.200221   3.752546   2.540010
    15  H    3.392586   4.587791   4.903703   4.186825   2.820310
    16  H    2.635909   3.988320   4.766083   4.553535   3.426527
    17  C    4.244506   3.330783   2.532202   3.201668   4.147213
    18  H    5.152289   4.141312   3.444622   4.240613   5.235936
    19  H    4.750723   3.983737   2.943367   3.141534   4.073642
    20  C    3.330783   4.244506   4.516159   4.147213   3.201668
    21  H    3.983737   4.750723   4.711425   4.073642   3.141534
    22  H    4.141312   5.152289   5.554004   5.235936   4.240613
    23  C    3.092611   3.603440   3.878293   3.928946   3.464498
    24  C    3.259926   3.259926   3.060817   3.141807   3.141807
    25  C    3.469273   3.926086   4.530690   4.929238   4.572299
    26  C    3.603440   3.092611   2.851454   3.464498   3.928946
    27  H    3.615850   3.615850   3.065573   2.700608   2.700608
    28  C    3.898794   3.898794   4.479391   5.214503   5.214503
    29  H    3.948665   4.644787   5.411704   5.751217   5.202989
    30  C    3.926086   3.469273   3.701639   4.572299   4.929238
    31  H    4.631700   4.631700   5.355858   6.197183   6.197183
    32  H    4.644787   3.948665   4.147432   5.202989   5.751217
                    6          7          8          9         10
     6  C    0.000000
     7  H    2.155131   0.000000
     8  H    3.397667   2.453145   0.000000
     9  H    3.403186   4.945029   4.291654   0.000000
    10  H    2.159288   4.291654   4.945029   2.460116   0.000000
    11  C    4.200221   4.565321   2.729391   2.785535   4.603242
    12  H    4.903703   5.498076   3.663543   2.659800   4.891788
    13  H    4.766083   4.642026   2.400470   3.791921   5.496332
    14  C    1.512370   2.729391   4.565321   4.603242   2.785535
    15  H    2.185572   3.663543   5.498076   4.891788   2.659800
    16  H    2.148656   2.400470   4.642026   5.496332   3.791921
    17  C    4.516159   4.997766   3.575033   3.364441   4.852929
    18  H    5.554004   5.808847   4.145677   4.328824   5.944899
    19  H    4.711425   5.610075   4.434886   2.994454   4.561252
    20  C    2.532202   3.575033   4.997766   4.852929   3.364441
    21  H    2.943367   4.434886   5.610075   4.561252   2.994454
    22  H    3.444622   4.145677   5.808847   5.944899   4.328824
    23  C    2.851454   3.353787   4.156350   4.660108   3.958804
    24  C    3.060817   3.858494   3.858494   3.685441   3.685441
    25  C    3.701639   3.340439   4.136598   5.751892   5.207152
    26  C    3.878293   4.156350   3.353787   3.958804   4.660108
    27  H    3.065573   4.398361   4.398361   3.005168   3.005168
    28  C    4.479391   3.789353   3.789353   5.992265   5.992265
    29  H    4.147432   3.560861   4.818797   6.624680   5.771946
    30  C    4.530690   4.136598   3.340439   5.207152   5.751892
    31  H    5.355858   4.315254   4.315254   7.004751   7.004751
    32  H    5.411704   4.818797   3.560861   5.771946   6.624680
                   11         12         13         14         15
    11  C    0.000000
    12  H    1.096396   0.000000
    13  H    1.095473   1.765260   0.000000
    14  C    5.459350   6.213363   6.027548   0.000000
    15  H    6.213363   6.851327   6.870581   1.096396   0.000000
    16  H    6.027548   6.870581   6.435066   1.095473   1.765260
    17  C    1.585400   2.190331   2.199827   5.445812   6.233915
    18  H    2.192033   2.600998   2.398205   6.453658   7.280399
    19  H    2.185949   2.373402   3.053769   5.572179   6.213062
    20  C    5.445812   6.233915   6.069084   1.585400   2.190331
    21  H    5.572179   6.213062   6.347561   2.185949   2.373402
    22  H    6.453658   7.280399   7.012924   2.192033   2.600998
    23  C    4.491400   5.388969   4.995874   2.599826   3.493899
    24  C    3.379313   4.181342   4.034227   3.379313   4.181342
    25  C    4.994336   6.012053   5.219006   3.419865   4.418035
    26  C    2.599826   3.493899   3.024542   4.491400   5.388969
    27  H    3.452400   4.021257   4.326833   3.452400   4.021257
    28  C    4.568909   5.617750   4.560820   4.568909   5.617750
    29  H    5.999258   7.029223   6.178423   3.540124   4.468790
    30  C    3.419865   4.418035   3.409163   4.994336   6.012053
    31  H    5.380093   6.438904   5.192970   5.380093   6.438904
    32  H    3.540124   4.468790   3.243713   5.999258   7.029223
                   16         17         18         19         20
    16  H    0.000000
    17  C    6.069084   0.000000
    18  H    7.012924   1.096231   0.000000
    19  H    6.347561   1.095623   1.760883   0.000000
    20  C    2.199827   4.971905   5.895481   5.012542   0.000000
    21  H    3.053769   5.012542   5.964646   4.812076   1.095623
    22  H    2.398205   5.895481   6.748916   5.964646   1.096231
    23  C    3.024542   3.812000   4.615027   4.052110   1.521649
    24  C    4.034227   2.522944   3.392799   2.653710   2.522944
    25  C    3.409163   4.316326   4.898856   4.823433   2.562345
    26  C    4.995874   1.521649   2.171737   2.143913   3.812000
    27  H    4.326833   2.696898   3.667280   2.406588   2.696898
    28  C    4.560820   3.831543   4.144697   4.562987   3.831543
    29  H    3.243713   5.397452   5.972361   5.895373   2.787184
    30  C    5.219006   2.562345   2.760717   3.404158   4.316326
    31  H    5.192970   4.708085   4.856339   5.515074   4.708085
    32  H    6.178423   2.787184   2.582489   3.752080   5.397452
                   21         22         23         24         25
    21  H    0.000000
    22  H    1.760883   0.000000
    23  C    2.143913   2.171737   0.000000
    24  C    2.653710   3.392799   1.401208   0.000000
    25  C    3.404158   2.760717   1.401068   2.398545   0.000000
    26  C    4.052110   4.615027   2.456992   1.401208   2.815181
    27  H    2.406588   3.667280   2.141990   1.084069   3.378382
    28  C    4.562987   4.144697   2.426899   2.758472   1.397269
    29  H    3.752080   2.582489   2.159927   3.391207   1.087626
    30  C    4.823433   4.898856   2.815181   2.398545   2.426647
    31  H    5.515074   4.856339   3.408750   3.844524   2.153530
    32  H    5.895373   5.972361   3.901652   3.391207   3.407366
                   26         27         28         29         30
    26  C    0.000000
    27  H    2.141990   0.000000
    28  C    2.426899   3.842489   0.000000
    29  H    3.901652   4.285084   2.155394   0.000000
    30  C    1.401068   3.378382   1.397269   3.407366   0.000000
    31  H    3.408750   4.928369   1.086690   2.476467   2.153530
    32  H    2.159927   4.285084   2.155394   4.296963   1.087626
                   31         32
    31  H    0.000000
    32  H    2.476467   0.000000
 Stoichiometry    C16H16
 Framework group  CS[SG(C2H2),X(C14H14)]
 Deg. of freedom    47
 Full point group                 CS      NOp   2
 RotChk:  IX=0 Diff= 8.21D-16
 Largest Abelian subgroup         CS      NOp   2
 Largest concise Abelian subgroup CS      NOp   2
                         Standard orientation:                         
 ---------------------------------------------------------------------
 Center     Atomic      Atomic             Coordinates (Angstroms)
 Number     Number       Type             X           Y           Z
 ---------------------------------------------------------------------
      1          6           0        0.965867    1.549295    0.696083
      2          6           0        0.965867    1.549295   -0.696083
      3          6           0        1.469349    0.451479   -1.406266
      4          6           0        2.256733   -0.467812   -0.698796
      5          6           0        2.256733   -0.467812    0.698796
      6          6           0        1.469349    0.451479    1.406266
      7          1           0        0.421489    2.326123    1.226572
      8          1           0        0.421489    2.326123   -1.226572
      9          1           0        2.741031   -1.284695   -1.230058
     10          1           0        2.741031   -1.284695    1.230058
     11          6           0        0.835217    0.085791   -2.729675
     12          1           0        1.541993   -0.381278   -3.425663
     13          1           0        0.444129    0.985294   -3.217533
     14          6           0        0.835217    0.085791    2.729675
     15          1           0        1.541993   -0.381278    3.425663
     16          1           0        0.444129    0.985294    3.217533
     17          6           0       -0.359685   -0.927274   -2.485953
     18          1           0       -1.001751   -0.921587   -3.374458
     19          1           0        0.064832   -1.934144   -2.406038
     20          6           0       -0.359685   -0.927274    2.485953
     21          1           0        0.064832   -1.934144    2.406038
     22          1           0       -1.001751   -0.921587    3.374458
     23          6           0       -1.163204   -0.629657    1.228496
     24          6           0       -0.730316   -1.146174    0.000000
     25          6           0       -2.223552    0.285997    1.213323
     26          6           0       -1.163204   -0.629657   -1.228496
     27          1           0        0.065139   -1.882691   -0.000000
     28          6           0       -2.776056    0.704263    0.000000
     29          1           0       -2.604127    0.690438    2.148482
     30          6           0       -2.223552    0.285997   -1.213323
     31          1           0       -3.610795    1.400040    0.000000
     32          1           0       -2.604127    0.690438   -2.148482
 ---------------------------------------------------------------------
 Rotational constants (GHZ):           0.7544989           0.7042620           0.4678160
 Leave Link  202 at Mon Jul 28 11:51:16 2025, MaxMem=   104857600 cpu:               0.2 elap:               0.0
 (Enter /opt/linux/rocky/8/software/gaussian/16c01_avx2/g16/l301.exe)
 Standard basis: 6-31G(d,p) (6D, 7F)
 Ernie: Thresh=  0.10000D-02 Tol=  0.10000D-05 Strict=F.
 There are   170 symmetry adapted cartesian basis functions of A'  symmetry.
 There are   150 symmetry adapted cartesian basis functions of A"  symmetry.
 There are   170 symmetry adapted basis functions of A'  symmetry.
 There are   150 symmetry adapted basis functions of A"  symmetry.
   320 basis functions,   560 primitive gaussians,   320 cartesian basis functions
    56 alpha electrons       56 beta electrons
       nuclear repulsion energy      1088.3276597194 Hartrees.
 IExCor=  402 DFT=T Ex+Corr=B3LYP ExCW=0 ScaHFX=  0.200000
 ScaDFX=  0.800000  0.720000  1.000000  0.810000 ScalE2=  1.000000  1.000000
 IRadAn=      5 IRanWt=     -1 IRanGd=            0 ICorTp=0 IEmpDi=  4
 NAtoms=   32 NActive=   32 NUniq=   18 SFac= 3.16D+00 NAtFMM=   60 NAOKFM=F Big=F
 Integral buffers will be    131072 words long.
 Raffenetti 2 integral format.
 Two-electron integral symmetry is turned on.
 Leave Link  301 at Mon Jul 28 11:51:16 2025, MaxMem=   104857600 cpu:               0.7 elap:               0.0
 (Enter /opt/linux/rocky/8/software/gaussian/16c01_avx2/g16/l302.exe)
 NPDir=0 NMtPBC=     1 NCelOv=     1 NCel=       1 NClECP=     1 NCelD=      1
         NCelK=      1 NCelE2=     1 NClLst=     1 CellRange=     0.0.
 One-electron integrals computed using PRISM.
 One-electron integral symmetry used in STVInt
 PrsmSu:  requested number of processors reduced to:  28 ShMem   1 Linda.
 NBasis=   320 RedAO= T EigKep=  4.49D-04  NBF=   170   150
 NBsUse=   320 1.00D-06 EigRej= -1.00D+00 NBFU=   170   150
 Precomputing XC quadrature grid using
 IXCGrd= 4 IRadAn=           5 IRanWt=          -1 IRanGd=           0 AccXCQ= 0.00D+00.
 Generated NRdTot=       0 NPtTot=           0 NUsed=           0 NTot=          32
 NSgBfM=   320   320   320   320   320 MxSgAt=    32 MxSgA2=    32.
 Leave Link  302 at Mon Jul 28 11:51:16 2025, MaxMem=   104857600 cpu:               5.4 elap:               0.2
 (Enter /opt/linux/rocky/8/software/gaussian/16c01_avx2/g16/l303.exe)
 DipDrv:  MaxL=1.
 Leave Link  303 at Mon Jul 28 11:51:16 2025, MaxMem=   104857600 cpu:               0.7 elap:               0.0
 (Enter /opt/linux/rocky/8/software/gaussian/16c01_avx2/g16/l401.exe)
 Initial guess from the checkpoint file:  "metapara_b3lyp631gdp_vtight.chk"
 B after Tr=    -0.000000    0.000000   -0.000000
         Rot=    1.000000   -0.000000    0.000000   -0.000000 Ang=   0.00 deg.
 Guess basis will be translated and rotated to current coordinates.
 JPrj=2 DoOrth=T DoCkMO=T.
 Initial guess orbital symmetries:
       Occupied  (A") (A') (A") (A') (A') (A") (A") (A') (A') (A')
                 (A") (A") (A') (A') (A") (A') (A') (A') (A") (A')
                 (A") (A') (A') (A") (A') (A") (A") (A') (A') (A")
                 (A') (A') (A') (A") (A") (A') (A') (A") (A') (A")
                 (A') (A') (A") (A") (A') (A') (A") (A') (A') (A")
                 (A") (A') (A') (A') (A") (A")
       Virtual   (A') (A") (A") (A') (A') (A") (A') (A') (A") (A')
                 (A") (A') (A') (A") (A') (A") (A") (A') (A') (A")
                 (A') (A") (A') (A") (A') (A") (A') (A") (A') (A")
                 (A') (A") (A') (A") (A") (A') (A") (A') (A') (A")
                 (A') (A') (A") (A') (A') (A") (A') (A') (A") (A")
                 (A') (A") (A') (A") (A') (A') (A") (A') (A") (A')
                 (A") (A') (A") (A") (A') (A") (A') (A') (A") (A')
                 (A') (A") (A') (A") (A") (A') (A") (A') (A") (A")
                 (A') (A') (A') (A") (A') (A') (A") (A") (A") (A')
                 (A') (A") (A') (A") (A") (A') (A") (A') (A") (A')
                 (A') (A") (A') (A") (A') (A') (A") (A') (A") (A")
                 (A') (A') (A") (A') (A") (A') (A") (A') (A') (A")
                 (A') (A') (A") (A") (A") (A') (A') (A") (A") (A')
                 (A') (A") (A") (A') (A') (A") (A') (A") (A') (A")
                 (A') (A') (A") (A') (A') (A") (A") (A') (A') (A')
                 (A") (A') (A') (A') (A") (A') (A") (A") (A") (A')
                 (A') (A') (A") (A") (A") (A') (A') (A") (A') (A")
                 (A') (A") (A") (A') (A') (A') (A") (A") (A") (A')
                 (A") (A') (A') (A") (A') (A') (A") (A') (A') (A")
                 (A') (A") (A") (A') (A') (A") (A') (A") (A") (A')
                 (A") (A') (A") (A") (A') (A") (A") (A') (A") (A")
                 (A") (A') (A') (A") (A') (A") (A") (A') (A') (A")
                 (A') (A") (A') (A") (A') (A') (A") (A") (A") (A')
                 (A') (A') (A') (A") (A') (A") (A") (A") (A') (A")
                 (A') (A') (A") (A") (A') (A") (A") (A') (A') (A")
                 (A') (A') (A") (A') (A') (A") (A') (A") (A') (A")
                 (A') (A") (A") (A')
 The electronic state of the initial guess is 1-A'.
 Leave Link  401 at Mon Jul 28 11:51:16 2025, MaxMem=   104857600 cpu:               4.3 elap:               0.1
 (Enter /opt/linux/rocky/8/software/gaussian/16c01_avx2/g16/l502.exe)
 Integral symmetry usage will be decided dynamically.
 Closed shell SCF:
 Using DIIS extrapolation, IDIIS=  1040.
 NGot=   104857600 LenX=   104636278 LenY=   104533437
 Requested convergence on RMS density matrix=1.00D-10 within 128 cycles.
 Requested convergence on MAX density matrix=1.00D-08.
 Requested convergence on             energy=1.00D-08.
 No special actions if energy rises.
 Fock matrices will be formed incrementally for  20 cycles.

 Cycle   1  Pass 1  IDiag  1:
 FoFJK:  IHMeth= 1 ICntrl=       0 DoSepK=F KAlg= 0 I1Cent=           0 FoldK=F
 IRaf= 910000000 NMat=       1 IRICut=       1 DoRegI=T DoRafI=F ISym2E= 1 IDoP0=0 IntGTp=1.
 FoFCou: FMM=F IPFlag=           0 FMFlag=      100000 FMFlg1=           0
         NFxFlg=           0 DoJE=F BraDBF=F KetDBF=F FulRan=T
         wScrn=  0.000000 ICntrl=         0 IOpCl=  0 I1Cent=           0 NGrid=           0
         NMat0=    1 NMatS0=      1 NMatT0=    0 NMatD0=    1 NMtDS0=    0 NMtDT0=    0
 Petite list used in FoFCou.
 E= -619.341347022561    
 DIIS: error= 2.70D-10 at cycle   1 NSaved=   1.
 NSaved= 1 IEnMin= 1 EnMin= -619.341347022561     IErMin= 1 ErrMin= 2.70D-10
 ErrMax= 2.70D-10  0.00D+00 EMaxC= 1.00D-01 BMatC= 2.58D-17 BMatP= 2.58D-17
 IDIUse=1 WtCom= 1.00D+00 WtEn= 0.00D+00
 Coeff-Com:  0.100D+01
 Coeff:      0.100D+01
 Gap=     0.209 Goal=   None    Shift=    0.000
 RMSDP=4.38D-11 MaxDP=1.48D-09              OVMax= 3.09D-09

 SCF Done:  E(RB3LYP) =  -619.341347023     A.U. after    1 cycles
            NFock=  1  Conv=0.44D-10     -V/T= 2.0099
 KE= 6.132660327713D+02 PE=-3.610140303654D+03 EE= 1.289205264140D+03
 Leave Link  502 at Mon Jul 28 11:51:17 2025, MaxMem=   104857600 cpu:              21.4 elap:               0.6
 (Enter /opt/linux/rocky/8/software/gaussian/16c01_avx2/g16/l801.exe)
 DoSCS=F DFT=T ScalE2(SS,OS)=  1.000000  1.000000
 Range of M.O.s used for correlation:     1   320
 NBasis=   320 NAE=    56 NBE=    56 NFC=     0 NFV=     0
 NROrb=    320 NOA=    56 NOB=    56 NVA=   264 NVB=   264
 Leave Link  801 at Mon Jul 28 11:51:17 2025, MaxMem=   104857600 cpu:               0.4 elap:               0.0
 (Enter /opt/linux/rocky/8/software/gaussian/16c01_avx2/g16/l1101.exe)
 Using compressed storage, NAtomX=    32.
 Will process     33 centers per pass.
 PrsmSu:  requested number of processors reduced to:  26 ShMem   1 Linda.
 PrsmSu:  requested number of processors reduced to:  14 ShMem   1 Linda.
 Leave Link 1101 at Mon Jul 28 11:51:18 2025, MaxMem=   104857600 cpu:               4.5 elap:               0.2
 (Enter /opt/linux/rocky/8/software/gaussian/16c01_avx2/g16/l1102.exe)
 Symmetrizing basis deriv contribution to polar:
 IMax=3 JMax=2 DiffMx= 0.00D+00
 Leave Link 1102 at Mon Jul 28 11:51:18 2025, MaxMem=   104857600 cpu:               0.7 elap:               0.0
 (Enter /opt/linux/rocky/8/software/gaussian/16c01_avx2/g16/l1110.exe)
 Forming Gx(P) for the SCF density, NAtomX=    32.
 Integral derivatives from FoFJK, PRISM(SPDF).
 Do as many integral derivatives as possible in FoFJK.
 G2DrvN: MDV=     104854168.
 G2DrvN: will do     3 centers at a time, making   11 passes.
 G2DrvN:  IPasSy=1 do centers    0 through    2.
 Calling FoFCou, ICntrl=  3107 FMM=F I1Cent=   0 AccDes= 0.00D+00.
 FoFJK:  IHMeth= 1 ICntrl=    3107 DoSepK=F KAlg= 0 I1Cent=           0 FoldK=F
 IRaf=         0 NMat=       1 IRICut=       1 DoRegI=T DoRafI=F ISym2E= 1 IDoP0=0 IntGTp=1.
 FoFCou: FMM=F IPFlag=           0 FMFlag=      100000 FMFlg1=           0
         NFxFlg=           0 DoJE=F BraDBF=F KetDBF=F FulRan=T
         wScrn=  0.000000 ICntrl=      3107 IOpCl=  0 I1Cent=           0 NGrid=           0
         NMat0=    1 NMatS0=      1 NMatT0=    0 NMatD0=    1 NMtDS0=    0 NMtDT0=    0
 Petite list used in FoFCou.
 G2DrvN:  IPasSy=1 do centers    3 through    5.
 Calling FoFCou, ICntrl=  3107 FMM=F I1Cent=   0 AccDes= 0.00D+00.
 G2DrvN:  IPasSy=1 do centers    6 through    8.
 Calling FoFCou, ICntrl=  3107 FMM=F I1Cent=   0 AccDes= 0.00D+00.
 G2DrvN:  IPasSy=1 do centers    9 through   11.
 Calling FoFCou, ICntrl=  3107 FMM=F I1Cent=   0 AccDes= 0.00D+00.
 G2DrvN:  IPasSy=1 do centers   12 through   14.
 Calling FoFCou, ICntrl=  3107 FMM=F I1Cent=   0 AccDes= 0.00D+00.
 G2DrvN:  IPasSy=1 do centers   15 through   17.
 Calling FoFCou, ICntrl=  3107 FMM=F I1Cent=   0 AccDes= 0.00D+00.
 G2DrvN:  IPasSy=1 do centers   18 through   20.
 Calling FoFCou, ICntrl=  3107 FMM=F I1Cent=   0 AccDes= 0.00D+00.
 G2DrvN:  IPasSy=1 do centers   21 through   23.
 Calling FoFCou, ICntrl=  3107 FMM=F I1Cent=   0 AccDes= 0.00D+00.
 G2DrvN:  IPasSy=1 do centers   24 through   26.
 Calling FoFCou, ICntrl=  3107 FMM=F I1Cent=   0 AccDes= 0.00D+00.
 G2DrvN:  IPasSy=1 do centers   27 through   29.
 Calling FoFCou, ICntrl=  3107 FMM=F I1Cent=   0 AccDes= 0.00D+00.
 G2DrvN:  IPasSy=1 do centers   30 through   32.
 Calling FoFCou, ICntrl=  3107 FMM=F I1Cent=   0 AccDes= 0.00D+00.
 OCSyFx:  MaxI=  33 MaxJ=  33 IndFxT=           0.
 G2DrvN:  IPasSy=2 do centers    0 through    2.
 G2DrvN:  IPasSy=2 do centers    3 through    5.
 G2DrvN:  IPasSy=2 do centers    6 through    8.
 G2DrvN:  IPasSy=2 do centers    9 through   11.
 G2DrvN:  IPasSy=2 do centers   12 through   14.
 G2DrvN:  IPasSy=2 do centers   15 through   17.
 G2DrvN:  IPasSy=2 do centers   18 through   20.
 G2DrvN:  IPasSy=2 do centers   21 through   23.
 G2DrvN:  IPasSy=2 do centers   24 through   26.
 G2DrvN:  IPasSy=2 do centers   27 through   29.
 G2DrvN:  IPasSy=2 do centers   30 through   32.
 End of G2Drv F.D. properties file   721 does not exist.
 End of G2Drv F.D. properties file   722 does not exist.
 End of G2Drv F.D. properties file   788 does not exist.
 Leave Link 1110 at Mon Jul 28 11:51:37 2025, MaxMem=   104857600 cpu:             689.8 elap:              19.3
 (Enter /opt/linux/rocky/8/software/gaussian/16c01_avx2/g16/l1002.exe)
 Minotr:  Closed shell wavefunction.
          IDoAtm=11111111111111111111111111111111
          Direct CPHF calculation.
          Differentiating once with respect to electric field.
                with respect to dipole field.
          Differentiating once with respect to nuclear coordinates.
          Using symmetry in CPHF.
          Requested convergence is 1.0D-08 RMS, and 1.0D-07 maximum.
          Secondary convergence is 1.0D-12 RMS, and 1.0D-12 maximum.
          NewPWx=T KeepS1=F KeepF1=F KeepIn=T MapXYZ=F SortEE=F KeepMc=T.
         9439 words used for storage of precomputed grid.
 Two-electron integrals replicated using symmetry.
          MDV=     104857600 using IRadAn=       1.
          Solving linear equations simultaneously, MaxMat=     360.
 FoF2E skips out because all densities are zero.
 CalDSu exits because no D1Ps are significant.
 FoFJK:  IHMeth= 1 ICntrl=       0 DoSepK=F KAlg= 0 I1Cent=           0 FoldK=F
 IRaf= 860000000 NMat=      11 IRICut=       1 DoRegI=T DoRafI=F ISym2E= 2 IDoP0=0 IntGTp=1.
 FoFCou: FMM=F IPFlag=           0 FMFlag=      100000 FMFlg1=           0
         NFxFlg=           0 DoJE=F BraDBF=F KetDBF=F FulRan=T
         wScrn=  0.000000 ICntrl=         0 IOpCl=  0 I1Cent=           0 NGrid=           0
         NMat0=   11 NMatS0=     11 NMatT0=    0 NMatD0=   11 NMtDS0=    0 NMtDT0=    0
 Integrals replicated using symmetry in FoFCou.
          There are    57 degrees of freedom in the 1st order CPHF.  IDoFFX=4 NUNeed=    57.
     57 vectors produced by pass  0 Test12= 2.59D-14 1.75D-09 XBig12= 2.47D+02 6.87D+00.
 AX will form    11 AO Fock derivatives at one time.
     57 vectors produced by pass  1 Test12= 2.59D-14 1.75D-09 XBig12= 8.90D+01 1.37D+00.
     57 vectors produced by pass  2 Test12= 2.59D-14 1.75D-09 XBig12= 1.66D+00 2.05D-01.
     57 vectors produced by pass  3 Test12= 2.59D-14 1.75D-09 XBig12= 1.76D-02 1.26D-02.
     57 vectors produced by pass  4 Test12= 2.59D-14 1.75D-09 XBig12= 9.34D-05 7.83D-04.
     57 vectors produced by pass  5 Test12= 2.59D-14 1.75D-09 XBig12= 1.95D-07 4.00D-05.
     25 vectors produced by pass  6 Test12= 2.59D-14 1.75D-09 XBig12= 2.80D-10 1.51D-06.
      3 vectors produced by pass  7 Test12= 2.59D-14 1.75D-09 XBig12= 5.02D-13 9.40D-08.
      1 vectors produced by pass  8 Test12= 2.59D-14 1.75D-09 XBig12= 8.99D-16 3.79D-09.
 InvSVY:  IOpt=1 It=  1 EMax= 3.63D-15
 Solved reduced A of dimension   371 with    57 vectors.
 FullF1:  Do perturbations      1 to      12.
 FullF1:  Do perturbations     13 to      24.
 FullF1:  Do perturbations     25 to      36.
 FullF1:  Do perturbations     37 to      48.
 FullF1:  Do perturbations     49 to      57.
 Isotropic polarizability for W=    0.000000      148.57 Bohr**3.
 End of Minotr F.D. properties file   721 does not exist.
 End of Minotr F.D. properties file   722 does not exist.
 End of Minotr F.D. properties file   788 does not exist.
 Leave Link 1002 at Mon Jul 28 11:52:27 2025, MaxMem=   104857600 cpu:            1768.1 elap:              49.4
 (Enter /opt/linux/rocky/8/software/gaussian/16c01_avx2/g16/l601.exe)
 Copying SCF densities to generalized density rwf, IOpCl= 0 IROHF=0.

 **********************************************************************

            Population analysis using the SCF Density.

 **********************************************************************

 Orbital symmetries:
       Occupied  (A") (A') (A") (A') (A') (A") (A") (A') (A') (A')
                 (A") (A") (A') (A') (A") (A') (A') (A') (A") (A')
                 (A") (A') (A') (A") (A') (A") (A") (A') (A') (A")
                 (A') (A') (A') (A") (A") (A') (A') (A") (A') (A")
                 (A') (A') (A") (A") (A') (A') (A") (A') (A') (A")
                 (A") (A') (A') (A') (A") (A")
       Virtual   (A') (A") (A") (A') (A') (A") (A') (A') (A") (A')
                 (A") (A') (A') (A") (A') (A") (A") (A') (A') (A")
                 (A') (A") (A') (A") (A') (A") (A') (A") (A') (A")
                 (A') (A") (A') (A") (A") (A') (A") (A') (A') (A")
                 (A') (A') (A") (A') (A') (A") (A') (A') (A") (A")
                 (A') (A") (A') (A") (A') (A') (A") (A') (A") (A')
                 (A") (A') (A") (A") (A') (A") (A') (A') (A") (A')
                 (A') (A") (A') (A") (A") (A') (A") (A') (A") (A")
                 (A') (A') (A') (A") (A') (A') (A") (A") (A") (A')
                 (A') (A") (A') (A") (A") (A') (A") (A') (A") (A')
                 (A') (A") (A') (A") (A') (A') (A") (A') (A") (A")
                 (A') (A') (A") (A') (A") (A') (A") (A') (A') (A")
                 (A') (A') (A") (A") (A") (A') (A') (A") (A") (A')
                 (A') (A") (A") (A') (A') (A") (A') (A") (A') (A")
                 (A') (A') (A") (A') (A') (A") (A") (A') (A') (A')
                 (A") (A') (A') (A') (A") (A') (A") (A") (A") (A')
                 (A') (A') (A") (A") (A") (A') (A') (A") (A') (A")
                 (A') (A") (A") (A') (A') (A') (A") (A") (A") (A')
                 (A") (A') (A') (A") (A') (A') (A") (A') (A') (A")
                 (A') (A") (A") (A') (A') (A") (A') (A") (A") (A')
                 (A") (A') (A") (A") (A') (A") (A") (A') (A") (A")
                 (A") (A') (A') (A") (A') (A") (A") (A') (A') (A")
                 (A') (A") (A') (A") (A') (A') (A") (A") (A") (A')
                 (A') (A') (A') (A") (A') (A") (A") (A") (A') (A")
                 (A') (A') (A") (A") (A') (A") (A") (A') (A') (A")
                 (A') (A') (A") (A') (A') (A") (A') (A") (A') (A")
                 (A') (A") (A") (A')
 The electronic state is 1-A'.
 Alpha  occ. eigenvalues --  -10.19058 -10.19057 -10.18962 -10.18961 -10.18640
 Alpha  occ. eigenvalues --  -10.18640 -10.18446 -10.18445 -10.18163 -10.18150
 Alpha  occ. eigenvalues --  -10.18109 -10.17890 -10.17885 -10.17794 -10.17738
 Alpha  occ. eigenvalues --  -10.17227  -0.86101  -0.83982  -0.80666  -0.76286
 Alpha  occ. eigenvalues --   -0.74952  -0.73527  -0.72307  -0.68617  -0.64183
 Alpha  occ. eigenvalues --   -0.62077  -0.59739  -0.58734  -0.56104  -0.54854
 Alpha  occ. eigenvalues --   -0.49765  -0.48026  -0.46814  -0.46692  -0.44757
 Alpha  occ. eigenvalues --   -0.43545  -0.42724  -0.42283  -0.40915  -0.40623
 Alpha  occ. eigenvalues --   -0.39969  -0.38967  -0.38859  -0.36956  -0.35123
 Alpha  occ. eigenvalues --   -0.34817  -0.34689  -0.33191  -0.32348  -0.32299
 Alpha  occ. eigenvalues --   -0.32146  -0.30398  -0.23987  -0.23089  -0.22946
 Alpha  occ. eigenvalues --   -0.21721
 Alpha virt. eigenvalues --   -0.00835   0.00319   0.00559   0.00883   0.08973
 Alpha virt. eigenvalues --    0.10434   0.11208   0.11764   0.12333   0.13195
 Alpha virt. eigenvalues --    0.13738   0.15049   0.15784   0.16085   0.16626
 Alpha virt. eigenvalues --    0.17593   0.18751   0.18959   0.20082   0.20129
 Alpha virt. eigenvalues --    0.21112   0.21270   0.23033   0.23466   0.25410
 Alpha virt. eigenvalues --    0.26042   0.27016   0.28680   0.32833   0.33519
 Alpha virt. eigenvalues --    0.34265   0.34795   0.35511   0.35675   0.36452
 Alpha virt. eigenvalues --    0.37521   0.43721   0.46091   0.48213   0.50984
 Alpha virt. eigenvalues --    0.51720   0.51921   0.52945   0.53620   0.54090
 Alpha virt. eigenvalues --    0.54948   0.55717   0.57174   0.57652   0.57961
 Alpha virt. eigenvalues --    0.58710   0.58936   0.60379   0.61253   0.61407
 Alpha virt. eigenvalues --    0.62451   0.62483   0.63785   0.63984   0.65022
 Alpha virt. eigenvalues --    0.65104   0.66466   0.68050   0.71703   0.72154
 Alpha virt. eigenvalues --    0.72299   0.74247   0.76217   0.76900   0.77446
 Alpha virt. eigenvalues --    0.78698   0.79000   0.79623   0.81417   0.82036
 Alpha virt. eigenvalues --    0.82419   0.82980   0.83402   0.83557   0.84073
 Alpha virt. eigenvalues --    0.86040   0.87250   0.87617   0.88907   0.89210
 Alpha virt. eigenvalues --    0.89498   0.90909   0.92706   0.93368   0.93852
 Alpha virt. eigenvalues --    0.95389   0.95414   0.97086   0.98933   1.01437
 Alpha virt. eigenvalues --    1.02922   1.04129   1.04297   1.06815   1.06904
 Alpha virt. eigenvalues --    1.09971   1.12312   1.12434   1.13163   1.14496
 Alpha virt. eigenvalues --    1.19127   1.23502   1.24662   1.24830   1.27554
 Alpha virt. eigenvalues --    1.28704   1.32328   1.33538   1.35388   1.37275
 Alpha virt. eigenvalues --    1.38013   1.39891   1.39891   1.42842   1.43666
 Alpha virt. eigenvalues --    1.43800   1.44918   1.45240   1.47068   1.52583
 Alpha virt. eigenvalues --    1.54173   1.55988   1.60381   1.65841   1.67318
 Alpha virt. eigenvalues --    1.69389   1.71625   1.75434   1.76580   1.77332
 Alpha virt. eigenvalues --    1.78689   1.79616   1.79787   1.80091   1.81486
 Alpha virt. eigenvalues --    1.82274   1.85054   1.85332   1.86431   1.89215
 Alpha virt. eigenvalues --    1.89218   1.91760   1.92097   1.93412   1.94319
 Alpha virt. eigenvalues --    1.97189   1.97269   1.99065   2.00937   2.01098
 Alpha virt. eigenvalues --    2.01180   2.03327   2.04711   2.08796   2.08863
 Alpha virt. eigenvalues --    2.11436   2.11588   2.12001   2.12518   2.15125
 Alpha virt. eigenvalues --    2.16096   2.20382   2.20485   2.21754   2.23335
 Alpha virt. eigenvalues --    2.23494   2.23933   2.26442   2.27251   2.27380
 Alpha virt. eigenvalues --    2.29685   2.30848   2.32959   2.34123   2.34856
 Alpha virt. eigenvalues --    2.36123   2.37584   2.38176   2.39491   2.40818
 Alpha virt. eigenvalues --    2.42577   2.43569   2.44158   2.44281   2.45860
 Alpha virt. eigenvalues --    2.46657   2.48133   2.49866   2.50668   2.52184
 Alpha virt. eigenvalues --    2.53609   2.53678   2.54471   2.59121   2.60948
 Alpha virt. eigenvalues --    2.62077   2.62125   2.63448   2.63975   2.64000
 Alpha virt. eigenvalues --    2.65312   2.67149   2.67452   2.68345   2.70282
 Alpha virt. eigenvalues --    2.71351   2.72664   2.73685   2.76983   2.77078
 Alpha virt. eigenvalues --    2.81225   2.81881   2.83178   2.85986   2.86027
 Alpha virt. eigenvalues --    2.90480   2.91774   2.93241   2.93376   3.00772
 Alpha virt. eigenvalues --    3.06138   3.06774   3.08553   3.15884   3.19614
 Alpha virt. eigenvalues --    3.24460   3.25779   3.26157   3.26761   3.30172
 Alpha virt. eigenvalues --    3.30357   3.32115   3.32520   3.38626   3.42039
 Alpha virt. eigenvalues --    3.46791   3.48675   3.50110   3.50394   3.50458
 Alpha virt. eigenvalues --    3.52994   3.80448   3.83081   4.10689   4.15901
 Alpha virt. eigenvalues --    4.16419   4.25244   4.31033   4.31735   4.43164
 Alpha virt. eigenvalues --    4.47556   4.47999   4.49052   4.57186   4.66756
 Alpha virt. eigenvalues --    4.70806   4.74744   4.83705   4.85724
          Condensed to atoms (all electrons):
               1          2          3          4          5          6
     1  C    4.900848   0.498969  -0.035961  -0.047316  -0.036870   0.545984
     2  C    0.498969   4.900848   0.545984  -0.036870  -0.047316  -0.035961
     3  C   -0.035961   0.545984   4.758377   0.535728  -0.035140  -0.035259
     4  C   -0.047316  -0.036870   0.535728   4.943297   0.490271  -0.035140
     5  C   -0.036870  -0.047316  -0.035140   0.490271   4.943297   0.535728
     6  C    0.545984  -0.035961  -0.035259  -0.035140   0.535728   4.758377
     7  H    0.364025  -0.039646   0.004703   0.000484   0.005832  -0.044769
     8  H   -0.039646   0.364025  -0.044769   0.005832   0.000484   0.004703
     9  H    0.000540   0.005487  -0.046077   0.365821  -0.041387   0.004269
    10  H    0.005487   0.000540   0.004269  -0.041387   0.365821  -0.046077
    11  C    0.007010  -0.052163   0.377648  -0.059141   0.005581   0.000496
    12  H   -0.000236   0.004265  -0.026352  -0.004353  -0.000140  -0.000022
    13  H   -0.000061  -0.006129  -0.032515   0.005204  -0.000219  -0.000012
    14  C   -0.052163   0.007010   0.000496   0.005581  -0.059141   0.377648
    15  H    0.004265  -0.000236  -0.000022  -0.000140  -0.004353  -0.026352
    16  H   -0.006129  -0.000061  -0.000012  -0.000219   0.005204  -0.032515
    17  C    0.000095  -0.012814  -0.051316  -0.005397   0.000942   0.000200
    18  H   -0.000023   0.000310   0.005350   0.000129  -0.000004  -0.000005
    19  H    0.000005   0.000150  -0.005089   0.003515  -0.000276  -0.000013
    20  C   -0.012814   0.000095   0.000200   0.000942  -0.005397  -0.051316
    21  H    0.000150   0.000005  -0.000013  -0.000276   0.003515  -0.005089
    22  H    0.000310  -0.000023  -0.000005  -0.000004   0.000129   0.005350
    23  C    0.007615  -0.001607   0.000625  -0.000488  -0.006216  -0.012740
    24  C   -0.004210  -0.004210   0.001930  -0.003469  -0.003469   0.001930
    25  C    0.001707  -0.000439   0.000265   0.000026   0.000171  -0.003754
    26  C   -0.001607   0.007615  -0.012740  -0.006216  -0.000488   0.000625
    27  H   -0.000290  -0.000290  -0.001992   0.003447   0.003447  -0.001992
    28  C    0.000100   0.000100  -0.000110  -0.000014  -0.000014  -0.000110
    29  H   -0.000117  -0.000015   0.000004  -0.000000   0.000000   0.000109
    30  C   -0.000439   0.001707  -0.003754   0.000171   0.000026   0.000265
    31  H    0.000001   0.000001  -0.000002   0.000000   0.000000  -0.000002
    32  H   -0.000015  -0.000117   0.000109   0.000000  -0.000000   0.000004
               7          8          9         10         11         12
     1  C    0.364025  -0.039646   0.000540   0.005487   0.007010  -0.000236
     2  C   -0.039646   0.364025   0.005487   0.000540  -0.052163   0.004265
     3  C    0.004703  -0.044769  -0.046077   0.004269   0.377648  -0.026352
     4  C    0.000484   0.005832   0.365821  -0.041387  -0.059141  -0.004353
     5  C    0.005832   0.000484  -0.041387   0.365821   0.005581  -0.000140
     6  C   -0.044769   0.004703   0.004269  -0.046077   0.000496  -0.000022
     7  H    0.639673  -0.007174   0.000017  -0.000207  -0.000166   0.000003
     8  H   -0.007174   0.639673  -0.000207   0.000017  -0.009853   0.000081
     9  H    0.000017  -0.000207   0.645044  -0.006834  -0.007010   0.003830
    10  H   -0.000207   0.000017  -0.006834   0.645044  -0.000179  -0.000004
    11  C   -0.000166  -0.009853  -0.007010  -0.000179   5.023709   0.358241
    12  H    0.000003   0.000081   0.003830  -0.000004   0.358241   0.638193
    13  H   -0.000014   0.006366  -0.000004   0.000003   0.369173  -0.034185
    14  C   -0.009853  -0.000166  -0.000179  -0.007010   0.000010  -0.000000
    15  H    0.000081   0.000003  -0.000004   0.003830  -0.000000  -0.000000
    16  H    0.006366  -0.000014   0.000003  -0.000004  -0.000000  -0.000000
    17  C    0.000000   0.000278  -0.000411   0.000010   0.339690  -0.036370
    18  H   -0.000001  -0.000019  -0.000019  -0.000000  -0.035097   0.001526
    19  H   -0.000000   0.000004   0.000594  -0.000001  -0.034281  -0.007760
    20  C    0.000278   0.000000   0.000010  -0.000411  -0.000003  -0.000000
    21  H    0.000004  -0.000000  -0.000001   0.000594   0.000000  -0.000000
    22  H   -0.000019  -0.000001  -0.000000  -0.000019  -0.000000  -0.000000
    23  C   -0.000586  -0.000098  -0.000013   0.000316   0.000014  -0.000001
    24  C   -0.000155  -0.000155  -0.000456  -0.000456  -0.009801   0.000251
    25  C    0.001844  -0.000060   0.000001  -0.000000   0.000041  -0.000000
    26  C   -0.000098  -0.000586   0.000316  -0.000013  -0.044457   0.004512
    27  H   -0.000020  -0.000020   0.000518   0.000518   0.000268  -0.000062
    28  C    0.000266   0.000266  -0.000000  -0.000000   0.000064   0.000002
    29  H    0.000140  -0.000002  -0.000000   0.000000   0.000000   0.000000
    30  C   -0.000060   0.001844  -0.000000   0.000001  -0.001037  -0.000052
    31  H   -0.000007  -0.000007  -0.000000  -0.000000   0.000002  -0.000000
    32  H   -0.000002   0.000140   0.000000  -0.000000   0.000018  -0.000020
              13         14         15         16         17         18
     1  C   -0.000061  -0.052163   0.004265  -0.006129   0.000095  -0.000023
     2  C   -0.006129   0.007010  -0.000236  -0.000061  -0.012814   0.000310
     3  C   -0.032515   0.000496  -0.000022  -0.000012  -0.051316   0.005350
     4  C    0.005204   0.005581  -0.000140  -0.000219  -0.005397   0.000129
     5  C   -0.000219  -0.059141  -0.004353   0.005204   0.000942  -0.000004
     6  C   -0.000012   0.377648  -0.026352  -0.032515   0.000200  -0.000005
     7  H   -0.000014  -0.009853   0.000081   0.006366   0.000000  -0.000001
     8  H    0.006366  -0.000166   0.000003  -0.000014   0.000278  -0.000019
     9  H   -0.000004  -0.000179  -0.000004   0.000003  -0.000411  -0.000019
    10  H    0.000003  -0.007010   0.003830  -0.000004   0.000010  -0.000000
    11  C    0.369173   0.000010  -0.000000  -0.000000   0.339690  -0.035097
    12  H   -0.034185  -0.000000  -0.000000  -0.000000  -0.036370   0.001526
    13  H    0.632054  -0.000000  -0.000000   0.000000  -0.035924  -0.007162
    14  C   -0.000000   5.023709   0.358241   0.369173  -0.000003  -0.000000
    15  H   -0.000000   0.358241   0.638193  -0.034185  -0.000000  -0.000000
    16  H    0.000000   0.369173  -0.034185   0.632054   0.000000  -0.000000
    17  C   -0.035924  -0.000003  -0.000000   0.000000   5.060878   0.359810
    18  H   -0.007162  -0.000000  -0.000000  -0.000000   0.359810   0.635347
    19  H    0.005394   0.000000  -0.000000  -0.000000   0.366045  -0.034136
    20  C    0.000000   0.339690  -0.036370  -0.035924  -0.000183   0.000002
    21  H   -0.000000  -0.034281  -0.007760   0.005394   0.000002  -0.000000
    22  H   -0.000000  -0.035097   0.001526  -0.007162   0.000002  -0.000000
    23  C    0.000019  -0.044457   0.004512  -0.003818   0.006215  -0.000184
    24  C   -0.000039  -0.009801   0.000251  -0.000039  -0.048348   0.004010
    25  C   -0.000002  -0.001037  -0.000052   0.002207   0.000593  -0.000005
    26  C   -0.003818   0.000014  -0.000001   0.000019   0.363927  -0.027307
    27  H    0.000005   0.000268  -0.000062   0.000005  -0.010187   0.000101
    28  C   -0.000061   0.000064   0.000002  -0.000061   0.005911   0.000041
    29  H   -0.000000   0.000018  -0.000020   0.000265   0.000009  -0.000000
    30  C    0.002207   0.000041  -0.000000  -0.000002  -0.058106  -0.005528
    31  H    0.000000   0.000002  -0.000000   0.000000  -0.000186  -0.000002
    32  H    0.000265   0.000000   0.000000  -0.000000  -0.008374   0.004431
              19         20         21         22         23         24
     1  C    0.000005  -0.012814   0.000150   0.000310   0.007615  -0.004210
     2  C    0.000150   0.000095   0.000005  -0.000023  -0.001607  -0.004210
     3  C   -0.005089   0.000200  -0.000013  -0.000005   0.000625   0.001930
     4  C    0.003515   0.000942  -0.000276  -0.000004  -0.000488  -0.003469
     5  C   -0.000276  -0.005397   0.003515   0.000129  -0.006216  -0.003469
     6  C   -0.000013  -0.051316  -0.005089   0.005350  -0.012740   0.001930
     7  H   -0.000000   0.000278   0.000004  -0.000019  -0.000586  -0.000155
     8  H    0.000004   0.000000  -0.000000  -0.000001  -0.000098  -0.000155
     9  H    0.000594   0.000010  -0.000001  -0.000000  -0.000013  -0.000456
    10  H   -0.000001  -0.000411   0.000594  -0.000019   0.000316  -0.000456
    11  C   -0.034281  -0.000003   0.000000  -0.000000   0.000014  -0.009801
    12  H   -0.007760  -0.000000  -0.000000  -0.000000  -0.000001   0.000251
    13  H    0.005394   0.000000  -0.000000  -0.000000   0.000019  -0.000039
    14  C    0.000000   0.339690  -0.034281  -0.035097  -0.044457  -0.009801
    15  H   -0.000000  -0.036370  -0.007760   0.001526   0.004512   0.000251
    16  H   -0.000000  -0.035924   0.005394  -0.007162  -0.003818  -0.000039
    17  C    0.366045  -0.000183   0.000002   0.000002   0.006215  -0.048348
    18  H   -0.034136   0.000002  -0.000000  -0.000000  -0.000184   0.004010
    19  H    0.630956   0.000002  -0.000006  -0.000000   0.000073  -0.006624
    20  C    0.000002   5.060878   0.366045   0.359810   0.363927  -0.048348
    21  H   -0.000006   0.366045   0.630956  -0.034136  -0.030568  -0.006624
    22  H   -0.000000   0.359810  -0.034136   0.635347  -0.027307   0.004010
    23  C    0.000073   0.363927  -0.030568  -0.027307   4.735155   0.517671
    24  C   -0.006624  -0.048348  -0.006624   0.004010   0.517671   4.992789
    25  C   -0.000004  -0.058106   0.004630  -0.005528   0.539547  -0.042684
    26  C   -0.030568   0.006215   0.000073  -0.000184  -0.021419   0.517671
    27  H    0.005562  -0.010187   0.005562   0.000101  -0.047007   0.363285
    28  C   -0.000220   0.005911  -0.000220   0.000041  -0.020413  -0.051086
    29  H   -0.000000  -0.008374   0.000036   0.004431  -0.045470   0.005880
    30  C    0.004630   0.000593  -0.000004  -0.000005  -0.040460  -0.042684
    31  H    0.000003  -0.000186   0.000003  -0.000002   0.003633   0.001113
    32  H    0.000036   0.000009  -0.000000  -0.000000   0.000619   0.005880
              25         26         27         28         29         30
     1  C    0.001707  -0.001607  -0.000290   0.000100  -0.000117  -0.000439
     2  C   -0.000439   0.007615  -0.000290   0.000100  -0.000015   0.001707
     3  C    0.000265  -0.012740  -0.001992  -0.000110   0.000004  -0.003754
     4  C    0.000026  -0.006216   0.003447  -0.000014  -0.000000   0.000171
     5  C    0.000171  -0.000488   0.003447  -0.000014   0.000000   0.000026
     6  C   -0.003754   0.000625  -0.001992  -0.000110   0.000109   0.000265
     7  H    0.001844  -0.000098  -0.000020   0.000266   0.000140  -0.000060
     8  H   -0.000060  -0.000586  -0.000020   0.000266  -0.000002   0.001844
     9  H    0.000001   0.000316   0.000518  -0.000000  -0.000000  -0.000000
    10  H   -0.000000  -0.000013   0.000518  -0.000000   0.000000   0.000001
    11  C    0.000041  -0.044457   0.000268   0.000064   0.000000  -0.001037
    12  H   -0.000000   0.004512  -0.000062   0.000002   0.000000  -0.000052
    13  H   -0.000002  -0.003818   0.000005  -0.000061  -0.000000   0.002207
    14  C   -0.001037   0.000014   0.000268   0.000064   0.000018   0.000041
    15  H   -0.000052  -0.000001  -0.000062   0.000002  -0.000020  -0.000000
    16  H    0.002207   0.000019   0.000005  -0.000061   0.000265  -0.000002
    17  C    0.000593   0.363927  -0.010187   0.005911   0.000009  -0.058106
    18  H   -0.000005  -0.027307   0.000101   0.000041  -0.000000  -0.005528
    19  H   -0.000004  -0.030568   0.005562  -0.000220  -0.000000   0.004630
    20  C   -0.058106   0.006215  -0.010187   0.005911  -0.008374   0.000593
    21  H    0.004630   0.000073   0.005562  -0.000220   0.000036  -0.000004
    22  H   -0.005528  -0.000184   0.000101   0.000041   0.004431  -0.000005
    23  C    0.539547  -0.021419  -0.047007  -0.020413  -0.045470  -0.040460
    24  C   -0.042684   0.517671   0.363285  -0.051086   0.005880  -0.042684
    25  C    4.910068  -0.040460   0.006482   0.521303   0.364168  -0.041861
    26  C   -0.040460   4.735155  -0.047007  -0.020413   0.000619   0.539547
    27  H    0.006482  -0.047007   0.651380   0.000206  -0.000197   0.006482
    28  C    0.521303  -0.020413   0.000206   4.846745  -0.043745   0.521303
    29  H    0.364168   0.000619  -0.000197  -0.043745   0.651599   0.004740
    30  C   -0.041861   0.539547   0.006482   0.521303   0.004740   4.910068
    31  H   -0.038387   0.003633   0.000019   0.361884  -0.006024  -0.038387
    32  H    0.004740  -0.045470  -0.000197  -0.043745  -0.000193   0.364168
              31         32
     1  C    0.000001  -0.000015
     2  C    0.000001  -0.000117
     3  C   -0.000002   0.000109
     4  C    0.000000   0.000000
     5  C    0.000000  -0.000000
     6  C   -0.000002   0.000004
     7  H   -0.000007  -0.000002
     8  H   -0.000007   0.000140
     9  H   -0.000000   0.000000
    10  H   -0.000000  -0.000000
    11  C    0.000002   0.000018
    12  H   -0.000000  -0.000020
    13  H    0.000000   0.000265
    14  C    0.000002   0.000000
    15  H   -0.000000   0.000000
    16  H    0.000000  -0.000000
    17  C   -0.000186  -0.008374
    18  H   -0.000002   0.004431
    19  H    0.000003   0.000036
    20  C   -0.000186   0.000009
    21  H    0.000003  -0.000000
    22  H   -0.000002  -0.000000
    23  C    0.003633   0.000619
    24  C    0.001113   0.005880
    25  C   -0.038387   0.004740
    26  C    0.003633  -0.045470
    27  H    0.000019  -0.000197
    28  C    0.361884  -0.043745
    29  H   -0.006024  -0.000193
    30  C   -0.038387   0.364168
    31  H    0.640449  -0.006024
    32  H   -0.006024   0.651599
 Mulliken charges:
               1
     1  C   -0.099214
     2  C   -0.099214
     3  C    0.095439
     4  C   -0.120019
     5  C   -0.120019
     6  C    0.095439
     7  H    0.079060
     8  H    0.079060
     9  H    0.076151
    10  H    0.076151
    11  C   -0.228775
    12  H    0.098652
    13  H    0.099455
    14  C   -0.228775
    15  H    0.098652
    16  H    0.099455
    17  C   -0.236990
    18  H    0.098435
    19  H    0.102010
    20  C   -0.236990
    21  H    0.102010
    22  H    0.098435
    23  C    0.122910
    24  C   -0.134015
    25  C   -0.125412
    26  C    0.122910
    27  H    0.071855
    28  C   -0.084001
    29  H    0.072142
    30  C   -0.125412
    31  H    0.078475
    32  H    0.072142
 Sum of Mulliken charges =  -0.00000
 Mulliken charges with hydrogens summed into heavy atoms:
               1
     1  C   -0.020154
     2  C   -0.020154
     3  C    0.095439
     4  C   -0.043868
     5  C   -0.043868
     6  C    0.095439
    11  C   -0.030669
    14  C   -0.030669
    17  C   -0.036545
    20  C   -0.036545
    23  C    0.122910
    24  C   -0.062160
    25  C   -0.053270
    26  C    0.122910
    28  C   -0.005526
    30  C   -0.053270
 APT charges:
               1
     1  C   -0.027480
     2  C   -0.027480
     3  C   -0.036690
     4  C   -0.035349
     5  C   -0.035349
     6  C   -0.036690
     7  H    0.022361
     8  H    0.022361
     9  H    0.016729
    10  H    0.016729
    11  C    0.166047
    12  H   -0.058608
    13  H   -0.039459
    14  C    0.166047
    15  H   -0.058608
    16  H   -0.039459
    17  C    0.126474
    18  H   -0.053578
    19  H   -0.038229
    20  C    0.126474
    21  H   -0.038229
    22  H   -0.053578
    23  C    0.036100
    24  C   -0.108406
    25  C   -0.055637
    26  C    0.036100
    27  H    0.025512
    28  C    0.008809
    29  H    0.012108
    30  C   -0.055637
    31  H    0.004510
    32  H    0.012108
 Sum of APT charges =   0.00000
 APT charges with hydrogens summed into heavy atoms:
               1
     1  C   -0.005119
     2  C   -0.005119
     3  C   -0.036690
     4  C   -0.018620
     5  C   -0.018620
     6  C   -0.036690
    11  C    0.067979
    14  C    0.067979
    17  C    0.034666
    20  C    0.034666
    23  C    0.036100
    24  C   -0.082894
    25  C   -0.043529
    26  C    0.036100
    28  C    0.013319
    30  C   -0.043529
 Electronic spatial extent (au):  <R**2>=           2718.6168
 Charge=              0.0000 electrons
 Dipole moment (field-independent basis, Debye):
    X=             -0.1982    Y=             -0.2411    Z=              0.0000  Tot=              0.3121
 Quadrupole moment (field-independent basis, Debye-Ang):
   XX=            -97.3151   YY=            -92.5404   ZZ=            -86.6648
   XY=             -6.9257   XZ=              0.0000   YZ=             -0.0000
 Traceless Quadrupole moment (field-independent basis, Debye-Ang):
   XX=             -5.1417   YY=             -0.3669   ZZ=              5.5086
   XY=             -6.9257   XZ=              0.0000   YZ=             -0.0000
 Octapole moment (field-independent basis, Debye-Ang**2):
  XXX=             -9.0375  YYY=              0.9785  ZZZ=             -0.0000  XYY=              1.2843
  XXY=             -0.3666  XXZ=             -0.0000  XZZ=             -3.4708  YZZ=             -0.2723
  YYZ=             -0.0000  XYZ=             -0.0000
 Hexadecapole moment (field-independent basis, Debye-Ang**3):
 XXXX=          -1543.1810 YYYY=           -545.6818 ZZZZ=          -1666.8725 XXXY=            -68.1415
 XXXZ=             -0.0000 YYYX=            -20.3660 YYYZ=             -0.0000 ZZZX=             -0.0000
 ZZZY=              0.0000 XXYY=           -345.6971 XXZZ=           -524.7497 YYZZ=           -371.2542
 XXYZ=              0.0000 YYXZ=             -0.0000 ZZXY=            -17.1769
 N-N= 1.088327659719D+03 E-N=-3.610140303528D+03  KE= 6.132660327713D+02
 Symmetry A'   KE= 3.450717576709D+02
 Symmetry A"   KE= 2.681942751004D+02
  Exact polarizability:     136.371     -31.379     121.937       0.000       0.000     187.415
 Approx polarizability:     213.394     -76.163     224.580       0.000       0.000     324.245
 No NMR shielding tensors so no spin-rotation constants.
 Leave Link  601 at Mon Jul 28 11:52:30 2025, MaxMem=   104857600 cpu:              60.0 elap:               2.6
 (Enter /opt/linux/rocky/8/software/gaussian/16c01_avx2/g16/l701.exe)
 ... and contract with generalized density number  0.
 Compute integral second derivatives.
 PrsmSu:  requested number of processors reduced to:  28 ShMem   1 Linda.
 PrsmSu:  requested number of processors reduced to:  29 ShMem   1 Linda.
 Leave Link  701 at Mon Jul 28 11:52:31 2025, MaxMem=   104857600 cpu:              33.9 elap:               1.5
 (Enter /opt/linux/rocky/8/software/gaussian/16c01_avx2/g16/l702.exe)
 L702 exits ... SP integral derivatives will be done elsewhere.
 Leave Link  702 at Mon Jul 28 11:52:31 2025, MaxMem=   104857600 cpu:               0.4 elap:               0.0
 (Enter /opt/linux/rocky/8/software/gaussian/16c01_avx2/g16/l703.exe)
 Integral derivatives from FoFJK, PRISM(SPDF).
 Compute integral second derivatives, UseDBF=F ICtDFT=           0.
 Calling FoFJK, ICntrl=    100127 FMM=F ISym2X=1 I1Cent= 0 IOpClX= 0 NMat=1 NMatS=1 NMatT=0.
 FoFJK:  IHMeth= 1 ICntrl=  100127 DoSepK=F KAlg= 0 I1Cent=           0 FoldK=F
 IRaf=         0 NMat=       1 IRICut=       1 DoRegI=T DoRafI=F ISym2E= 1 IDoP0=0 IntGTp=1.
 FoFCou: FMM=F IPFlag=           0 FMFlag=      100000 FMFlg1=         800
         NFxFlg=           0 DoJE=F BraDBF=F KetDBF=F FulRan=T
         wScrn=  0.000000 ICntrl=    100127 IOpCl=  0 I1Cent=           0 NGrid=           0
         NMat0=    1 NMatS0=      1 NMatT0=    0 NMatD0=    1 NMtDS0=    0 NMtDT0=    0
 Petite list used in FoFCou.
 CoulSu:  requested number of processors reduced to:  29 ShMem   1 Linda.
 Leave Link  703 at Mon Jul 28 11:52:48 2025, MaxMem=   104857600 cpu:             570.5 elap:              16.7
 (Enter /opt/linux/rocky/8/software/gaussian/16c01_avx2/g16/l716.exe)
 Dipole        =-7.79617898D-02-9.48723294D-02 5.46741884D-15
 Polarizability= 1.36370550D+02-3.13791487D+01 1.21936511D+02
                 2.29045467D-08 2.27306107D-08 1.87415228D+02
 Full mass-weighted force constant matrix:
 Low frequencies ---   -4.8615    0.0003    0.0006    0.0009    7.6164    9.7049
 Low frequencies ---  101.6763  122.7549  150.6531
 Diagonal vibrational polarizability:
        3.7458018       3.2206644       2.8909366
 Harmonic frequencies (cm**-1), IR intensities (KM/Mole), Raman scattering
 activities (A**4/AMU), depolarization ratios for plane and unpolarized
 incident light, reduced masses (AMU), force constants (mDyne/A),
 and normal coordinates:
                      1                      2                      3
                     A'                     A"                     A'
 Frequencies --    101.6763               122.7541               150.6521
 Red. masses --      4.4012                 2.8525                 3.3515
 Frc consts  --      0.0268                 0.0253                 0.0448
 IR Inten    --      0.0050                 0.0006                 0.2892
  Atom  AN      X      Y      Z        X      Y      Z        X      Y      Z
     1   6    -0.18  -0.02   0.00    -0.03   0.03  -0.08    -0.13  -0.12  -0.00
     2   6    -0.18  -0.02  -0.00     0.03  -0.03  -0.08    -0.13  -0.12   0.00
     3   6    -0.09   0.02  -0.00     0.05  -0.07  -0.00     0.03  -0.04   0.00
     4   6    -0.03   0.07   0.00     0.02  -0.04   0.07     0.18   0.08  -0.00
     5   6    -0.03   0.07  -0.00    -0.02   0.04   0.07     0.18   0.08   0.00
     6   6    -0.09   0.02   0.00    -0.05   0.07  -0.00     0.03  -0.04  -0.00
     7   1    -0.24  -0.06  -0.00    -0.06   0.06  -0.14    -0.26  -0.20  -0.00
     8   1    -0.24  -0.06   0.00     0.06  -0.06  -0.14    -0.26  -0.20   0.00
     9   1     0.03   0.11   0.00     0.04  -0.07   0.13     0.32   0.16  -0.00
    10   1     0.03   0.11  -0.00    -0.04   0.07   0.13     0.32   0.16   0.00
    11   6    -0.04  -0.03  -0.01     0.10  -0.09  -0.02     0.07  -0.10  -0.00
    12   1     0.00  -0.00   0.01     0.09  -0.24   0.08     0.08  -0.21   0.08
    13   1    -0.09  -0.07  -0.03     0.26  -0.08  -0.12     0.18  -0.10  -0.10
    14   6    -0.04  -0.03   0.01    -0.10   0.09  -0.02     0.07  -0.10   0.00
    15   1     0.00  -0.00  -0.01    -0.09   0.24   0.08     0.08  -0.21  -0.08
    16   1    -0.09  -0.07   0.03    -0.26   0.08  -0.12     0.18  -0.10   0.10
    17   6     0.02  -0.10   0.01    -0.07   0.08  -0.05    -0.04   0.02   0.00
    18   1     0.02  -0.16   0.01    -0.09   0.25  -0.04    -0.03   0.09  -0.00
    19   1     0.07  -0.07   0.04    -0.23   0.01  -0.14    -0.13  -0.02  -0.00
    20   6     0.02  -0.10  -0.01     0.07  -0.08  -0.05    -0.04   0.02  -0.00
    21   1     0.07  -0.07  -0.04     0.23  -0.01  -0.14    -0.13  -0.02   0.00
    22   1     0.02  -0.16  -0.01     0.09  -0.25  -0.04    -0.03   0.09   0.00
    23   6     0.03  -0.07  -0.00     0.02  -0.08  -0.01    -0.03   0.07   0.00
    24   6    -0.03  -0.12   0.00    -0.00   0.00  -0.05    -0.01   0.09   0.00
    25   6     0.17   0.09  -0.00     0.01  -0.09   0.07    -0.06   0.04   0.00
    26   6     0.03  -0.07   0.00    -0.02   0.08  -0.01    -0.03   0.07  -0.00
    27   1    -0.10  -0.20   0.00    -0.00   0.00  -0.11     0.03   0.13   0.00
    28   6     0.24   0.19  -0.00     0.00   0.00   0.11    -0.07   0.02  -0.00
    29   1     0.24   0.16  -0.00     0.02  -0.16   0.10    -0.08   0.02   0.00
    30   6     0.17   0.09   0.00    -0.01   0.09   0.07    -0.06   0.04  -0.00
    31   1     0.35   0.33  -0.00     0.00   0.00   0.17    -0.09  -0.00  -0.00
    32   1     0.24   0.16   0.00    -0.02   0.16   0.10    -0.08   0.02  -0.00
                      4                      5                      6
                     A"                     A'                     A"
 Frequencies --    166.3599               245.2756               284.4321
 Red. masses --      4.9466                 3.8931                 4.0719
 Frc consts  --      0.0807                 0.1380                 0.1941
 IR Inten    --      0.0002                 0.0157                 0.0085
  Atom  AN      X      Y      Z        X      Y      Z        X      Y      Z
     1   6     0.05   0.03   0.11    -0.13  -0.08  -0.00    -0.08  -0.04  -0.05
     2   6    -0.05  -0.03   0.11    -0.13  -0.08   0.00     0.08   0.04  -0.05
     3   6    -0.10  -0.06   0.12    -0.05  -0.03  -0.01     0.13   0.05  -0.05
     4   6    -0.05  -0.03   0.11    -0.14  -0.09   0.00     0.07   0.03  -0.02
     5   6     0.05   0.03   0.11    -0.14  -0.09  -0.00    -0.07  -0.03  -0.02
     6   6     0.10   0.06   0.12    -0.05  -0.03   0.01    -0.13  -0.05  -0.05
     7   1     0.08   0.05   0.11    -0.15  -0.09   0.00    -0.13  -0.05  -0.08
     8   1    -0.08  -0.05   0.11    -0.15  -0.09  -0.00     0.13   0.05  -0.08
     9   1    -0.08  -0.05   0.11    -0.18  -0.11  -0.00     0.11   0.04  -0.00
    10   1     0.08   0.05   0.11    -0.18  -0.11   0.00    -0.11  -0.04  -0.00
    11   6    -0.06  -0.03   0.08     0.07   0.05  -0.07     0.09   0.05  -0.02
    12   1    -0.01   0.00   0.10     0.10   0.00  -0.01     0.04  -0.01  -0.03
    13   1     0.00   0.01   0.09     0.17   0.07  -0.10     0.11   0.05  -0.04
    14   6     0.06   0.03   0.08     0.07   0.05   0.07    -0.09  -0.05  -0.02
    15   1     0.01  -0.00   0.10     0.10   0.00   0.01    -0.04   0.01  -0.03
    16   1    -0.00  -0.01   0.09     0.17   0.07   0.10    -0.11  -0.05  -0.04
    17   6    -0.12  -0.01  -0.11    -0.00   0.12  -0.11     0.04   0.07   0.02
    18   1    -0.08   0.15  -0.14    -0.11   0.31  -0.04     0.04   0.11   0.02
    19   1    -0.18  -0.04  -0.22    -0.09   0.07  -0.30     0.05   0.07  -0.03
    20   6     0.12   0.01  -0.11    -0.00   0.12   0.11    -0.04  -0.07   0.02
    21   1     0.18   0.04  -0.22    -0.09   0.07   0.30    -0.05  -0.07  -0.03
    22   1     0.08  -0.15  -0.14    -0.11   0.31   0.04    -0.04  -0.11   0.02
    23   6     0.12   0.07  -0.11     0.12   0.05   0.01     0.01   0.03   0.03
    24   6    -0.00   0.00  -0.12     0.16   0.06   0.00    -0.00   0.00   0.04
    25   6     0.15   0.11  -0.08     0.06  -0.02  -0.01     0.18   0.21   0.04
    26   6    -0.12  -0.07  -0.11     0.12   0.05  -0.01    -0.01  -0.03   0.03
    27   1    -0.00   0.00  -0.16     0.16   0.06  -0.00    -0.00   0.00   0.06
    28   6    -0.00  -0.00  -0.05     0.02  -0.07   0.00    -0.00  -0.00   0.05
    29   1     0.26   0.19  -0.07     0.03  -0.06  -0.01     0.35   0.39   0.04
    30   6    -0.15  -0.11  -0.08     0.06  -0.02   0.01    -0.18  -0.21   0.04
    31   1    -0.00  -0.00  -0.00    -0.03  -0.14   0.00    -0.00  -0.00   0.05
    32   1    -0.26  -0.19  -0.07     0.03  -0.06   0.01    -0.35  -0.39   0.04
                      7                      8                      9
                     A'                     A'                     A"
 Frequencies --    295.9255               312.3481               351.0845
 Red. masses --      2.5671                 2.0288                 2.2418
 Frc consts  --      0.1325                 0.1166                 0.1628
 IR Inten    --      0.5097                 0.0638                 0.0407
  Atom  AN      X      Y      Z        X      Y      Z        X      Y      Z
     1   6    -0.04   0.04   0.01    -0.05  -0.10  -0.01     0.10  -0.02   0.07
     2   6    -0.04   0.04  -0.01    -0.05  -0.10   0.01    -0.10   0.02   0.07
     3   6    -0.03   0.03   0.00     0.02  -0.05  -0.01    -0.05   0.09   0.00
     4   6    -0.11  -0.02   0.01     0.03  -0.05  -0.01     0.02   0.10  -0.07
     5   6    -0.11  -0.02  -0.01     0.03  -0.05   0.01    -0.02  -0.10  -0.07
     6   6    -0.03   0.03  -0.00     0.02  -0.05   0.01     0.05  -0.09   0.00
     7   1    -0.02   0.05   0.01    -0.11  -0.14  -0.01     0.20  -0.02   0.16
     8   1    -0.02   0.05  -0.01    -0.11  -0.14   0.01    -0.20   0.02   0.16
     9   1    -0.18  -0.06   0.00     0.06  -0.04  -0.00     0.06   0.19  -0.17
    10   1    -0.18  -0.06  -0.00     0.06  -0.04   0.00    -0.06  -0.19  -0.17
    11   6     0.07  -0.08  -0.01    -0.07   0.10  -0.00     0.08  -0.08  -0.01
    12   1     0.14  -0.17   0.12    -0.14   0.29  -0.20     0.19  -0.27   0.22
    13   1     0.09  -0.16  -0.16    -0.22   0.16   0.22     0.20  -0.17  -0.27
    14   6     0.07  -0.08   0.01    -0.07   0.10   0.00    -0.08   0.08  -0.01
    15   1     0.14  -0.17  -0.12    -0.14   0.29   0.20    -0.19   0.27   0.22
    16   1     0.09  -0.16   0.16    -0.22   0.16  -0.22    -0.20   0.17  -0.27
    17   6     0.10  -0.08   0.08     0.07  -0.01   0.04     0.00  -0.01   0.00
    18   1     0.16  -0.30   0.03     0.10  -0.21   0.02     0.01   0.02  -0.00
    19   1     0.15  -0.04   0.32     0.21   0.06   0.19    -0.06  -0.04   0.00
    20   6     0.10  -0.08  -0.08     0.07  -0.01  -0.04    -0.00   0.01   0.00
    21   1     0.15  -0.04  -0.32     0.21   0.06  -0.19     0.06   0.04   0.00
    22   1     0.16  -0.30  -0.03     0.10  -0.21  -0.02    -0.01  -0.02  -0.00
    23   6     0.02   0.08   0.01     0.01   0.04   0.00    -0.00  -0.00   0.00
    24   6     0.03   0.13  -0.00     0.02   0.07  -0.00     0.00   0.00  -0.00
    25   6    -0.02   0.03   0.02    -0.01   0.02   0.01     0.01   0.01   0.01
    26   6     0.02   0.08  -0.01     0.01   0.04  -0.00     0.00   0.00   0.00
    27   1     0.02   0.13  -0.00     0.03   0.09  -0.00     0.00   0.00  -0.00
    28   6    -0.05  -0.02  -0.00    -0.02  -0.00   0.00     0.00   0.00   0.01
    29   1    -0.07   0.00   0.01    -0.03   0.01   0.00     0.03   0.02   0.01
    30   6    -0.02   0.03  -0.02    -0.01   0.02  -0.01    -0.01  -0.01   0.01
    31   1    -0.11  -0.09  -0.00    -0.04  -0.03   0.00     0.00  -0.00   0.01
    32   1    -0.07   0.00  -0.01    -0.03   0.01  -0.00    -0.03  -0.02   0.01
                     10                     11                     12
                     A'                     A"                     A"
 Frequencies --    366.6944               390.8255               445.0747
 Red. masses --      4.1856                 2.2260                 2.7789
 Frc consts  --      0.3316                 0.2003                 0.3243
 IR Inten    --      1.1570                 0.4023                 0.1874
  Atom  AN      X      Y      Z        X      Y      Z        X      Y      Z
     1   6     0.07   0.02   0.01     0.01   0.01  -0.00     0.10   0.13   0.00
     2   6     0.07   0.02  -0.01    -0.01  -0.01  -0.00    -0.10  -0.13   0.00
     3   6    -0.07  -0.04  -0.04    -0.03  -0.01   0.00     0.07  -0.05  -0.01
     4   6     0.03   0.06  -0.01    -0.02  -0.01  -0.01     0.20   0.07   0.00
     5   6     0.03   0.06   0.01     0.02   0.01  -0.01    -0.20  -0.07   0.00
     6   6    -0.07  -0.04   0.04     0.03   0.01   0.00    -0.07   0.05  -0.01
     7   1     0.13   0.08  -0.02     0.02   0.01   0.00     0.25   0.26  -0.03
     8   1     0.13   0.08   0.02    -0.02  -0.01   0.00    -0.25  -0.26  -0.03
     9   1     0.09   0.07   0.03    -0.04  -0.02  -0.01     0.40   0.16   0.05
    10   1     0.09   0.07  -0.03     0.04   0.02  -0.01    -0.40  -0.16   0.05
    11   6    -0.15  -0.08  -0.03     0.00   0.01  -0.01    -0.04   0.02   0.02
    12   1    -0.16  -0.01  -0.08     0.00  -0.02   0.02    -0.11   0.12  -0.13
    13   1    -0.23  -0.08   0.03     0.06   0.03  -0.03    -0.11   0.07   0.17
    14   6    -0.15  -0.08   0.03    -0.00  -0.01  -0.01     0.04  -0.02   0.02
    15   1    -0.16  -0.01   0.08    -0.00   0.02   0.02     0.11  -0.12  -0.13
    16   1    -0.23  -0.08  -0.03    -0.06  -0.03  -0.03     0.11  -0.07   0.17
    17   6    -0.11  -0.10  -0.03    -0.06   0.07  -0.04    -0.02  -0.00  -0.00
    18   1    -0.19  -0.06   0.03    -0.22   0.36   0.08    -0.03   0.05   0.00
    19   1    -0.16  -0.12  -0.05    -0.18  -0.00  -0.34    -0.04  -0.01  -0.05
    20   6    -0.11  -0.10   0.03     0.06  -0.07  -0.04     0.02   0.00  -0.00
    21   1    -0.16  -0.12   0.05     0.18   0.00  -0.34     0.04   0.01  -0.05
    22   1    -0.19  -0.06  -0.03     0.22  -0.36   0.08     0.03  -0.05   0.00
    23   6     0.07   0.04  -0.01    -0.09   0.05   0.08     0.01   0.01   0.00
    24   6     0.27   0.23   0.00    -0.00   0.00   0.13     0.00   0.00   0.00
    25   6     0.03  -0.03  -0.00    -0.09   0.07  -0.01    -0.01  -0.01  -0.01
    26   6     0.07   0.04   0.01     0.09  -0.05   0.08    -0.01  -0.01   0.00
    27   1     0.35   0.33  -0.00    -0.00  -0.00   0.23     0.00   0.00   0.00
    28   6     0.07   0.03  -0.00    -0.00  -0.00  -0.09     0.00   0.00  -0.01
    29   1    -0.07  -0.15   0.01    -0.16   0.14  -0.07    -0.03  -0.02  -0.01
    30   6     0.03  -0.03   0.00     0.09  -0.07  -0.01     0.01   0.01  -0.01
    31   1     0.05   0.00  -0.00    -0.00  -0.00  -0.21     0.00   0.00  -0.01
    32   1    -0.07  -0.15  -0.01     0.16  -0.14  -0.07     0.03   0.02  -0.01
                     13                     14                     15
                     A"                     A'                     A'
 Frequencies --    461.9024               478.6067               497.1290
 Red. masses --      4.3319                 3.3075                 4.9044
 Frc consts  --      0.5445                 0.4464                 0.7141
 IR Inten    --      1.1526                 2.7021                 0.0434
  Atom  AN      X      Y      Z        X      Y      Z        X      Y      Z
     1   6     0.16   0.13  -0.02    -0.03   0.02  -0.01    -0.06   0.06  -0.02
     2   6    -0.16  -0.13  -0.02    -0.03   0.02   0.01    -0.06   0.06   0.02
     3   6    -0.12  -0.11   0.01     0.02   0.01   0.06    -0.02  -0.01   0.18
     4   6    -0.08  -0.08   0.00    -0.01  -0.04   0.01     0.03  -0.08   0.02
     5   6     0.08   0.08   0.00    -0.01  -0.04  -0.01     0.03  -0.08  -0.02
     6   6     0.12   0.11   0.01     0.02   0.01  -0.06    -0.02  -0.01  -0.18
     7   1     0.26   0.21  -0.03    -0.07  -0.03   0.03    -0.09  -0.03   0.09
     8   1    -0.26  -0.21  -0.03    -0.07  -0.03  -0.03    -0.09  -0.03  -0.09
     9   1    -0.09  -0.11   0.03    -0.08  -0.06  -0.03    -0.08  -0.07  -0.09
    10   1     0.09   0.11   0.03    -0.08  -0.06   0.03    -0.08  -0.07   0.09
    11   6     0.07   0.06  -0.09     0.06   0.03   0.07    -0.03  -0.02   0.27
    12   1     0.12   0.11  -0.07     0.08   0.03   0.09    -0.03   0.00   0.26
    13   1     0.10   0.10  -0.04     0.08   0.04   0.06    -0.03  -0.01   0.29
    14   6    -0.07  -0.06  -0.09     0.06   0.03  -0.07    -0.03  -0.02  -0.27
    15   1    -0.12  -0.11  -0.07     0.08   0.03  -0.09    -0.03   0.00  -0.26
    16   1    -0.10  -0.10  -0.04     0.08   0.04  -0.06    -0.03  -0.01  -0.29
    17   6     0.14   0.05  -0.04     0.03   0.00  -0.02    -0.04   0.04   0.15
    18   1     0.13  -0.14  -0.03     0.10   0.04  -0.07    -0.04   0.22   0.15
    19   1     0.24   0.10   0.09     0.05   0.01  -0.06    -0.16  -0.02   0.03
    20   6    -0.14  -0.05  -0.04     0.03   0.00   0.02    -0.04   0.04  -0.15
    21   1    -0.24  -0.10   0.09     0.05   0.01   0.06    -0.16  -0.02  -0.03
    22   1    -0.13   0.14  -0.03     0.10   0.04   0.07    -0.04   0.22  -0.15
    23   6    -0.10  -0.06  -0.01    -0.09  -0.09   0.05     0.06   0.03  -0.10
    24   6    -0.00  -0.00   0.00     0.07   0.13   0.00     0.12  -0.03   0.00
    25   6     0.02   0.07   0.08    -0.12  -0.11   0.03     0.06   0.01  -0.05
    26   6     0.10   0.06  -0.01    -0.09  -0.09  -0.05     0.06   0.03   0.10
    27   1    -0.00  -0.00   0.07     0.27   0.36   0.00     0.09  -0.05   0.00
    28   6     0.00   0.00   0.09     0.16   0.18  -0.00    -0.04  -0.02   0.00
    29   1     0.13   0.12   0.11    -0.16  -0.12   0.02     0.10  -0.06  -0.01
    30   6    -0.02  -0.07   0.08    -0.12  -0.11  -0.03     0.06   0.01   0.05
    31   1     0.00  -0.00   0.04     0.40   0.47  -0.00    -0.12  -0.12  -0.00
    32   1    -0.13  -0.12   0.11    -0.16  -0.12  -0.02     0.10  -0.06   0.01
                     16                     17                     18
                     A"                     A'                     A'
 Frequencies --    523.0727               558.1362               612.2530
 Red. masses --      4.8569                 3.6331                 2.5200
 Frc consts  --      0.7830                 0.6668                 0.5566
 IR Inten    --      0.2618                 8.0849                11.1305
  Atom  AN      X      Y      Z        X      Y      Z        X      Y      Z
     1   6    -0.04  -0.04   0.02    -0.01  -0.04   0.01    -0.02   0.03   0.00
     2   6     0.04   0.04   0.02    -0.01  -0.04  -0.01    -0.02   0.03  -0.00
     3   6     0.02   0.03   0.01     0.17   0.11  -0.13     0.13   0.09  -0.01
     4   6     0.02   0.03   0.02    -0.04   0.01  -0.01     0.00  -0.01   0.00
     5   6    -0.02  -0.03   0.02    -0.04   0.01   0.01     0.00  -0.01  -0.00
     6   6    -0.02  -0.03   0.01     0.17   0.11   0.13     0.13   0.09   0.01
     7   1    -0.08  -0.07   0.03    -0.26  -0.16  -0.08    -0.28  -0.14  -0.02
     8   1     0.08   0.07   0.03    -0.26  -0.16   0.08    -0.28  -0.14   0.02
     9   1     0.04   0.04   0.01    -0.26  -0.18   0.08    -0.27  -0.19   0.02
    10   1    -0.04  -0.04   0.01    -0.26  -0.18  -0.08    -0.27  -0.19  -0.02
    11   6     0.03   0.01  -0.02    -0.02  -0.01  -0.06    -0.01  -0.03   0.06
    12   1     0.09   0.16  -0.06    -0.15  -0.16  -0.09    -0.02   0.13  -0.07
    13   1    -0.07   0.01   0.06    -0.02  -0.05  -0.13    -0.16  -0.04   0.16
    14   6    -0.03  -0.01  -0.02    -0.02  -0.01   0.06    -0.01  -0.03  -0.06
    15   1    -0.09  -0.16  -0.06    -0.15  -0.16   0.09    -0.02   0.13   0.07
    16   1     0.07  -0.01   0.06    -0.02  -0.05   0.13    -0.16  -0.04  -0.16
    17   6     0.04  -0.13  -0.19    -0.06   0.04   0.14    -0.02  -0.09  -0.08
    18   1     0.07  -0.01  -0.20    -0.11   0.02   0.17     0.00   0.11  -0.10
    19   1     0.05  -0.14  -0.31    -0.06   0.04   0.12    -0.15  -0.16  -0.19
    20   6    -0.04   0.13  -0.19    -0.06   0.04  -0.14    -0.02  -0.09   0.08
    21   1    -0.05   0.14  -0.31    -0.06   0.04  -0.12    -0.15  -0.16   0.19
    22   1    -0.07   0.01  -0.20    -0.11   0.02  -0.17     0.00   0.11   0.10
    23   6    -0.00   0.20  -0.09     0.00  -0.02  -0.10    -0.01   0.00   0.08
    24   6     0.00  -0.00  -0.02     0.09  -0.08   0.00    -0.06   0.09  -0.00
    25   6    -0.12   0.03   0.19    -0.02  -0.05  -0.06     0.04   0.05   0.05
    26   6     0.00  -0.20  -0.09     0.00  -0.02   0.10    -0.01   0.00  -0.08
    27   1     0.00  -0.00   0.18     0.13  -0.03  -0.00    -0.12   0.02  -0.00
    28   6    -0.00   0.00   0.17    -0.01   0.09  -0.00     0.02  -0.10   0.00
    29   1    -0.10  -0.11   0.26     0.05  -0.12  -0.01    -0.05   0.08   0.01
    30   6     0.12  -0.03   0.19    -0.02  -0.05   0.06     0.04   0.05  -0.05
    31   1     0.00   0.00  -0.00     0.04   0.16  -0.00    -0.06  -0.20   0.00
    32   1     0.10   0.11   0.26     0.05  -0.12   0.01    -0.05   0.08  -0.01
                     19                     20                     21
                     A"                     A"                     A"
 Frequencies --    643.4762               646.8726               721.8895
 Red. masses --      4.4794                 5.7559                 2.6700
 Frc consts  --      1.0928                 1.4191                 0.8198
 IR Inten    --      2.2076                 2.0358                 0.8206
  Atom  AN      X      Y      Z        X      Y      Z        X      Y      Z
     1   6    -0.03   0.11   0.08    -0.16   0.08   0.24     0.03  -0.02  -0.10
     2   6     0.03  -0.11   0.08     0.16  -0.08   0.24    -0.03   0.02  -0.10
     3   6     0.04  -0.05  -0.01     0.03  -0.07   0.01     0.00   0.01   0.02
     4   6     0.00  -0.14  -0.17     0.08  -0.11  -0.18    -0.02  -0.02  -0.11
     5   6    -0.00   0.14  -0.17    -0.08   0.11  -0.18     0.02   0.02  -0.11
     6   6    -0.04   0.05  -0.01    -0.03   0.07   0.01    -0.00  -0.01   0.02
     7   1    -0.04   0.16  -0.00    -0.27   0.05   0.17     0.11   0.06  -0.13
     8   1     0.04  -0.16  -0.00     0.27  -0.05   0.17    -0.11  -0.06  -0.13
     9   1    -0.04  -0.20  -0.12     0.08  -0.16  -0.10    -0.15  -0.05  -0.17
    10   1     0.04   0.20  -0.12    -0.08   0.16  -0.10     0.15   0.05  -0.17
    11   6     0.08   0.06   0.04    -0.03  -0.08  -0.01     0.02  -0.04   0.20
    12   1     0.07  -0.15   0.17     0.02   0.01  -0.02     0.05   0.15   0.10
    13   1     0.25   0.05  -0.11    -0.11  -0.10   0.01    -0.14  -0.04   0.32
    14   6    -0.08  -0.06   0.04     0.03   0.08  -0.01    -0.02   0.04   0.20
    15   1    -0.07   0.15   0.17    -0.02  -0.01  -0.02    -0.05  -0.15   0.10
    16   1    -0.25  -0.05  -0.11     0.11   0.10   0.01     0.14   0.04   0.32
    17   6     0.01   0.06   0.06    -0.01  -0.08  -0.06     0.07  -0.01   0.02
    18   1     0.10   0.02  -0.01    -0.08  -0.02  -0.01     0.13   0.31  -0.03
    19   1     0.13   0.11   0.03    -0.14  -0.13  -0.03    -0.14  -0.11  -0.15
    20   6    -0.01  -0.06   0.06     0.01   0.08  -0.06    -0.07   0.01   0.02
    21   1    -0.13  -0.11   0.03     0.14   0.13  -0.03     0.14   0.11  -0.15
    22   1    -0.10  -0.02  -0.01     0.08   0.02  -0.01    -0.13  -0.31  -0.03
    23   6     0.18   0.18   0.01    -0.16  -0.16  -0.02    -0.03  -0.03  -0.03
    24   6     0.00   0.00   0.04    -0.00   0.00  -0.04    -0.00   0.00  -0.04
    25   6    -0.01  -0.03  -0.02     0.01   0.03   0.02     0.00  -0.00   0.01
    26   6    -0.18  -0.18   0.01     0.16   0.16  -0.02     0.03   0.03  -0.03
    27   1    -0.00   0.00   0.03     0.00   0.00  -0.02    -0.00   0.00  -0.04
    28   6    -0.00   0.00  -0.02     0.00  -0.00   0.02     0.00  -0.00   0.02
    29   1    -0.20  -0.22  -0.02     0.18   0.19   0.02     0.07   0.02   0.03
    30   6     0.01   0.03  -0.02    -0.01  -0.03   0.02    -0.00   0.00   0.01
    31   1    -0.00  -0.00   0.02     0.00   0.00  -0.02     0.00  -0.00   0.02
    32   1     0.20   0.22  -0.02    -0.18  -0.19   0.02    -0.07  -0.02   0.03
                     22                     23                     24
                     A'                     A'                     A"
 Frequencies --    723.3438               729.0928               744.6168
 Red. masses --      4.9121                 1.9532                 3.9307
 Frc consts  --      1.5143                 0.6117                 1.2841
 IR Inten    --      0.2053                13.3359                17.7487
  Atom  AN      X      Y      Z        X      Y      Z        X      Y      Z
     1   6     0.02  -0.03  -0.00    -0.01   0.01   0.00     0.12   0.06   0.07
     2   6     0.02  -0.03   0.00    -0.01   0.01  -0.00    -0.12  -0.06   0.07
     3   6    -0.01  -0.00  -0.02     0.00  -0.00   0.01     0.22   0.15  -0.09
     4   6    -0.01   0.01  -0.00     0.00   0.00   0.00    -0.12  -0.08   0.04
     5   6    -0.01   0.01   0.00     0.00   0.00  -0.00     0.12   0.08   0.04
     6   6    -0.01  -0.00   0.02     0.00  -0.00  -0.01    -0.22  -0.15  -0.09
     7   1    -0.01  -0.03  -0.03     0.00   0.01   0.01     0.27   0.11   0.17
     8   1    -0.01  -0.03   0.03     0.00   0.01  -0.01    -0.27  -0.11   0.17
     9   1     0.04   0.03   0.02    -0.00   0.00  -0.00    -0.24  -0.19   0.11
    10   1     0.04   0.03  -0.02    -0.00   0.00   0.00     0.24   0.19   0.11
    11   6    -0.07  -0.01   0.02     0.01  -0.02  -0.00     0.02  -0.02  -0.04
    12   1    -0.14  -0.23   0.11     0.03   0.12  -0.07    -0.07   0.08  -0.20
    13   1     0.08  -0.02  -0.12    -0.10  -0.01   0.10    -0.16  -0.06   0.03
    14   6    -0.07  -0.01  -0.02     0.01  -0.02   0.00    -0.02   0.02  -0.04
    15   1    -0.14  -0.23  -0.11     0.03   0.12   0.07     0.07  -0.08  -0.20
    16   1     0.08  -0.02   0.12    -0.10  -0.01  -0.10     0.16   0.06   0.03
    17   6    -0.04   0.12   0.13     0.02  -0.03  -0.03    -0.02  -0.06   0.01
    18   1    -0.08   0.06   0.15    -0.02   0.06   0.00    -0.05   0.10   0.03
    19   1    -0.01   0.13   0.16    -0.07  -0.07  -0.06    -0.16  -0.13  -0.09
    20   6    -0.04   0.12  -0.13     0.02  -0.03   0.03     0.02   0.06   0.01
    21   1    -0.01   0.13  -0.16    -0.07  -0.07   0.06     0.16   0.13  -0.09
    22   1    -0.08   0.06  -0.15    -0.02   0.06  -0.00     0.05  -0.10   0.03
    23   6     0.03   0.08   0.04     0.09   0.10  -0.02     0.00  -0.01   0.00
    24   6    -0.20   0.07   0.00    -0.06  -0.08  -0.00     0.00  -0.00  -0.01
    25   6     0.03  -0.09   0.14    -0.06  -0.04  -0.01     0.01  -0.02  -0.01
    26   6     0.03   0.08  -0.04     0.09   0.10   0.02    -0.00   0.01   0.00
    27   1    -0.24   0.03   0.00    -0.29  -0.34  -0.00    -0.00  -0.00  -0.03
    28   6     0.34  -0.20  -0.00     0.05   0.15   0.00    -0.00   0.00   0.00
    29   1    -0.14  -0.05   0.05    -0.33  -0.40   0.04     0.04   0.00  -0.01
    30   6     0.03  -0.09  -0.14    -0.06  -0.04   0.01    -0.01   0.02  -0.01
    31   1     0.32  -0.23  -0.00    -0.19  -0.14   0.00    -0.00   0.00   0.04
    32   1    -0.14  -0.05  -0.05    -0.33  -0.40  -0.04    -0.04  -0.00  -0.01
                     25                     26                     27
                     A'                     A'                     A'
 Frequencies --    791.0882               810.9146               818.1343
 Red. masses --      1.4636                 1.4747                 2.1214
 Frc consts  --      0.5397                 0.5713                 0.8366
 IR Inten    --     16.1346                 1.1961                 0.5478
  Atom  AN      X      Y      Z        X      Y      Z        X      Y      Z
     1   6    -0.03  -0.04  -0.01    -0.07  -0.03  -0.02    -0.08   0.08  -0.00
     2   6    -0.03  -0.04   0.01    -0.07  -0.03   0.02    -0.08   0.08   0.00
     3   6     0.00  -0.02  -0.02     0.03  -0.01  -0.01     0.02  -0.01   0.05
     4   6    -0.02   0.06  -0.00     0.02   0.02  -0.01     0.12  -0.05  -0.03
     5   6    -0.02   0.06   0.00     0.02   0.02   0.01     0.12  -0.05   0.03
     6   6     0.00  -0.02   0.02     0.03  -0.01   0.01     0.02  -0.01  -0.05
     7   1     0.28   0.16   0.01     0.44   0.28   0.07     0.12   0.14   0.12
     8   1     0.28   0.16  -0.01     0.44   0.28  -0.07     0.12   0.14  -0.12
     9   1    -0.13  -0.05   0.06    -0.14  -0.09   0.02    -0.30  -0.29  -0.06
    10   1    -0.13  -0.05  -0.06    -0.14  -0.09  -0.02    -0.30  -0.29   0.06
    11   6     0.02  -0.05   0.02     0.03   0.02  -0.01    -0.03   0.01  -0.06
    12   1    -0.02   0.13  -0.14    -0.03  -0.01  -0.04    -0.02  -0.06  -0.01
    13   1    -0.16  -0.04   0.18     0.02   0.03   0.02     0.08   0.03  -0.11
    14   6     0.02  -0.05  -0.02     0.03   0.02   0.01    -0.03   0.01   0.06
    15   1    -0.02   0.13   0.14    -0.03  -0.01   0.04    -0.02  -0.06   0.01
    16   1    -0.16  -0.04  -0.18     0.02   0.03  -0.02     0.08   0.03   0.11
    17   6     0.05   0.00   0.03    -0.02  -0.00   0.03    -0.06  -0.00  -0.05
    18   1     0.02   0.22   0.06    -0.00   0.02   0.02    -0.08  -0.26  -0.03
    19   1    -0.13  -0.09  -0.10     0.00   0.00   0.00     0.08   0.07   0.14
    20   6     0.05   0.00  -0.03    -0.02  -0.00  -0.03    -0.06  -0.00   0.05
    21   1    -0.13  -0.09   0.10     0.00   0.00  -0.00     0.08   0.07  -0.14
    22   1     0.02   0.22  -0.06    -0.00   0.02  -0.02    -0.08  -0.26   0.03
    23   6     0.03   0.04  -0.01    -0.05  -0.05   0.00     0.04   0.05  -0.00
    24   6    -0.03  -0.00   0.00     0.01   0.02  -0.00    -0.00  -0.03  -0.00
    25   6    -0.04  -0.04   0.01     0.04   0.05   0.01    -0.02  -0.04  -0.01
    26   6     0.03   0.04   0.01    -0.05  -0.05  -0.00     0.04   0.05   0.00
    27   1     0.02   0.05  -0.00     0.06   0.08  -0.00    -0.08  -0.12  -0.00
    28   6    -0.03  -0.03   0.00     0.04   0.01   0.00    -0.00  -0.02  -0.00
    29   1     0.18   0.23  -0.02    -0.18  -0.20   0.02     0.12   0.13  -0.02
    30   6    -0.04  -0.04  -0.01     0.04   0.05  -0.01    -0.02  -0.04   0.01
    31   1     0.26   0.32   0.00    -0.25  -0.34  -0.00     0.21   0.23  -0.00
    32   1     0.18   0.23   0.02    -0.18  -0.20  -0.02     0.12   0.13   0.02
                     28                     29                     30
                     A'                     A"                     A"
 Frequencies --    822.8243               826.2124               891.0287
 Red. masses --      1.7710                 2.4102                 1.9199
 Frc consts  --      0.7064                 0.9693                 0.8981
 IR Inten    --     26.4595                 2.7231                 0.0383
  Atom  AN      X      Y      Z        X      Y      Z        X      Y      Z
     1   6    -0.06   0.05   0.02    -0.01  -0.01   0.01     0.00  -0.01  -0.04
     2   6    -0.06   0.05  -0.02     0.01   0.01   0.01    -0.00   0.01  -0.04
     3   6     0.06   0.05  -0.00    -0.06  -0.04   0.01     0.02   0.01   0.02
     4   6    -0.03  -0.12   0.00    -0.00   0.02  -0.01     0.01  -0.02  -0.02
     5   6    -0.03  -0.12  -0.00     0.00  -0.02  -0.01    -0.01   0.02  -0.02
     6   6     0.06   0.05   0.00     0.06   0.04   0.01    -0.02  -0.01   0.02
     7   1     0.13   0.14   0.10    -0.11  -0.08   0.01     0.10   0.07  -0.06
     8   1     0.13   0.14  -0.10     0.11   0.08   0.01    -0.10  -0.07  -0.06
     9   1     0.50   0.28  -0.14     0.05   0.07  -0.04    -0.04  -0.05  -0.01
    10   1     0.50   0.28   0.14    -0.05  -0.07  -0.04     0.04   0.05  -0.01
    11   6     0.03   0.01  -0.04     0.12   0.02  -0.07     0.05   0.09   0.04
    12   1    -0.01   0.05  -0.12     0.17   0.31  -0.22     0.13   0.04   0.16
    13   1    -0.08  -0.02  -0.00    -0.14   0.03   0.16     0.17   0.11  -0.03
    14   6     0.03   0.01   0.04    -0.12  -0.02  -0.07    -0.05  -0.09   0.04
    15   1    -0.01   0.05   0.12    -0.17  -0.31  -0.22    -0.13  -0.04   0.16
    16   1    -0.08  -0.02   0.00     0.14  -0.03   0.16    -0.17  -0.11  -0.03
    17   6    -0.03  -0.04   0.03     0.03  -0.09  -0.00    -0.10  -0.07  -0.03
    18   1    -0.08   0.05   0.07    -0.06   0.18   0.06    -0.10  -0.22  -0.04
    19   1    -0.10  -0.08  -0.03    -0.16  -0.18  -0.20     0.05  -0.00   0.07
    20   6    -0.03  -0.04  -0.03    -0.03   0.09  -0.00     0.10   0.07  -0.03
    21   1    -0.10  -0.08   0.03     0.16   0.18  -0.20    -0.05   0.00   0.07
    22   1    -0.08   0.05  -0.07     0.06  -0.18   0.06     0.10   0.22  -0.04
    23   6     0.00   0.01  -0.01     0.05  -0.01   0.08    -0.01  -0.01   0.02
    24   6    -0.01   0.02   0.00     0.00  -0.00   0.10    -0.00   0.00   0.02
    25   6    -0.00  -0.01   0.01     0.08  -0.07  -0.06    -0.05  -0.08   0.00
    26   6     0.00   0.01   0.01    -0.05   0.01   0.08     0.01   0.01   0.02
    27   1    -0.02   0.01   0.00    -0.00  -0.00   0.05     0.00   0.00   0.03
    28   6     0.01  -0.03   0.00    -0.00   0.00   0.01     0.00   0.00  -0.02
    29   1     0.05   0.06  -0.00     0.04  -0.10  -0.06     0.34   0.41  -0.05
    30   6    -0.00  -0.01  -0.01    -0.08   0.07  -0.06     0.05   0.08   0.00
    31   1     0.09   0.07   0.00    -0.00  -0.00   0.25    -0.00  -0.00  -0.00
    32   1     0.05   0.06   0.00    -0.04   0.10  -0.06    -0.34  -0.41  -0.05
                     31                     32                     33
                     A'                     A'                     A"
 Frequencies --    895.1606               908.9254               918.2331
 Red. masses --      2.0242                 2.8563                 1.7256
 Frc consts  --      0.9557                 1.3903                 0.8572
 IR Inten    --      2.1388                 3.7908                 1.7633
  Atom  AN      X      Y      Z        X      Y      Z        X      Y      Z
     1   6    -0.01   0.10   0.03     0.05  -0.00  -0.00    -0.00   0.02   0.03
     2   6    -0.01   0.10  -0.03     0.05  -0.00   0.00     0.00  -0.02   0.03
     3   6    -0.04  -0.03   0.01    -0.06  -0.04   0.04    -0.02  -0.01  -0.02
     4   6     0.06  -0.04  -0.02     0.01   0.04   0.01    -0.02   0.01   0.02
     5   6     0.06  -0.04   0.02     0.01   0.04  -0.01     0.02  -0.01   0.02
     6   6    -0.04  -0.03  -0.01    -0.06  -0.04  -0.04     0.02   0.01  -0.02
     7   1    -0.21  -0.05   0.05    -0.18  -0.13  -0.04    -0.10  -0.05   0.03
     8   1    -0.21  -0.05  -0.05    -0.18  -0.13   0.04     0.10   0.05   0.03
     9   1    -0.07  -0.10  -0.05    -0.17  -0.08   0.04     0.09   0.08   0.01
    10   1    -0.07  -0.10   0.05    -0.17  -0.08  -0.04    -0.09  -0.08   0.01
    11   6    -0.02  -0.06  -0.08     0.16   0.10  -0.06    -0.04  -0.05  -0.03
    12   1    -0.07   0.03  -0.20     0.22   0.26  -0.10    -0.11  -0.07  -0.08
    13   1    -0.15  -0.07   0.01     0.05   0.14   0.09    -0.09  -0.07  -0.03
    14   6    -0.02  -0.06   0.08     0.16   0.10   0.06     0.04   0.05  -0.03
    15   1    -0.07   0.03   0.20     0.22   0.26   0.10     0.11   0.07  -0.08
    16   1    -0.15  -0.07  -0.01     0.05   0.14  -0.09     0.09   0.07  -0.03
    17   6     0.08   0.05   0.04    -0.11  -0.10   0.08     0.08   0.05   0.04
    18   1     0.00   0.19   0.10    -0.26  -0.04   0.19     0.09   0.20   0.03
    19   1    -0.06  -0.03  -0.10    -0.17  -0.13   0.04     0.01   0.01  -0.11
    20   6     0.08   0.05  -0.04    -0.11  -0.10  -0.08    -0.08  -0.05   0.04
    21   1    -0.06  -0.03   0.10    -0.17  -0.13  -0.04    -0.01  -0.01  -0.11
    22   1     0.00   0.19  -0.10    -0.26  -0.04  -0.19    -0.09  -0.20   0.03
    23   6    -0.02  -0.02  -0.01    -0.02   0.01  -0.05     0.03   0.06  -0.01
    24   6    -0.07  -0.05  -0.00    -0.04   0.02   0.00     0.00   0.00  -0.02
    25   6     0.01   0.02   0.02     0.01  -0.00   0.01    -0.06  -0.09   0.01
    26   6    -0.02  -0.02   0.01    -0.02   0.01   0.05    -0.03  -0.06  -0.01
    27   1     0.43   0.50  -0.00     0.05   0.12   0.00    -0.00  -0.00  -0.02
    28   6     0.02   0.03  -0.00     0.04  -0.05  -0.00    -0.00   0.00  -0.00
    29   1    -0.04  -0.04   0.02     0.02  -0.00   0.01     0.40   0.42  -0.03
    30   6     0.01   0.02  -0.02     0.01  -0.00  -0.01     0.06   0.09   0.01
    31   1    -0.17  -0.20  -0.00     0.07  -0.01   0.00    -0.00  -0.00   0.01
    32   1    -0.04  -0.04  -0.02     0.02  -0.00  -0.01    -0.40  -0.42  -0.03
                     34                     35                     36
                     A"                     A'                     A"
 Frequencies --    948.4622               954.3813               959.0391
 Red. masses --      1.5445                 1.6633                 1.3613
 Frc consts  --      0.8186                 0.8926                 0.7377
 IR Inten    --      5.2696                18.8239                 0.0423
  Atom  AN      X      Y      Z        X      Y      Z        X      Y      Z
     1   6    -0.07  -0.05  -0.00     0.00  -0.04  -0.02    -0.07  -0.03  -0.01
     2   6     0.07   0.05  -0.00     0.00  -0.04   0.02     0.07   0.03  -0.01
     3   6    -0.01  -0.00   0.01     0.03   0.03  -0.00     0.00   0.01  -0.00
     4   6     0.06   0.02   0.00    -0.03   0.01   0.01    -0.08  -0.06   0.01
     5   6    -0.06  -0.02   0.00    -0.03   0.01  -0.01     0.08   0.06   0.01
     6   6     0.01   0.00   0.01     0.03   0.03   0.00    -0.00  -0.01  -0.00
     7   1     0.46   0.24   0.10     0.09   0.02  -0.02     0.31   0.21   0.03
     8   1    -0.46  -0.24   0.10     0.09   0.02   0.02    -0.31  -0.21   0.03
     9   1    -0.28  -0.25   0.10     0.04   0.05   0.00     0.48   0.32  -0.06
    10   1     0.28   0.25   0.10     0.04   0.05  -0.00    -0.48  -0.32  -0.06
    11   6    -0.05  -0.02  -0.02    -0.01   0.02   0.05    -0.01   0.00   0.01
    12   1    -0.01  -0.04   0.03     0.06   0.01   0.12     0.01  -0.01   0.03
    13   1     0.01  -0.03  -0.07     0.06   0.02  -0.00     0.00  -0.01  -0.02
    14   6     0.05   0.02  -0.02    -0.01   0.02  -0.05     0.01  -0.00   0.01
    15   1     0.01   0.04   0.03     0.06   0.01  -0.12    -0.01   0.01   0.03
    16   1    -0.01   0.03  -0.07     0.06   0.02   0.00    -0.00   0.01  -0.02
    17   6     0.05   0.01  -0.05    -0.04  -0.03  -0.05     0.01  -0.01  -0.00
    18   1     0.04   0.02  -0.04    -0.02  -0.15  -0.07     0.00   0.02   0.00
    19   1     0.08   0.02  -0.10     0.01   0.01   0.08     0.01  -0.01  -0.03
    20   6    -0.05  -0.01  -0.05    -0.04  -0.03   0.05    -0.01   0.01  -0.00
    21   1    -0.08  -0.02  -0.10     0.01   0.01  -0.08    -0.01   0.01  -0.03
    22   1    -0.04  -0.02  -0.04    -0.02  -0.15   0.07    -0.00  -0.02   0.00
    23   6     0.01   0.01   0.03     0.05   0.06  -0.01    -0.00  -0.00   0.00
    24   6     0.00   0.00   0.06    -0.08  -0.13   0.00    -0.00  -0.00   0.01
    25   6     0.03  -0.03  -0.02    -0.02  -0.01   0.01     0.01   0.00  -0.00
    26   6    -0.01  -0.01   0.03     0.05   0.06   0.01     0.00   0.00   0.00
    27   1    -0.00  -0.00   0.11     0.61   0.62   0.00     0.00   0.00   0.00
    28   6    -0.00  -0.00   0.01     0.02   0.02   0.00     0.00   0.00   0.00
    29   1     0.04  -0.02  -0.03     0.05   0.08  -0.00    -0.02  -0.03  -0.00
    30   6    -0.03   0.03  -0.02    -0.02  -0.01  -0.01    -0.01  -0.00  -0.00
    31   1     0.00   0.00   0.15    -0.11  -0.14   0.00    -0.00  -0.00   0.03
    32   1    -0.04   0.02  -0.03     0.05   0.08   0.00     0.02   0.03  -0.00
                     37                     38                     39
                     A'                     A"                     A'
 Frequencies --    972.6076               976.7006               992.3295
 Red. masses --      1.2886                 2.2199                 1.8092
 Frc consts  --      0.7182                 1.2477                 1.0496
 IR Inten    --      0.1648                 0.0436                 0.0168
  Atom  AN      X      Y      Z        X      Y      Z        X      Y      Z
     1   6    -0.00  -0.00  -0.00     0.05   0.05  -0.01    -0.00   0.04   0.02
     2   6    -0.00  -0.00   0.00    -0.05  -0.05  -0.01    -0.00   0.04  -0.02
     3   6     0.00   0.00  -0.00     0.04   0.03  -0.02     0.02  -0.03   0.01
     4   6     0.00  -0.00  -0.00    -0.02  -0.01   0.01    -0.04   0.03   0.03
     5   6     0.00  -0.00   0.00     0.02   0.01   0.01    -0.04   0.03  -0.03
     6   6     0.00   0.00   0.00    -0.04  -0.03  -0.02     0.02  -0.03  -0.01
     7   1     0.01   0.00  -0.00    -0.32  -0.15  -0.10    -0.07  -0.03   0.06
     8   1     0.01   0.00   0.00     0.32   0.15  -0.10    -0.07  -0.03  -0.06
     9   1     0.00  -0.00  -0.00     0.13   0.08   0.00     0.05   0.07   0.07
    10   1     0.00  -0.00   0.00    -0.13  -0.08   0.00     0.05   0.07  -0.07
    11   6    -0.01   0.00   0.00    -0.09   0.01   0.06     0.07  -0.09   0.00
    12   1     0.00  -0.01   0.03    -0.00  -0.13   0.24    -0.10   0.11  -0.30
    13   1     0.00  -0.01  -0.02     0.09  -0.03  -0.15    -0.02   0.06   0.35
    14   6    -0.01   0.00  -0.00     0.09  -0.01   0.06     0.07  -0.09  -0.00
    15   1     0.00  -0.01  -0.03     0.00   0.13   0.24    -0.10   0.11   0.30
    16   1     0.00  -0.01   0.02    -0.09   0.03  -0.15    -0.02   0.06  -0.35
    17   6     0.00  -0.00  -0.00     0.05  -0.02  -0.11    -0.06   0.08  -0.04
    18   1     0.00   0.01  -0.00     0.08  -0.05  -0.14     0.10  -0.22  -0.16
    19   1     0.01   0.00  -0.01     0.19   0.04  -0.16    -0.01   0.12   0.31
    20   6     0.00  -0.00   0.00    -0.05   0.02  -0.11    -0.06   0.08   0.04
    21   1     0.01   0.00   0.01    -0.19  -0.04  -0.16    -0.01   0.12  -0.31
    22   1     0.00   0.01   0.00    -0.08   0.05  -0.14     0.10  -0.22   0.16
    23   6     0.01   0.01  -0.00    -0.02  -0.02   0.05    -0.03   0.00   0.01
    24   6    -0.04  -0.03  -0.00     0.00  -0.00   0.12     0.04  -0.03   0.00
    25   6     0.05   0.05  -0.01     0.06  -0.04  -0.05     0.01   0.00  -0.03
    26   6     0.01   0.01   0.00     0.02   0.02   0.05    -0.03   0.00  -0.01
    27   1     0.13   0.16  -0.00    -0.00  -0.00   0.25     0.04  -0.04   0.00
    28   6    -0.07  -0.09  -0.00    -0.00  -0.00   0.02     0.05  -0.04  -0.00
    29   1    -0.30  -0.35   0.02     0.02  -0.09  -0.05    -0.06  -0.02  -0.05
    30   6     0.05   0.05   0.01    -0.06   0.04  -0.05     0.01   0.00   0.03
    31   1     0.45   0.54  -0.00     0.00   0.00   0.29     0.06  -0.03   0.00
    32   1    -0.30  -0.35  -0.02    -0.02   0.09  -0.05    -0.06  -0.02   0.05
                     40                     41                     42
                     A'                     A"                     A"
 Frequencies --   1015.1994              1020.1155              1032.5802
 Red. masses --      6.1043                 1.8654                 2.8434
 Frc consts  --      3.7067                 1.1437                 1.7862
 IR Inten    --      0.3961                 3.2658                 0.0085
  Atom  AN      X      Y      Z        X      Y      Z        X      Y      Z
     1   6     0.00   0.00  -0.00     0.00   0.01  -0.02    -0.12   0.16   0.02
     2   6     0.00   0.00   0.00    -0.00  -0.01  -0.02     0.12  -0.16   0.02
     3   6    -0.01  -0.00  -0.00    -0.02   0.00  -0.00     0.00  -0.00  -0.04
     4   6     0.00  -0.00  -0.00     0.03  -0.02   0.02    -0.10   0.17   0.03
     5   6     0.00  -0.00   0.00    -0.03   0.02   0.02     0.10  -0.17   0.03
     6   6    -0.01  -0.00   0.00     0.02  -0.00  -0.00    -0.00   0.00  -0.04
     7   1    -0.01  -0.00  -0.00    -0.02   0.01  -0.05    -0.04   0.39  -0.24
     8   1    -0.01  -0.00   0.00     0.02  -0.01  -0.05     0.04  -0.39  -0.24
     9   1    -0.01  -0.00  -0.01     0.02  -0.10   0.13    -0.31   0.21  -0.22
    10   1    -0.01  -0.00   0.01    -0.02   0.10   0.13     0.31  -0.21  -0.22
    11   6     0.00   0.00  -0.00    -0.05   0.11  -0.02    -0.00   0.02   0.02
    12   1     0.00   0.00  -0.00     0.07  -0.11   0.24     0.04   0.00   0.08
    13   1    -0.00   0.00  -0.00     0.01  -0.04  -0.33     0.05   0.02  -0.02
    14   6     0.00   0.00   0.00     0.05  -0.11  -0.02     0.00  -0.02   0.02
    15   1     0.00   0.00   0.00    -0.07   0.11   0.24    -0.04  -0.00   0.08
    16   1    -0.00   0.00   0.00    -0.01   0.04  -0.33    -0.05  -0.02  -0.02
    17   6    -0.01  -0.00   0.02     0.04  -0.09   0.09    -0.00  -0.02   0.01
    18   1     0.02   0.01   0.00    -0.13   0.25   0.22    -0.01   0.02   0.01
    19   1     0.01  -0.00  -0.02    -0.05  -0.15  -0.26    -0.00  -0.02  -0.03
    20   6    -0.01  -0.00  -0.02    -0.04   0.09   0.09     0.00   0.02   0.01
    21   1     0.01  -0.00   0.02     0.05   0.15  -0.26     0.00   0.02  -0.03
    22   1     0.02   0.01  -0.00     0.13  -0.25   0.22     0.01  -0.02   0.01
    23   6    -0.01   0.01  -0.03    -0.03   0.00  -0.03    -0.01  -0.00  -0.00
    24   6     0.30  -0.26   0.00     0.00  -0.00  -0.08     0.00  -0.00  -0.01
    25   6    -0.14   0.15   0.33     0.02   0.00   0.00     0.00   0.00   0.00
    26   6    -0.01   0.01   0.03     0.03  -0.00  -0.03     0.01   0.00  -0.00
    27   1     0.20  -0.38   0.00     0.00  -0.00  -0.16     0.00  -0.00  -0.02
    28   6     0.01  -0.06  -0.00     0.00  -0.00   0.01     0.00  -0.00  -0.00
    29   1    -0.19   0.14   0.33     0.02  -0.11   0.05    -0.00  -0.02   0.01
    30   6    -0.14   0.15  -0.33    -0.02  -0.00   0.00    -0.00  -0.00   0.00
    31   1     0.12   0.09  -0.00     0.00   0.00   0.01    -0.00  -0.00  -0.01
    32   1    -0.19   0.14  -0.33    -0.02   0.11   0.05     0.00   0.02   0.01
                     43                     44                     45
                     A'                     A'                     A"
 Frequencies --   1101.3895              1132.3119              1155.9828
 Red. masses --      1.6600                 1.3758                 1.2990
 Frc consts  --      1.1864                 1.0393                 1.0227
 IR Inten    --      4.9720                 1.1449                 0.4533
  Atom  AN      X      Y      Z        X      Y      Z        X      Y      Z
     1   6     0.01  -0.02  -0.02    -0.01   0.03   0.05     0.01  -0.02   0.00
     2   6     0.01  -0.02   0.02    -0.01   0.03  -0.05    -0.01   0.02   0.00
     3   6    -0.03   0.03  -0.01     0.02  -0.04   0.00     0.02  -0.02   0.02
     4   6     0.02  -0.02  -0.04    -0.02   0.02   0.06    -0.01   0.01  -0.01
     5   6     0.02  -0.02   0.04    -0.02   0.02  -0.06     0.01  -0.01  -0.01
     6   6    -0.03   0.03   0.01     0.02  -0.04  -0.00    -0.02   0.02   0.02
     7   1    -0.00   0.04  -0.13     0.04  -0.12   0.33     0.02  -0.04   0.06
     8   1    -0.00   0.04   0.13     0.04  -0.12  -0.33    -0.02   0.04   0.06
     9   1    -0.05   0.01  -0.16     0.11  -0.12   0.40    -0.05   0.06  -0.12
    10   1    -0.05   0.01   0.16     0.11  -0.12  -0.40     0.05  -0.06  -0.12
    11   6    -0.00   0.01  -0.01    -0.02   0.03   0.00     0.02  -0.02   0.01
    12   1     0.12   0.08   0.07    -0.09  -0.11   0.01    -0.24  -0.15  -0.16
    13   1    -0.16  -0.11  -0.10     0.12   0.07  -0.02     0.23   0.17   0.18
    14   6    -0.00   0.01   0.01    -0.02   0.03  -0.00    -0.02   0.02   0.01
    15   1     0.12   0.08  -0.07    -0.09  -0.11  -0.01     0.24   0.15  -0.16
    16   1    -0.16  -0.11   0.10     0.12   0.07   0.02    -0.23  -0.17   0.18
    17   6     0.01  -0.00   0.00     0.02  -0.04   0.01    -0.01  -0.01   0.03
    18   1     0.13   0.07  -0.08    -0.04   0.04   0.05    -0.23  -0.05   0.19
    19   1    -0.14  -0.06   0.07     0.09  -0.02  -0.15     0.21   0.07  -0.15
    20   6     0.01  -0.00  -0.00     0.02  -0.04  -0.01     0.01   0.01   0.03
    21   1    -0.14  -0.06  -0.07     0.09  -0.02   0.15    -0.21  -0.07  -0.15
    22   1     0.13   0.07   0.08    -0.04   0.04  -0.05     0.23   0.05   0.19
    23   6    -0.04   0.02  -0.01     0.01   0.01  -0.00    -0.06   0.04  -0.04
    24   6     0.06  -0.06   0.00     0.01  -0.02   0.00     0.00  -0.00  -0.02
    25   6    -0.04   0.03  -0.10    -0.03   0.02  -0.04     0.03  -0.02  -0.03
    26   6    -0.04   0.02   0.01     0.01   0.01   0.00     0.06  -0.04  -0.04
    27   1     0.05  -0.08  -0.00     0.03  -0.00  -0.00     0.00   0.00   0.17
    28   6     0.10  -0.07  -0.00     0.03  -0.02  -0.00     0.00  -0.00   0.02
    29   1    -0.33   0.25  -0.32    -0.19   0.17  -0.17     0.10  -0.11   0.04
    30   6    -0.04   0.03   0.10    -0.03   0.02   0.04    -0.03   0.02  -0.03
    31   1     0.09  -0.10  -0.00     0.03  -0.03  -0.00     0.00  -0.00   0.27
    32   1    -0.33   0.25   0.32    -0.19   0.17   0.17    -0.10   0.11   0.04
                     46                     47                     48
                     A'                     A"                     A"
 Frequencies --   1173.2759              1186.1647              1202.1984
 Red. masses --      1.1592                 1.3471                 1.1887
 Frc consts  --      0.9402                 1.1167                 1.0122
 IR Inten    --      1.2249                 0.1676                 0.7095
  Atom  AN      X      Y      Z        X      Y      Z        X      Y      Z
     1   6    -0.00  -0.00   0.04    -0.00   0.01  -0.00    -0.00   0.00  -0.00
     2   6    -0.00  -0.00  -0.04     0.00  -0.01  -0.00     0.00  -0.00  -0.00
     3   6    -0.02   0.01  -0.03    -0.01   0.01  -0.00    -0.01   0.00  -0.00
     4   6     0.02  -0.02   0.03     0.00  -0.00   0.00     0.00  -0.00   0.00
     5   6     0.02  -0.02  -0.03    -0.00   0.00   0.00    -0.00   0.00   0.00
     6   6    -0.02   0.01   0.03     0.01  -0.01  -0.00     0.01  -0.00  -0.00
     7   1     0.05  -0.05   0.17    -0.00   0.03  -0.03     0.00   0.02  -0.02
     8   1     0.05  -0.05  -0.17     0.00  -0.03  -0.03    -0.00  -0.02  -0.02
     9   1     0.08  -0.14   0.27     0.01  -0.02   0.04     0.01  -0.01   0.03
    10   1     0.08  -0.14  -0.27    -0.01   0.02   0.04    -0.01   0.01   0.03
    11   6    -0.00   0.02   0.00     0.01   0.02  -0.00     0.01   0.01  -0.00
    12   1     0.19   0.12   0.13     0.03   0.01   0.02     0.01  -0.00   0.01
    13   1    -0.22  -0.15  -0.14    -0.14  -0.08  -0.07    -0.10  -0.06  -0.05
    14   6    -0.00   0.02  -0.00    -0.01  -0.02  -0.00    -0.01  -0.01  -0.00
    15   1     0.19   0.12  -0.13    -0.03  -0.01   0.02    -0.01   0.00   0.01
    16   1    -0.22  -0.15   0.14     0.14   0.08  -0.07     0.10   0.06  -0.05
    17   6    -0.01   0.02  -0.00    -0.02   0.02   0.03    -0.02   0.01   0.02
    18   1     0.19   0.04  -0.15     0.06   0.03  -0.03     0.06   0.03  -0.04
    19   1    -0.22  -0.05   0.20    -0.17  -0.03   0.17    -0.11  -0.01   0.13
    20   6    -0.01   0.02   0.00     0.02  -0.02   0.03     0.02  -0.01   0.02
    21   1    -0.22  -0.05  -0.20     0.17   0.03   0.17     0.11   0.01   0.13
    22   1     0.19   0.04   0.15    -0.06  -0.03  -0.03    -0.06  -0.03  -0.04
    23   6    -0.02   0.01   0.00    -0.03   0.02  -0.07    -0.02   0.01  -0.05
    24   6     0.01  -0.00   0.00    -0.00  -0.00   0.02    -0.00  -0.00   0.06
    25   6     0.02  -0.02   0.01    -0.03   0.02  -0.04     0.02  -0.02  -0.01
    26   6    -0.02   0.01  -0.00     0.03  -0.02  -0.07     0.02  -0.01  -0.05
    27   1     0.00  -0.01   0.00     0.00   0.00   0.39     0.00   0.00   0.55
    28   6    -0.00   0.00   0.00     0.00  -0.00   0.08    -0.00   0.00  -0.03
    29   1     0.15  -0.12   0.11    -0.14   0.15  -0.15     0.32  -0.27   0.21
    30   6     0.02  -0.02  -0.01     0.03  -0.02  -0.04    -0.02   0.02  -0.01
    31   1    -0.00   0.00   0.00     0.00   0.00   0.70    -0.00   0.00  -0.37
    32   1     0.15  -0.12  -0.11     0.14  -0.15  -0.15    -0.32   0.27   0.21
                     49                     50                     51
                     A'                     A'                     A"
 Frequencies --   1203.0290              1207.0018              1208.6357
 Red. masses --      1.8415                 1.1397                 1.3363
 Frc consts  --      1.5703                 0.9783                 1.1501
 IR Inten    --      0.8349                 0.7890                 6.2277
  Atom  AN      X      Y      Z        X      Y      Z        X      Y      Z
     1   6     0.02  -0.05  -0.02     0.02  -0.02   0.05    -0.01  -0.00   0.01
     2   6     0.02  -0.05   0.02     0.02  -0.02  -0.05     0.01   0.00   0.01
     3   6     0.04   0.05   0.11     0.00  -0.01   0.01    -0.02  -0.04  -0.06
     4   6    -0.02   0.02   0.05    -0.01   0.03  -0.04    -0.00   0.02   0.01
     5   6    -0.02   0.02  -0.05    -0.01   0.03   0.04     0.00  -0.02   0.01
     6   6     0.04   0.05  -0.11     0.00  -0.01  -0.01     0.02   0.04  -0.06
     7   1     0.12  -0.15   0.21     0.08  -0.24   0.44     0.05  -0.08   0.18
     8   1     0.12  -0.15  -0.21     0.08  -0.24  -0.44    -0.05   0.08   0.18
     9   1    -0.05   0.08  -0.04    -0.16   0.16  -0.37     0.00  -0.02   0.07
    10   1    -0.05   0.08   0.04    -0.16   0.16   0.37    -0.00   0.02   0.07
    11   6    -0.04  -0.05  -0.05     0.01   0.02  -0.00     0.03   0.05   0.02
    12   1     0.25   0.22   0.06    -0.10  -0.08  -0.04    -0.30  -0.25  -0.10
    13   1    -0.14  -0.12  -0.09    -0.00  -0.00  -0.04     0.14   0.11   0.04
    14   6    -0.04  -0.05   0.05     0.01   0.02   0.00    -0.03  -0.05   0.02
    15   1     0.25   0.22  -0.06    -0.10  -0.08   0.04     0.30   0.25  -0.10
    16   1    -0.14  -0.12   0.09    -0.00  -0.00   0.04    -0.14  -0.11   0.04
    17   6     0.04   0.05  -0.03    -0.01  -0.01   0.01    -0.02  -0.06   0.02
    18   1    -0.34  -0.18   0.24     0.13   0.06  -0.09     0.36   0.18  -0.26
    19   1     0.01   0.04  -0.00    -0.05  -0.03   0.03    -0.01  -0.05  -0.03
    20   6     0.04   0.05   0.03    -0.01  -0.01  -0.01     0.02   0.06   0.02
    21   1     0.01   0.04   0.00    -0.05  -0.03  -0.03     0.01   0.05  -0.03
    22   1    -0.34  -0.18  -0.24     0.13   0.06   0.09    -0.36  -0.18  -0.26
    23   6    -0.02  -0.02  -0.02     0.00   0.01   0.01     0.00  -0.04   0.01
    24   6     0.00   0.02   0.00     0.00  -0.01   0.00    -0.00   0.00   0.02
    25   6    -0.00   0.01   0.00     0.00  -0.01   0.00    -0.00   0.01   0.00
    26   6    -0.02  -0.02   0.02     0.00   0.01  -0.01    -0.00   0.04   0.01
    27   1    -0.04  -0.03   0.00     0.01   0.01   0.00    -0.00  -0.00   0.03
    28   6     0.01  -0.01  -0.00    -0.00   0.00  -0.00     0.00   0.00   0.01
    29   1    -0.04   0.01  -0.01     0.03  -0.02   0.01    -0.06   0.04  -0.03
    30   6    -0.00   0.01  -0.00     0.00  -0.01  -0.00     0.00  -0.01   0.00
    31   1     0.00  -0.01  -0.00    -0.00   0.00  -0.00    -0.00  -0.00  -0.05
    32   1    -0.04   0.01   0.01     0.03  -0.02  -0.01     0.06  -0.04  -0.03
                     52                     53                     54
                     A'                     A"                     A'
 Frequencies --   1221.9151              1227.1246              1251.3583
 Red. masses --      2.0578                 1.7483                 3.1157
 Frc consts  --      1.8102                 1.5512                 2.8745
 IR Inten    --      2.1231                 4.1019                 0.9128
  Atom  AN      X      Y      Z        X      Y      Z        X      Y      Z
     1   6     0.01  -0.03  -0.08     0.02  -0.02  -0.01    -0.00   0.00   0.03
     2   6     0.01  -0.03   0.08    -0.02   0.02  -0.01    -0.00   0.00  -0.03
     3   6     0.02   0.02   0.15     0.04   0.02   0.16    -0.03   0.00  -0.05
     4   6    -0.02   0.02   0.08     0.01  -0.03  -0.01     0.01  -0.01  -0.02
     5   6    -0.02   0.02  -0.08    -0.01   0.03  -0.01     0.01  -0.01   0.02
     6   6     0.02   0.02  -0.15    -0.04  -0.02   0.16    -0.03   0.00   0.05
     7   1     0.01   0.01  -0.17    -0.04   0.13  -0.29     0.00  -0.00   0.04
     8   1     0.01   0.01   0.17     0.04  -0.13  -0.29     0.00  -0.00  -0.04
     9   1    -0.01   0.01   0.12    -0.12   0.11  -0.33     0.01  -0.04   0.01
    10   1    -0.01   0.01  -0.12     0.12  -0.11  -0.33     0.01  -0.04  -0.01
    11   6     0.01   0.04  -0.06    -0.00   0.02  -0.05     0.03   0.01   0.03
    12   1    -0.34  -0.27  -0.21    -0.27  -0.19  -0.19     0.05   0.02   0.05
    13   1    -0.12  -0.08  -0.18    -0.08  -0.07  -0.17    -0.15  -0.08   0.03
    14   6     0.01   0.04   0.06     0.00  -0.02  -0.05     0.03   0.01  -0.03
    15   1    -0.34  -0.27   0.21     0.27   0.19  -0.19     0.05   0.02  -0.05
    16   1    -0.12  -0.08   0.18     0.08   0.07  -0.17    -0.15  -0.08  -0.03
    17   6    -0.01  -0.01   0.02     0.01  -0.02  -0.01    -0.04   0.05   0.06
    18   1     0.20   0.10  -0.13     0.12   0.05  -0.09    -0.27  -0.06   0.24
    19   1    -0.19  -0.08   0.10    -0.09  -0.06   0.01    -0.13   0.03   0.22
    20   6    -0.01  -0.01  -0.02    -0.01   0.02  -0.01    -0.04   0.05  -0.06
    21   1    -0.19  -0.08  -0.10     0.09   0.06   0.01    -0.13   0.03  -0.22
    22   1     0.20   0.10   0.13    -0.12  -0.05  -0.09    -0.27  -0.06  -0.24
    23   6     0.02   0.00   0.06     0.02  -0.02   0.01     0.12  -0.08   0.23
    24   6     0.01  -0.02   0.00     0.00  -0.00   0.02     0.01  -0.03  -0.00
    25   6     0.01  -0.01   0.00    -0.00   0.00   0.00     0.01  -0.01   0.02
    26   6     0.02   0.00  -0.06    -0.02   0.02   0.01     0.12  -0.08  -0.23
    27   1     0.04   0.00   0.00     0.00   0.00  -0.01     0.06  -0.00   0.00
    28   6    -0.02   0.02  -0.00    -0.00  -0.00  -0.00    -0.10   0.09   0.00
    29   1     0.00   0.00  -0.01    -0.03   0.03  -0.02    -0.28   0.22  -0.18
    30   6     0.01  -0.01  -0.00     0.00  -0.00   0.00     0.01  -0.01  -0.02
    31   1    -0.02   0.02  -0.00     0.00   0.00  -0.07    -0.11   0.09   0.00
    32   1     0.00   0.00   0.01     0.03  -0.03  -0.02    -0.28   0.22   0.18
                     55                     56                     57
                     A"                     A'                     A"
 Frequencies --   1309.5962              1317.6059              1348.9581
 Red. masses --      1.3903                 1.3357                 1.4595
 Frc consts  --      1.4048                 1.3663                 1.5647
 IR Inten    --      0.4079                 0.0911                 0.0008
  Atom  AN      X      Y      Z        X      Y      Z        X      Y      Z
     1   6     0.00   0.00  -0.01     0.01  -0.02   0.02    -0.01   0.02  -0.03
     2   6    -0.00  -0.00  -0.01     0.01  -0.02  -0.02     0.01  -0.02  -0.03
     3   6     0.03  -0.03   0.00    -0.04   0.04  -0.00     0.04  -0.07  -0.01
     4   6     0.00  -0.00   0.01     0.02  -0.02   0.02     0.01  -0.01   0.03
     5   6    -0.00   0.00   0.01     0.02  -0.02  -0.02    -0.01   0.01   0.03
     6   6    -0.03   0.03   0.00    -0.04   0.04   0.00    -0.04   0.07  -0.01
     7   1     0.03  -0.09   0.15     0.02  -0.01   0.01     0.08  -0.20   0.38
     8   1    -0.03   0.09   0.15     0.02  -0.01  -0.01    -0.08   0.20   0.38
     9   1    -0.05   0.07  -0.16    -0.03  -0.04   0.01    -0.14   0.14  -0.35
    10   1     0.05  -0.07  -0.16    -0.03  -0.04  -0.01     0.14  -0.14  -0.35
    11   6    -0.07  -0.00  -0.02     0.06  -0.01   0.02     0.00   0.03   0.01
    12   1     0.08   0.07   0.07    -0.07  -0.07  -0.07     0.04  -0.01   0.08
    13   1     0.36   0.24   0.07    -0.35  -0.23  -0.05    -0.18  -0.12  -0.11
    14   6     0.07   0.00  -0.02     0.06  -0.01  -0.02    -0.00  -0.03   0.01
    15   1    -0.08  -0.07   0.07    -0.07  -0.07   0.07    -0.04   0.01   0.08
    16   1    -0.36  -0.24   0.07    -0.35  -0.23   0.05     0.18   0.12  -0.11
    17   6     0.06  -0.01  -0.00    -0.06   0.00   0.01    -0.01   0.02  -0.02
    18   1    -0.08  -0.01   0.09     0.02   0.01  -0.05     0.04  -0.03  -0.05
    19   1    -0.33  -0.17   0.13     0.44   0.20  -0.22    -0.10  -0.01   0.11
    20   6    -0.06   0.01  -0.00    -0.06   0.00  -0.01     0.01  -0.02  -0.02
    21   1     0.33   0.17   0.13     0.44   0.20   0.22     0.10   0.01   0.11
    22   1     0.08   0.01   0.09     0.02   0.01   0.05    -0.04   0.03  -0.05
    23   6     0.05  -0.03  -0.03     0.02   0.00  -0.02    -0.05   0.05   0.04
    24   6     0.00  -0.00   0.03    -0.02   0.01  -0.00     0.00  -0.00  -0.04
    25   6    -0.02   0.01  -0.01    -0.01   0.00   0.00     0.02  -0.02   0.01
    26   6    -0.05   0.03  -0.03     0.02   0.00   0.02     0.05  -0.05   0.04
    27   1    -0.00  -0.00   0.21    -0.00   0.03   0.00    -0.00  -0.00  -0.18
    28   6    -0.00   0.00   0.04    -0.00  -0.00  -0.00     0.00  -0.00  -0.06
    29   1    -0.03   0.06  -0.03    -0.02   0.03  -0.01     0.04  -0.06   0.04
    30   6     0.02  -0.01  -0.01    -0.01   0.00  -0.00    -0.02   0.02   0.01
    31   1    -0.00   0.00  -0.14     0.00   0.00  -0.00    -0.00  -0.00   0.18
    32   1     0.03  -0.06  -0.03    -0.02   0.03   0.01    -0.04   0.06   0.04
                     58                     59                     60
                     A"                     A'                     A"
 Frequencies --   1352.8946              1353.2390              1355.0813
 Red. masses --      2.0725                 3.6633                 1.4170
 Frc consts  --      2.2349                 3.9525                 1.5330
 IR Inten    --      0.0279                 0.0873                 0.0031
  Atom  AN      X      Y      Z        X      Y      Z        X      Y      Z
     1   6     0.00  -0.00   0.00     0.02  -0.10   0.17    -0.00   0.01  -0.01
     2   6    -0.00   0.00   0.00     0.02  -0.10  -0.17     0.00  -0.01  -0.01
     3   6    -0.00   0.01   0.01    -0.11   0.17  -0.01     0.03  -0.03   0.01
     4   6    -0.00  -0.00  -0.00     0.08  -0.06   0.17     0.01  -0.01   0.02
     5   6     0.00   0.00  -0.00     0.08  -0.06  -0.17    -0.01   0.01   0.02
     6   6     0.00  -0.01   0.01    -0.11   0.17   0.01    -0.03   0.03   0.01
     7   1    -0.01   0.03  -0.06     0.09   0.14  -0.10     0.03  -0.08   0.14
     8   1     0.01  -0.03  -0.06     0.09   0.14   0.10    -0.03   0.08   0.14
     9   1     0.02  -0.01   0.03    -0.17  -0.01  -0.14    -0.08   0.08  -0.22
    10   1    -0.02   0.01   0.03    -0.17  -0.01   0.14     0.08  -0.08  -0.22
    11   6    -0.02  -0.01  -0.01    -0.02  -0.03  -0.01    -0.01  -0.02  -0.02
    12   1     0.06   0.07   0.00    -0.08   0.01  -0.10     0.18   0.12   0.07
    13   1     0.08   0.05   0.02     0.38   0.27   0.20    -0.11  -0.07  -0.03
    14   6     0.02   0.01  -0.01    -0.02  -0.03   0.01     0.01   0.02  -0.02
    15   1    -0.06  -0.07   0.00    -0.08   0.01   0.10    -0.18  -0.12   0.07
    16   1    -0.08  -0.05   0.02     0.38   0.27  -0.20     0.11   0.07  -0.03
    17   6    -0.01  -0.00   0.02     0.02  -0.01   0.01    -0.04  -0.02   0.05
    18   1     0.08   0.04  -0.05     0.04  -0.01  -0.00     0.06   0.11  -0.03
    19   1    -0.01  -0.00   0.01    -0.12  -0.07   0.02     0.39   0.15  -0.24
    20   6     0.01   0.00   0.02     0.02  -0.01  -0.01     0.04   0.02   0.05
    21   1     0.01   0.00   0.01    -0.12  -0.07  -0.02    -0.39  -0.15  -0.24
    22   1    -0.08  -0.04  -0.05     0.04  -0.01   0.00    -0.06  -0.11  -0.03
    23   6    -0.04   0.04   0.03     0.00   0.00   0.01     0.05  -0.06  -0.05
    24   6    -0.00   0.00  -0.15     0.00  -0.00  -0.00    -0.00  -0.00   0.03
    25   6     0.11  -0.08   0.09     0.00  -0.00  -0.00    -0.02   0.01  -0.01
    26   6     0.04  -0.04   0.03     0.00   0.00  -0.01    -0.05   0.06  -0.05
    27   1     0.00   0.00   0.64    -0.00  -0.01   0.00     0.00   0.00   0.27
    28   6     0.00  -0.00  -0.09    -0.00   0.00  -0.00    -0.00   0.00   0.07
    29   1    -0.33   0.21  -0.21    -0.01   0.00  -0.01    -0.08   0.08  -0.07
    30   6    -0.11   0.08   0.09     0.00  -0.00   0.00     0.02  -0.01  -0.01
    31   1     0.00  -0.00  -0.19    -0.00   0.00  -0.00     0.00   0.00  -0.22
    32   1     0.33  -0.21  -0.21    -0.01   0.00   0.01     0.08  -0.08  -0.07
                     61                     62                     63
                     A"                     A'                     A'
 Frequencies --   1360.6361              1365.7240              1452.2507
 Red. masses --      1.4327                 1.5979                 2.5676
 Frc consts  --      1.5628                 1.7560                 3.1905
 IR Inten    --      0.5496                 3.5638                 5.1892
  Atom  AN      X      Y      Z        X      Y      Z        X      Y      Z
     1   6     0.01  -0.01   0.00    -0.00   0.00  -0.03     0.02  -0.03  -0.13
     2   6    -0.01   0.01   0.00    -0.00   0.00   0.03     0.02  -0.03   0.13
     3   6     0.01   0.02   0.02     0.02   0.00   0.03    -0.09   0.14   0.00
     4   6     0.00  -0.01  -0.00    -0.01   0.01   0.01     0.02  -0.03  -0.14
     5   6    -0.00   0.01  -0.00    -0.01   0.01  -0.01     0.02  -0.03   0.14
     6   6    -0.01  -0.02   0.02     0.02   0.00  -0.03    -0.09   0.14  -0.00
     7   1    -0.02   0.04  -0.10     0.01  -0.02   0.02     0.12  -0.26   0.26
     8   1     0.02  -0.04  -0.10     0.01  -0.02  -0.02     0.12  -0.26  -0.26
     9   1    -0.00   0.00  -0.03     0.01   0.01   0.01     0.19  -0.22   0.27
    10   1     0.00  -0.00  -0.03     0.01   0.01  -0.01     0.19  -0.22  -0.27
    11   6    -0.05  -0.04  -0.06    -0.05  -0.05  -0.07     0.02  -0.04   0.01
    12   1     0.23   0.22   0.05     0.30   0.26   0.08    -0.15  -0.00  -0.18
    13   1     0.24   0.16   0.06     0.18   0.12   0.05     0.20   0.11   0.10
    14   6     0.05   0.04  -0.06    -0.05  -0.05   0.07     0.02  -0.04  -0.01
    15   1    -0.23  -0.22   0.05     0.30   0.26  -0.08    -0.15  -0.00   0.18
    16   1    -0.24  -0.16   0.06     0.18   0.12  -0.05     0.20   0.11  -0.10
    17   6    -0.05  -0.01   0.05    -0.07  -0.01   0.08     0.01  -0.00  -0.00
    18   1     0.32   0.15  -0.21     0.32   0.21  -0.19    -0.01  -0.02   0.01
    19   1     0.03   0.03   0.01     0.23   0.10  -0.11    -0.02  -0.02   0.00
    20   6     0.05   0.01   0.05    -0.07  -0.01  -0.08     0.01  -0.00   0.00
    21   1    -0.03  -0.03   0.01     0.23   0.10   0.11    -0.02  -0.02  -0.00
    22   1    -0.32  -0.15  -0.21     0.32   0.21   0.19    -0.01  -0.02  -0.01
    23   6    -0.05   0.04   0.02     0.03  -0.00   0.04     0.00  -0.00  -0.00
    24   6     0.00   0.00  -0.01    -0.00  -0.00  -0.00    -0.00   0.00   0.00
    25   6    -0.01   0.01  -0.01     0.01  -0.01   0.01     0.00   0.00   0.00
    26   6     0.05  -0.04   0.02     0.03  -0.00  -0.04     0.00  -0.00   0.00
    27   1    -0.00  -0.00  -0.22     0.01   0.01   0.00    -0.00   0.00   0.00
    28   6     0.00  -0.00  -0.03    -0.02   0.02  -0.00    -0.00   0.00   0.00
    29   1     0.13  -0.12   0.11    -0.04   0.04  -0.03    -0.01   0.00  -0.00
    30   6     0.01  -0.01  -0.01     0.01  -0.01  -0.01     0.00   0.00  -0.00
    31   1    -0.00  -0.00   0.27    -0.02   0.02   0.00    -0.00   0.00   0.00
    32   1    -0.13   0.12   0.11    -0.04   0.04   0.03    -0.01   0.00   0.00
                     64                     65                     66
                     A'                     A"                     A'
 Frequencies --   1475.5327              1493.6531              1494.6299
 Red. masses --      2.6782                 1.1109                 1.0980
 Frc consts  --      3.4355                 1.4603                 1.4451
 IR Inten    --      6.1367                 0.1108                 6.5101
  Atom  AN      X      Y      Z        X      Y      Z        X      Y      Z
     1   6     0.00  -0.00  -0.00    -0.00  -0.00   0.00    -0.00   0.00   0.01
     2   6     0.00  -0.00   0.00     0.00   0.00   0.00    -0.00   0.00  -0.01
     3   6    -0.00   0.01   0.00    -0.01  -0.00  -0.01    -0.00  -0.01  -0.00
     4   6     0.00  -0.00  -0.00     0.00  -0.00   0.00     0.00   0.00   0.01
     5   6     0.00  -0.00   0.00    -0.00   0.00   0.00     0.00   0.00  -0.01
     6   6    -0.00   0.01  -0.00     0.01   0.00  -0.01    -0.00  -0.01   0.00
     7   1     0.00  -0.01   0.01    -0.00   0.00  -0.00    -0.00   0.01  -0.01
     8   1     0.00  -0.01  -0.01     0.00  -0.00  -0.00    -0.00   0.01   0.01
     9   1     0.00  -0.01   0.01    -0.01   0.00  -0.02    -0.01   0.01  -0.01
    10   1     0.00  -0.01  -0.01     0.01  -0.00  -0.02    -0.01   0.01   0.01
    11   6     0.00  -0.01  -0.01    -0.00  -0.01   0.04    -0.01  -0.01   0.04
    12   1     0.02  -0.04   0.04    -0.08   0.23  -0.21    -0.08   0.23  -0.21
    13   1    -0.03   0.02   0.07     0.17  -0.09  -0.27     0.16  -0.10  -0.27
    14   6     0.00  -0.01   0.01     0.00   0.01   0.04    -0.01  -0.01  -0.04
    15   1     0.02  -0.04  -0.04     0.08  -0.23  -0.21    -0.08   0.23   0.21
    16   1    -0.03   0.02  -0.07    -0.17   0.09  -0.27     0.16  -0.10   0.27
    17   6     0.01  -0.02   0.04     0.00  -0.03  -0.04    -0.00  -0.03  -0.03
    18   1    -0.17   0.05   0.16    -0.12   0.35   0.07    -0.12   0.35   0.07
    19   1     0.17   0.04  -0.14     0.17   0.08   0.33     0.17   0.08   0.33
    20   6     0.01  -0.02  -0.04    -0.00   0.03  -0.04    -0.00  -0.03   0.03
    21   1     0.17   0.04   0.14    -0.17  -0.08   0.33     0.17   0.08  -0.33
    22   1    -0.17   0.05  -0.16     0.12  -0.35   0.07    -0.12   0.35  -0.07
    23   6    -0.09   0.10   0.18     0.01  -0.00   0.01    -0.01  -0.00   0.00
    24   6     0.08  -0.09  -0.00    -0.00   0.00  -0.01     0.00  -0.00   0.00
    25   6    -0.04   0.03  -0.10    -0.01   0.00   0.00    -0.00   0.00  -0.00
    26   6    -0.09   0.10  -0.18    -0.01   0.00   0.01    -0.01  -0.00  -0.00
    27   1     0.13  -0.08   0.00    -0.00  -0.00   0.01     0.01  -0.00  -0.00
    28   6     0.07  -0.05  -0.00    -0.00   0.00  -0.01     0.00  -0.00   0.00
    29   1     0.38  -0.31   0.21     0.01  -0.00   0.01     0.01  -0.01   0.01
    30   6    -0.04   0.03   0.10     0.01  -0.00   0.00    -0.00   0.00   0.00
    31   1     0.08  -0.07  -0.00    -0.00  -0.00   0.04     0.00  -0.00  -0.00
    32   1     0.38  -0.31  -0.21    -0.01   0.00   0.01     0.01  -0.01  -0.01
                     67                     68                     69
                     A"                     A'                     A"
 Frequencies --   1506.0869              1507.1197              1532.4105
 Red. masses --      1.1153                 1.1249                 2.3500
 Frc consts  --      1.4906                 1.5054                 3.2513
 IR Inten    --      1.0265                 0.1244                 6.2910
  Atom  AN      X      Y      Z        X      Y      Z        X      Y      Z
     1   6     0.00  -0.01   0.00     0.00  -0.00  -0.01     0.00  -0.01   0.01
     2   6    -0.00   0.01   0.00     0.00  -0.00   0.01    -0.00   0.01   0.01
     3   6     0.01   0.00   0.00     0.00   0.01   0.00    -0.00  -0.00  -0.01
     4   6    -0.00  -0.00  -0.00     0.00  -0.00   0.00     0.01  -0.01   0.01
     5   6     0.00   0.00  -0.00     0.00  -0.00  -0.00    -0.01   0.01   0.01
     6   6    -0.01  -0.00   0.00     0.00   0.01  -0.00     0.00   0.00  -0.01
     7   1     0.00   0.02  -0.03     0.01  -0.02   0.02    -0.00   0.01  -0.03
     8   1    -0.00  -0.02  -0.03     0.01  -0.02  -0.02     0.00  -0.01  -0.03
     9   1    -0.01   0.00  -0.01    -0.00  -0.01   0.00    -0.01   0.01  -0.03
    10   1     0.01  -0.00  -0.01    -0.00  -0.01  -0.00     0.01  -0.01  -0.03
    11   6    -0.00   0.01  -0.05    -0.00   0.00  -0.05    -0.00  -0.00  -0.00
    12   1     0.09  -0.27   0.24     0.08  -0.28   0.23     0.01   0.02   0.00
    13   1    -0.18   0.12   0.31    -0.16   0.12   0.32     0.02   0.01  -0.00
    14   6     0.00  -0.01  -0.05    -0.00   0.00   0.05     0.00   0.00  -0.00
    15   1    -0.09   0.27   0.24     0.08  -0.28  -0.23    -0.01  -0.02   0.00
    16   1     0.18  -0.12   0.31    -0.16   0.12  -0.32    -0.02  -0.01  -0.00
    17   6     0.01  -0.03  -0.03     0.01  -0.03  -0.04    -0.02   0.01   0.00
    18   1    -0.09   0.31   0.05    -0.08   0.31   0.04     0.03   0.07  -0.02
    19   1     0.13   0.06   0.29     0.12   0.06   0.30    -0.04   0.01   0.16
    20   6    -0.01   0.03  -0.03     0.01  -0.03   0.04     0.02  -0.01   0.00
    21   1    -0.13  -0.06   0.29     0.12   0.06  -0.30     0.04  -0.01   0.16
    22   1     0.09  -0.31   0.05    -0.08   0.31  -0.04    -0.03  -0.07  -0.02
    23   6     0.01   0.00   0.01    -0.00  -0.01  -0.02    -0.10   0.08  -0.04
    24   6     0.00  -0.00  -0.00    -0.00   0.01   0.00    -0.00  -0.00   0.10
    25   6    -0.00   0.00   0.01     0.00  -0.00   0.01     0.07  -0.07  -0.06
    26   6    -0.01  -0.00   0.01    -0.00  -0.01   0.02     0.10  -0.08  -0.04
    27   1    -0.00  -0.00  -0.01    -0.00   0.00  -0.00     0.00   0.00  -0.49
    28   6     0.00   0.00  -0.02    -0.00   0.00   0.00    -0.00   0.00   0.21
    29   1    -0.00  -0.00   0.01    -0.01   0.02  -0.00    -0.14   0.09  -0.24
    30   6     0.00  -0.00   0.01     0.00  -0.00  -0.01    -0.07   0.07  -0.06
    31   1    -0.00  -0.00   0.03    -0.00   0.00  -0.00     0.00   0.00  -0.62
    32   1     0.00   0.00   0.01    -0.01   0.02   0.00     0.14  -0.09  -0.24
                     70                     71                     72
                     A"                     A"                     A'
 Frequencies --   1547.1879              1615.2981              1636.4732
 Red. masses --      2.5128                 6.0620                 5.6075
 Frc consts  --      3.5440                 9.3190                 8.8479
 IR Inten    --      5.1901                 0.0946                 3.4536
  Atom  AN      X      Y      Z        X      Y      Z        X      Y      Z
     1   6    -0.04   0.10  -0.10    -0.09   0.19  -0.10    -0.00   0.00  -0.01
     2   6     0.04  -0.10  -0.10     0.09  -0.19  -0.10    -0.00   0.00   0.01
     3   6     0.04   0.02   0.16    -0.19   0.29  -0.00    -0.00  -0.00  -0.01
     4   6    -0.07   0.08  -0.10     0.13  -0.16   0.10     0.00  -0.00   0.01
     5   6     0.07  -0.08  -0.10    -0.13   0.16   0.10     0.00  -0.00  -0.01
     6   6    -0.04  -0.02   0.16     0.19  -0.29  -0.00    -0.00  -0.00   0.01
     7   1     0.04  -0.18   0.42    -0.05  -0.04   0.30     0.00  -0.01   0.01
     8   1    -0.04   0.18   0.42     0.05   0.04   0.30     0.00  -0.01  -0.01
     9   1     0.14  -0.11   0.41    -0.05  -0.03  -0.30    -0.01   0.00  -0.01
    10   1    -0.14   0.11   0.41     0.05   0.03  -0.30    -0.01   0.00   0.01
    11   6    -0.01  -0.01  -0.03     0.02  -0.03  -0.00     0.01   0.00   0.00
    12   1    -0.01   0.00  -0.04    -0.11  -0.07  -0.11    -0.01  -0.02  -0.00
    13   1    -0.01  -0.01  -0.04     0.10   0.11   0.19    -0.01  -0.01   0.01
    14   6     0.01   0.01  -0.03    -0.02   0.03  -0.00     0.01   0.00  -0.00
    15   1     0.01  -0.00  -0.04     0.11   0.07  -0.11    -0.01  -0.02   0.00
    16   1     0.01   0.01  -0.04    -0.10  -0.11   0.19    -0.01  -0.01  -0.01
    17   6    -0.01  -0.00   0.00     0.00  -0.00  -0.00     0.02  -0.02  -0.00
    18   1     0.01   0.06  -0.01    -0.01   0.00   0.01    -0.09   0.01   0.08
    19   1     0.04   0.02   0.04     0.01  -0.00   0.00     0.09   0.00  -0.13
    20   6     0.01   0.00   0.00    -0.00   0.00  -0.00     0.02  -0.02   0.00
    21   1    -0.04  -0.02   0.04    -0.01   0.00   0.00     0.09   0.00   0.13
    22   1    -0.01  -0.06  -0.01     0.01  -0.00   0.01    -0.09   0.01  -0.08
    23   6    -0.01   0.01  -0.00     0.00  -0.00   0.00    -0.21   0.18   0.01
    24   6    -0.00   0.00   0.01     0.00  -0.00  -0.00     0.08  -0.08  -0.00
    25   6     0.00  -0.00  -0.00    -0.00   0.00   0.00     0.24  -0.19   0.11
    26   6     0.01  -0.01  -0.00    -0.00   0.00   0.00    -0.21   0.18  -0.01
    27   1    -0.00  -0.00  -0.04    -0.00   0.00   0.02     0.08  -0.08   0.00
    28   6    -0.00   0.00   0.01     0.00  -0.00  -0.00    -0.13   0.10   0.00
    29   1    -0.01   0.01  -0.02     0.00  -0.00   0.00    -0.31   0.21  -0.29
    30   6    -0.00   0.00  -0.00     0.00  -0.00   0.00     0.24  -0.19  -0.11
    31   1    -0.00  -0.00  -0.04     0.00  -0.00   0.00    -0.15   0.12  -0.00
    32   1     0.01  -0.01  -0.02    -0.00   0.00   0.00    -0.31   0.21   0.29
                     73                     74                     75
                     A"                     A'                     A"
 Frequencies --   1651.0105              1654.1110              3040.5009
 Red. masses --      5.5805                 5.8550                 1.0596
 Frc consts  --      8.9624                 9.4386                 5.7716
 IR Inten    --      4.3532                 5.6792                 5.4263
  Atom  AN      X      Y      Z        X      Y      Z        X      Y      Z
     1   6    -0.00   0.00  -0.00     0.02  -0.08   0.30     0.00  -0.00  -0.00
     2   6     0.00  -0.00  -0.00     0.02  -0.08  -0.30    -0.00   0.00  -0.00
     3   6    -0.00   0.00  -0.00     0.05   0.03   0.20    -0.00  -0.00  -0.00
     4   6     0.00  -0.00   0.00    -0.06   0.05  -0.27    -0.00  -0.00  -0.00
     5   6    -0.00   0.00   0.00    -0.06   0.05   0.27     0.00   0.00  -0.00
     6   6     0.00  -0.00  -0.00     0.05   0.03  -0.20     0.00   0.00  -0.00
     7   1     0.00   0.00   0.00    -0.07   0.25  -0.28    -0.00   0.00   0.00
     8   1    -0.00  -0.00   0.00    -0.07   0.25   0.28     0.00  -0.00   0.00
     9   1    -0.00  -0.00  -0.00     0.19  -0.15   0.27    -0.00   0.00   0.00
    10   1     0.00   0.00  -0.00     0.19  -0.15  -0.27     0.00  -0.00   0.00
    11   6    -0.01  -0.00   0.00    -0.01  -0.01  -0.03    -0.01  -0.01   0.03
    12   1     0.01   0.03  -0.01    -0.01  -0.01  -0.02     0.27  -0.19  -0.26
    13   1     0.03   0.00  -0.01    -0.01  -0.00  -0.01    -0.12   0.25  -0.13
    14   6     0.01   0.00   0.00    -0.01  -0.01   0.03     0.01   0.01   0.03
    15   1    -0.01  -0.03  -0.01    -0.01  -0.01   0.02    -0.27   0.19  -0.26
    16   1    -0.03  -0.00  -0.01    -0.01  -0.00   0.01     0.12  -0.25  -0.13
    17   6    -0.00  -0.00   0.03    -0.01  -0.00   0.00    -0.01  -0.02  -0.02
    18   1    -0.05   0.01   0.06     0.01   0.03  -0.01     0.21  -0.01   0.30
    19   1     0.03   0.00  -0.05     0.03   0.01   0.01    -0.12   0.28  -0.03
    20   6     0.00   0.00   0.03    -0.01  -0.00  -0.00     0.01   0.02  -0.02
    21   1    -0.03  -0.00  -0.05     0.03   0.01  -0.01     0.12  -0.28  -0.03
    22   1     0.05  -0.01   0.06     0.01   0.03   0.01    -0.21   0.01   0.30
    23   6    -0.00  -0.03  -0.23    -0.01   0.00  -0.00     0.00   0.00   0.00
    24   6     0.00  -0.00   0.36     0.00  -0.00  -0.00    -0.00   0.00   0.00
    25   6     0.08  -0.06   0.18     0.01  -0.01   0.00    -0.00   0.00   0.00
    26   6     0.00   0.03  -0.23    -0.01   0.00   0.00    -0.00  -0.00   0.00
    27   1     0.00  -0.00  -0.56     0.00   0.00   0.00     0.00  -0.00  -0.00
    28   6    -0.00   0.00  -0.29    -0.00   0.00   0.00    -0.00   0.00  -0.00
    29   1    -0.20   0.17  -0.03    -0.01   0.01  -0.01     0.00  -0.00  -0.00
    30   6    -0.08   0.06   0.18     0.01  -0.01  -0.00     0.00  -0.00   0.00
    31   1    -0.00   0.00   0.32    -0.00   0.00  -0.00     0.00  -0.00  -0.00
    32   1     0.20  -0.17  -0.03    -0.01   0.01   0.01    -0.00   0.00  -0.00
                     76                     77                     78
                     A'                     A"                     A'
 Frequencies --   3040.6816              3047.8790              3048.7952
 Red. masses --      1.0597                 1.0595                 1.0596
 Frc consts  --      5.7728                 5.7987                 5.8029
 IR Inten    --     33.7412               139.3494                10.0292
  Atom  AN      X      Y      Z        X      Y      Z        X      Y      Z
     1   6    -0.00   0.00   0.00    -0.00   0.00   0.00     0.00  -0.00  -0.00
     2   6    -0.00   0.00  -0.00     0.00  -0.00   0.00     0.00  -0.00   0.00
     3   6    -0.00  -0.00  -0.00     0.00   0.00   0.00     0.00   0.00   0.00
     4   6     0.00  -0.00  -0.00    -0.00   0.00   0.00    -0.00   0.00   0.00
     5   6     0.00  -0.00   0.00     0.00  -0.00   0.00    -0.00   0.00  -0.00
     6   6    -0.00  -0.00   0.00    -0.00  -0.00   0.00     0.00   0.00  -0.00
     7   1     0.00  -0.01  -0.00     0.00  -0.00  -0.00    -0.00   0.01   0.00
     8   1     0.00  -0.01   0.00    -0.00   0.00  -0.00    -0.00   0.01  -0.00
     9   1    -0.00   0.00   0.00     0.00  -0.01  -0.01     0.00  -0.01  -0.01
    10   1    -0.00   0.00  -0.00    -0.00   0.01  -0.01     0.00  -0.01   0.01
    11   6    -0.01  -0.01   0.03     0.01   0.01  -0.03     0.01   0.01  -0.03
    12   1     0.27  -0.19  -0.26    -0.22   0.15   0.21    -0.22   0.15   0.21
    13   1    -0.12   0.25  -0.13     0.13  -0.28   0.15     0.13  -0.28   0.15
    14   6    -0.01  -0.01  -0.03    -0.01  -0.01  -0.03     0.01   0.01   0.03
    15   1     0.27  -0.19   0.26     0.22  -0.15   0.21    -0.22   0.15  -0.21
    16   1    -0.12   0.25   0.13    -0.13   0.28   0.15     0.13  -0.28  -0.15
    17   6    -0.01  -0.02  -0.02    -0.00  -0.03  -0.02    -0.00  -0.03  -0.02
    18   1     0.22  -0.01   0.30     0.21  -0.01   0.28     0.21  -0.01   0.28
    19   1    -0.12   0.28  -0.03    -0.16   0.35  -0.03    -0.16   0.35  -0.03
    20   6    -0.01  -0.02   0.02     0.00   0.03  -0.02    -0.00  -0.03   0.02
    21   1    -0.12   0.28   0.03     0.16  -0.35  -0.03    -0.16   0.35   0.03
    22   1     0.22  -0.01  -0.30    -0.21   0.01   0.28     0.21  -0.01  -0.28
    23   6    -0.00   0.00  -0.00     0.00   0.00   0.00    -0.00   0.00  -0.00
    24   6    -0.00   0.00  -0.00     0.00  -0.00   0.00    -0.00   0.00   0.00
    25   6     0.00  -0.00  -0.00    -0.00   0.00   0.00     0.00  -0.00  -0.00
    26   6    -0.00   0.00   0.00    -0.00  -0.00   0.00    -0.00   0.00   0.00
    27   1     0.01  -0.01   0.00    -0.00   0.00  -0.00     0.01  -0.01  -0.00
    28   6     0.00  -0.00   0.00    -0.00   0.00  -0.00     0.00  -0.00   0.00
    29   1    -0.00   0.00   0.01     0.00  -0.00  -0.01    -0.00   0.00   0.01
    30   6     0.00  -0.00   0.00     0.00  -0.00   0.00     0.00  -0.00   0.00
    31   1     0.00  -0.00   0.00    -0.00  -0.00  -0.00    -0.00   0.00   0.00
    32   1    -0.00   0.00  -0.01    -0.00   0.00  -0.01    -0.00   0.00  -0.01
                     79                     80                     81
                     A"                     A'                     A"
 Frequencies --   3082.4050              3082.5763              3099.5633
 Red. masses --      1.1053                 1.1053                 1.1055
 Frc consts  --      6.1876                 6.1878                 6.2576
 IR Inten    --     22.4122                 2.5620                 4.2113
  Atom  AN      X      Y      Z        X      Y      Z        X      Y      Z
     1   6    -0.00   0.00   0.00    -0.00   0.00   0.00     0.00  -0.00  -0.00
     2   6     0.00  -0.00   0.00    -0.00   0.00  -0.00    -0.00   0.00  -0.00
     3   6    -0.00   0.00  -0.00     0.00  -0.00   0.00     0.00  -0.00  -0.00
     4   6     0.00  -0.00  -0.00    -0.00  -0.00   0.00    -0.00   0.00   0.00
     5   6    -0.00   0.00  -0.00    -0.00  -0.00  -0.00     0.00  -0.00   0.00
     6   6     0.00  -0.00  -0.00     0.00  -0.00  -0.00    -0.00   0.00  -0.00
     7   1     0.00  -0.01  -0.01     0.00  -0.00  -0.00    -0.01   0.01   0.01
     8   1    -0.00   0.01  -0.01     0.00  -0.00   0.00     0.01  -0.01   0.01
     9   1    -0.00   0.00   0.00    -0.00   0.00  -0.00     0.01  -0.01  -0.01
    10   1     0.00  -0.00   0.00    -0.00   0.00   0.00    -0.01   0.01  -0.01
    11   6    -0.03   0.04   0.01     0.03  -0.04  -0.01     0.03  -0.04  -0.00
    12   1     0.22  -0.14  -0.22    -0.22   0.15   0.22    -0.20   0.13   0.19
    13   1     0.12  -0.28   0.15    -0.12   0.28  -0.15    -0.15   0.34  -0.18
    14   6     0.03  -0.04   0.01     0.03  -0.04   0.01    -0.03   0.04  -0.00
    15   1    -0.22   0.14  -0.22    -0.22   0.15  -0.22     0.20  -0.13   0.19
    16   1    -0.12   0.28   0.15    -0.12   0.28   0.15     0.15  -0.34  -0.18
    17   6     0.03  -0.03   0.03    -0.03   0.03  -0.03     0.03  -0.03   0.02
    18   1    -0.22   0.00  -0.31     0.22  -0.00   0.31    -0.18   0.00  -0.24
    19   1    -0.13   0.31  -0.02     0.13  -0.31   0.02    -0.15   0.34  -0.03
    20   6    -0.03   0.03   0.03    -0.03   0.03   0.03    -0.03   0.03   0.02
    21   1     0.13  -0.31  -0.02     0.13  -0.31  -0.02     0.15  -0.34  -0.03
    22   1     0.22  -0.00  -0.31     0.22  -0.00  -0.31     0.18  -0.00  -0.24
    23   6    -0.00   0.00   0.00    -0.00   0.00   0.00    -0.00   0.00   0.00
    24   6    -0.00   0.00   0.00     0.00  -0.00   0.00    -0.00   0.00   0.00
    25   6     0.00   0.00  -0.00     0.00  -0.00  -0.00     0.00  -0.00  -0.00
    26   6     0.00  -0.00   0.00    -0.00   0.00  -0.00     0.00  -0.00   0.00
    27   1     0.00  -0.00  -0.00    -0.01   0.01  -0.00     0.00  -0.00  -0.00
    28   6    -0.00   0.00   0.00    -0.00   0.00   0.00    -0.00   0.00   0.00
    29   1    -0.00   0.00   0.00    -0.00   0.00   0.00    -0.00   0.00   0.01
    30   6    -0.00  -0.00  -0.00     0.00  -0.00   0.00    -0.00   0.00  -0.00
    31   1     0.00  -0.00  -0.00     0.00  -0.00  -0.00     0.00  -0.00  -0.00
    32   1     0.00  -0.00   0.00    -0.00   0.00  -0.00     0.00  -0.00   0.01
                     82                     83                     84
                     A'                     A"                     A'
 Frequencies --   3099.8466              3157.2027              3164.2710
 Red. masses --      1.1054                 1.0861                 1.0855
 Frc consts  --      6.2581                 6.3787                 6.4038
 IR Inten    --     56.4557                10.8498                 0.0029
  Atom  AN      X      Y      Z        X      Y      Z        X      Y      Z
     1   6    -0.00   0.00   0.00     0.00  -0.00   0.00    -0.00   0.00   0.00
     2   6    -0.00   0.00  -0.00    -0.00   0.00   0.00    -0.00   0.00  -0.00
     3   6     0.00  -0.00  -0.00    -0.00   0.00  -0.00    -0.00  -0.00   0.00
     4   6    -0.00   0.00   0.00     0.03  -0.05  -0.03    -0.00   0.00   0.00
     5   6    -0.00   0.00  -0.00    -0.03   0.05  -0.03    -0.00   0.00  -0.00
     6   6     0.00  -0.00   0.00     0.00  -0.00  -0.00    -0.00  -0.00  -0.00
     7   1     0.00  -0.01  -0.01    -0.01   0.01   0.01     0.00  -0.00  -0.00
     8   1     0.00  -0.01   0.01     0.01  -0.01   0.01     0.00  -0.00   0.00
     9   1     0.00  -0.01  -0.01    -0.32   0.53   0.34     0.00  -0.00  -0.00
    10   1     0.00  -0.01   0.01     0.32  -0.53   0.34     0.00  -0.00   0.00
    11   6     0.03  -0.04  -0.00     0.00  -0.00  -0.00     0.00  -0.00   0.00
    12   1    -0.19   0.13   0.19    -0.01   0.01   0.01    -0.00   0.00   0.00
    13   1    -0.15   0.34  -0.18    -0.00   0.00  -0.00    -0.00   0.00  -0.00
    14   6     0.03  -0.04   0.00    -0.00   0.00  -0.00     0.00  -0.00  -0.00
    15   1    -0.19   0.13  -0.19     0.01  -0.01   0.01    -0.00   0.00  -0.00
    16   1    -0.15   0.34   0.18     0.00  -0.00  -0.00    -0.00   0.00   0.00
    17   6     0.03  -0.03   0.02     0.00  -0.00   0.00     0.00  -0.00   0.00
    18   1    -0.18   0.00  -0.25    -0.00   0.00  -0.00    -0.01  -0.00  -0.01
    19   1    -0.15   0.35  -0.03    -0.00   0.01  -0.00    -0.00   0.00  -0.00
    20   6     0.03  -0.03  -0.02    -0.00   0.00   0.00     0.00  -0.00  -0.00
    21   1    -0.15   0.35   0.03     0.00  -0.01  -0.00    -0.00   0.00   0.00
    22   1    -0.18   0.00   0.25     0.00  -0.00  -0.00    -0.01  -0.00   0.01
    23   6     0.00  -0.00  -0.00    -0.00   0.00  -0.00    -0.00   0.00  -0.00
    24   6    -0.00   0.00   0.00     0.00  -0.00   0.00     0.00  -0.00  -0.00
    25   6    -0.00   0.00   0.00     0.00  -0.00  -0.00     0.02  -0.02  -0.04
    26   6     0.00  -0.00   0.00     0.00  -0.00  -0.00    -0.00   0.00   0.00
    27   1     0.01  -0.01   0.00    -0.00   0.00  -0.00    -0.01   0.01   0.00
    28   6     0.00  -0.00  -0.00    -0.00   0.00   0.00    -0.03   0.03   0.00
    29   1     0.00  -0.00  -0.01    -0.00   0.00   0.00    -0.21   0.22   0.51
    30   6    -0.00   0.00  -0.00    -0.00   0.00  -0.00     0.02  -0.02   0.04
    31   1    -0.00   0.00   0.00     0.00  -0.00   0.00     0.42  -0.35  -0.00
    32   1     0.00  -0.00   0.01     0.00  -0.00   0.00    -0.21   0.22  -0.51
                     85                     86                     87
                     A"                     A"                     A'
 Frequencies --   3171.3367              3172.0056              3174.9275
 Red. masses --      1.0887                 1.0882                 1.0941
 Frc consts  --      6.4515                 6.4508                 6.4978
 IR Inten    --      3.2052                27.4848                26.7640
  Atom  AN      X      Y      Z        X      Y      Z        X      Y      Z
     1   6    -0.02   0.03   0.02     0.02  -0.03  -0.02     0.00  -0.00  -0.00
     2   6     0.02  -0.03   0.02    -0.02   0.03  -0.02     0.00  -0.00   0.00
     3   6    -0.00   0.00   0.00     0.00  -0.00  -0.00    -0.00   0.00  -0.00
     4   6     0.00  -0.00  -0.00    -0.00   0.00   0.00     0.03  -0.05  -0.03
     5   6    -0.00   0.00  -0.00     0.00  -0.00   0.00     0.03  -0.05   0.03
     6   6     0.00  -0.00   0.00    -0.00   0.00  -0.00    -0.00   0.00   0.00
     7   1     0.23  -0.34  -0.23    -0.26   0.38   0.26    -0.04   0.06   0.04
     8   1    -0.23   0.34  -0.23     0.26  -0.38   0.26    -0.04   0.06  -0.04
     9   1    -0.00   0.01   0.00     0.00  -0.01  -0.01    -0.31   0.52   0.34
    10   1     0.00  -0.01   0.00    -0.00   0.01  -0.01    -0.31   0.52  -0.34
    11   6     0.00  -0.00   0.00    -0.00   0.00  -0.00     0.00  -0.00  -0.00
    12   1    -0.00   0.00   0.00     0.00  -0.00  -0.00    -0.01   0.00   0.01
    13   1    -0.00   0.01  -0.00     0.01  -0.02   0.01     0.00   0.00   0.00
    14   6    -0.00   0.00   0.00     0.00  -0.00  -0.00     0.00  -0.00   0.00
    15   1     0.00  -0.00   0.00    -0.00   0.00  -0.00    -0.01   0.00  -0.01
    16   1     0.00  -0.01  -0.00    -0.01   0.02   0.01     0.00   0.00  -0.00
    17   6    -0.00  -0.00  -0.00    -0.00   0.00  -0.00     0.00  -0.00   0.00
    18   1     0.00   0.00   0.01     0.01   0.00   0.01    -0.00   0.00  -0.00
    19   1    -0.00   0.00   0.00     0.00  -0.00   0.00    -0.00   0.01  -0.00
    20   6     0.00   0.00  -0.00     0.00  -0.00  -0.00     0.00  -0.00  -0.00
    21   1     0.00  -0.00   0.00    -0.00   0.00   0.00    -0.00   0.01   0.00
    22   1    -0.00  -0.00   0.01    -0.01  -0.00   0.01    -0.00   0.00   0.00
    23   6    -0.00   0.00  -0.00    -0.00   0.00  -0.00    -0.00   0.00  -0.00
    24   6     0.00  -0.00   0.00     0.00  -0.00   0.00    -0.00   0.00   0.00
    25   6     0.02  -0.02  -0.04     0.01  -0.02  -0.03     0.00  -0.00  -0.00
    26   6     0.00  -0.00  -0.00     0.00  -0.00  -0.00    -0.00   0.00   0.00
    27   1    -0.00   0.00  -0.00    -0.00   0.00  -0.00     0.00  -0.00  -0.00
    28   6     0.00  -0.00   0.00     0.00  -0.00   0.00    -0.00   0.00  -0.00
    29   1    -0.18   0.20   0.45    -0.16   0.17   0.40    -0.00   0.00   0.00
    30   6    -0.02   0.02  -0.04    -0.01   0.02  -0.03     0.00  -0.00   0.00
    31   1    -0.00   0.00  -0.00    -0.00   0.00  -0.00     0.00  -0.00  -0.00
    32   1     0.18  -0.20   0.45     0.16  -0.17   0.40    -0.00   0.00  -0.00
                     88                     89                     90
                     A'                     A'                     A'
 Frequencies --   3189.3616              3191.5877              3206.2894
 Red. masses --      1.0946                 1.0961                 1.0894
 Frc consts  --      6.5604                 6.5781                 6.5983
 IR Inten    --      9.9658                34.8624                 6.6463
  Atom  AN      X      Y      Z        X      Y      Z        X      Y      Z
     1   6     0.03  -0.04  -0.03    -0.00   0.00   0.00    -0.00   0.00   0.00
     2   6     0.03  -0.04   0.03    -0.00   0.00  -0.00    -0.00   0.00  -0.00
     3   6    -0.00   0.00   0.00     0.00  -0.00  -0.00    -0.00   0.00  -0.00
     4   6    -0.00   0.01   0.00     0.00  -0.00  -0.00    -0.00  -0.00  -0.00
     5   6    -0.00   0.01  -0.00     0.00  -0.00   0.00    -0.00  -0.00   0.00
     6   6    -0.00   0.00  -0.00     0.00  -0.00   0.00    -0.00   0.00   0.00
     7   1    -0.35   0.50   0.34     0.02  -0.04  -0.02     0.01  -0.01  -0.01
     8   1    -0.35   0.50  -0.34     0.02  -0.04   0.02     0.01  -0.01   0.01
     9   1     0.04  -0.06  -0.04    -0.00   0.00   0.00     0.00   0.00   0.00
    10   1     0.04  -0.06   0.04    -0.00   0.00  -0.00     0.00   0.00  -0.00
    11   6     0.00  -0.00   0.00    -0.00   0.00  -0.00    -0.00   0.00  -0.00
    12   1     0.00  -0.00  -0.00    -0.00  -0.00   0.00     0.00  -0.00  -0.00
    13   1    -0.01   0.01  -0.01     0.00  -0.00   0.00     0.00  -0.00   0.00
    14   6     0.00  -0.00  -0.00    -0.00   0.00   0.00    -0.00   0.00   0.00
    15   1     0.00  -0.00   0.00    -0.00  -0.00  -0.00     0.00  -0.00   0.00
    16   1    -0.01   0.01   0.01     0.00  -0.00  -0.00     0.00  -0.00  -0.00
    17   6     0.00  -0.00  -0.00    -0.00   0.00  -0.00    -0.00   0.00  -0.00
    18   1    -0.00  -0.00  -0.00     0.00   0.00   0.01     0.00  -0.00  -0.00
    19   1    -0.00   0.00  -0.00    -0.00   0.00   0.00     0.01  -0.01  -0.00
    20   6     0.00  -0.00   0.00    -0.00   0.00   0.00    -0.00   0.00   0.00
    21   1    -0.00   0.00   0.00    -0.00   0.00  -0.00     0.01  -0.01   0.00
    22   1    -0.00  -0.00   0.00     0.00   0.00  -0.01     0.00  -0.00   0.00
    23   6     0.00  -0.00  -0.00     0.00  -0.00  -0.00    -0.00  -0.00  -0.00
    24   6    -0.00   0.00  -0.00    -0.01   0.01   0.00    -0.06   0.06   0.00
    25   6    -0.00   0.00   0.00    -0.01   0.01   0.03     0.00  -0.00  -0.00
    26   6     0.00  -0.00   0.00     0.00  -0.00   0.00    -0.00  -0.00   0.00
    27   1     0.02  -0.02   0.00     0.07  -0.06  -0.00     0.73  -0.67  -0.00
    28   6    -0.00   0.00   0.00    -0.06   0.05  -0.00     0.01  -0.00   0.00
    29   1     0.01  -0.01  -0.02     0.13  -0.14  -0.33    -0.01   0.02   0.03
    30   6    -0.00   0.00  -0.00    -0.01   0.01  -0.03     0.00  -0.00   0.00
    31   1     0.05  -0.04   0.00     0.64  -0.53   0.00    -0.05   0.05  -0.00
    32   1     0.01  -0.01   0.02     0.13  -0.14   0.33    -0.01   0.02  -0.03

 -------------------
 - Thermochemistry -
 -------------------
 Temperature   298.150 Kelvin.  Pressure   1.00000 Atm.
 Atom     1 has atomic number  6 and mass  12.00000
 Atom     2 has atomic number  6 and mass  12.00000
 Atom     3 has atomic number  6 and mass  12.00000
 Atom     4 has atomic number  6 and mass  12.00000
 Atom     5 has atomic number  6 and mass  12.00000
 Atom     6 has atomic number  6 and mass  12.00000
 Atom     7 has atomic number  1 and mass   1.00783
 Atom     8 has atomic number  1 and mass   1.00783
 Atom     9 has atomic number  1 and mass   1.00783
 Atom    10 has atomic number  1 and mass   1.00783
 Atom    11 has atomic number  6 and mass  12.00000
 Atom    12 has atomic number  1 and mass   1.00783
 Atom    13 has atomic number  1 and mass   1.00783
 Atom    14 has atomic number  6 and mass  12.00000
 Atom    15 has atomic number  1 and mass   1.00783
 Atom    16 has atomic number  1 and mass   1.00783
 Atom    17 has atomic number  6 and mass  12.00000
 Atom    18 has atomic number  1 and mass   1.00783
 Atom    19 has atomic number  1 and mass   1.00783
 Atom    20 has atomic number  6 and mass  12.00000
 Atom    21 has atomic number  1 and mass   1.00783
 Atom    22 has atomic number  1 and mass   1.00783
 Atom    23 has atomic number  6 and mass  12.00000
 Atom    24 has atomic number  6 and mass  12.00000
 Atom    25 has atomic number  6 and mass  12.00000
 Atom    26 has atomic number  6 and mass  12.00000
 Atom    27 has atomic number  1 and mass   1.00783
 Atom    28 has atomic number  6 and mass  12.00000
 Atom    29 has atomic number  1 and mass   1.00783
 Atom    30 has atomic number  6 and mass  12.00000
 Atom    31 has atomic number  1 and mass   1.00783
 Atom    32 has atomic number  1 and mass   1.00783
 Molecular mass:   208.12520 amu.
 Principal axes and moments of inertia in atomic units:
                           1         2         3
     Eigenvalues --  2391.973222562.599143857.80131
           X            0.00000   0.99941  -0.03437
           Y            0.00000   0.03437   0.99941
           Z            1.00000   0.00000  -0.00000
 This molecule is an asymmetric top.
 Rotational symmetry number  1.
 Warning -- assumption of classical behavior for rotation
           may cause significant error
 Rotational temperatures (Kelvin)      0.03621     0.03380     0.02245
 Rotational constants (GHZ):           0.75450     0.70426     0.46782
 Zero-point vibrational energy     721925.7 (Joules/Mol)
                                  172.54438 (Kcal/Mol)
 Warning -- explicit consideration of  18 degrees of freedom as
           vibrations may cause significant error
 Vibrational temperatures:    146.29   176.62   216.75   239.35   352.90
          (Kelvin)            409.23   425.77   449.40   505.13   527.59
                              562.31   640.36   664.57   688.61   715.26
                              752.58   803.03   880.90   925.82   930.71
                             1038.64  1040.73  1049.00  1071.34  1138.20
                             1166.73  1177.11  1183.86  1188.74  1281.99
                             1287.94  1307.74  1321.13  1364.63  1373.14
                             1379.84  1399.37  1405.25  1427.74  1460.65
                             1467.72  1485.65  1584.65  1629.14  1663.20
                             1688.08  1706.63  1729.70  1730.89  1736.61
                             1738.96  1758.06  1765.56  1800.43  1884.22
                             1895.74  1940.85  1946.51  1947.01  1949.66
                             1957.65  1964.97  2089.46  2122.96  2149.03
                             2150.44  2166.92  2168.41  2204.80  2226.06
                             2324.05  2354.52  2375.44  2379.90  4374.60
                             4374.86  4385.22  4386.54  4434.89  4435.14
                             4459.58  4459.99  4542.51  4552.68  4562.85
                             4563.81  4568.01  4588.78  4591.98  4613.14
 
 Zero-point correction=                           0.274967 (Hartree/Particle)
 Thermal correction to Energy=                    0.286755
 Thermal correction to Enthalpy=                  0.287699
 Thermal correction to Gibbs Free Energy=         0.238290
 Sum of electronic and zero-point Energies=           -619.066380
 Sum of electronic and thermal Energies=              -619.054592
 Sum of electronic and thermal Enthalpies=            -619.053648
 Sum of electronic and thermal Free Energies=         -619.103057
 
                     E (Thermal)             CV                S
                      KCal/Mol        Cal/Mol-Kelvin    Cal/Mol-Kelvin
 Total                  179.941             51.630            103.989
 Electronic               0.000              0.000              0.000
 Translational            0.889              2.981             41.903
 Rotational               0.889              2.981             31.537
 Vibrational            178.164             45.669             30.550
 Vibration     1          0.604              1.948              3.422
 Vibration     2          0.610              1.930              3.057
 Vibration     3          0.618              1.902              2.664
 Vibration     4          0.624              1.884              2.476
 Vibration     5          0.660              1.771              1.764
 Vibration     6          0.683              1.703              1.507
 Vibration     7          0.690              1.681              1.440
 Vibration     8          0.701              1.650              1.350
 Vibration     9          0.728              1.573              1.161
 Vibration    10          0.740              1.541              1.094
 Vibration    11          0.759              1.490              0.997
 Vibration    12          0.804              1.372              0.811
 Vibration    13          0.820              1.335              0.761
 Vibration    14          0.835              1.298              0.714
 Vibration    15          0.853              1.256              0.665
 Vibration    16          0.878              1.199              0.603
 Vibration    17          0.914              1.122              0.528
 Vibration    18          0.971              1.006              0.429
                       Q            Log10(Q)             Ln(Q)
 Total Bot       0.247801-109       -109.605897       -252.376905
 Total V=0       0.741340D+17         16.870017         38.844650
 Vib (Bot)       0.120622-123       -123.918572       -285.333057
 Vib (Bot)    1  0.201778D+01          0.304874          0.701998
 Vib (Bot)    2  0.166370D+01          0.221074          0.509041
 Vib (Bot)    3  0.134569D+01          0.128944          0.296904
 Vib (Bot)    4  0.121281D+01          0.083792          0.192939
 Vib (Bot)    5  0.797490D+00         -0.098275         -0.226286
 Vib (Bot)    6  0.674359D+00         -0.171109         -0.393993
 Vib (Bot)    7  0.644116D+00         -0.191036         -0.439877
 Vib (Bot)    8  0.604563D+00         -0.218558         -0.503249
 Vib (Bot)    9  0.525142D+00         -0.279723         -0.644086
 Vib (Bot)   10  0.497603D+00         -0.303117         -0.697952
 Vib (Bot)   11  0.459092D+00         -0.338101         -0.778506
 Vib (Bot)   12  0.386835D+00         -0.412474         -0.949756
 Vib (Bot)   13  0.367653D+00         -0.434562         -1.000615
 Vib (Bot)   14  0.349861D+00         -0.456104         -1.050218
 Vib (Bot)   15  0.331445D+00         -0.479588         -1.104292
 Vib (Bot)   16  0.307717D+00         -0.511849         -1.178575
 Vib (Bot)   17  0.278972D+00         -0.554440         -1.276645
 Vib (Bot)   18  0.240807D+00         -0.618331         -1.423760
 Vib (V=0)       0.360863D+03          2.557342          5.888498
 Vib (V=0)    1  0.257881D+01          0.411419          0.947326
 Vib (V=0)    2  0.223721D+01          0.349706          0.805228
 Vib (V=0)    3  0.193557D+01          0.286810          0.660404
 Vib (V=0)    4  0.181183D+01          0.258118          0.594339
 Vib (V=0)    5  0.144127D+01          0.158746          0.365525
 Vib (V=0)    6  0.133950D+01          0.126943          0.292296
 Vib (V=0)    7  0.131540D+01          0.119059          0.274145
 Vib (V=0)    8  0.128454D+01          0.108746          0.250398
 Vib (V=0)    9  0.122510D+01          0.088173          0.203025
 Vib (V=0)   10  0.120541D+01          0.081136          0.186823
 Vib (V=0)   11  0.117880D+01          0.071439          0.164494
 Vib (V=0)   12  0.113217D+01          0.053912          0.124138
 Vib (V=0)   13  0.112062D+01          0.049458          0.113882
 Vib (V=0)   14  0.111025D+01          0.045420          0.104584
 Vib (V=0)   15  0.109988D+01          0.041345          0.095201
 Vib (V=0)   16  0.108710D+01          0.036271          0.083516
 Vib (V=0)   17  0.107256D+01          0.030422          0.070048
 Vib (V=0)   18  0.105497D+01          0.023239          0.053509
 Electronic      0.100000D+01          0.000000          0.000000
 Translational   0.118016D+09          8.071941         18.586331
 Rotational      0.174074D+07          6.240734         14.369821
 ***** Axes restored to original set *****
 -------------------------------------------------------------------
 Center     Atomic                   Forces (Hartrees/Bohr)
 Number     Number              X              Y              Z
 -------------------------------------------------------------------
      1        6           0.000000765   -0.000000511    0.000000020
      2        6           0.000000765   -0.000000511   -0.000000020
      3        6           0.000000218   -0.000000707   -0.000000016
      4        6          -0.000000216   -0.000001138    0.000000033
      5        6          -0.000000216   -0.000001138   -0.000000033
      6        6           0.000000218   -0.000000707    0.000000016
      7        1           0.000001171   -0.000000212    0.000000008
      8        1           0.000001171   -0.000000212   -0.000000008
      9        1          -0.000000615   -0.000001358   -0.000000005
     10        1          -0.000000615   -0.000001358    0.000000005
     11        6           0.000000083   -0.000000435   -0.000000009
     12        1          -0.000000174   -0.000000778   -0.000000011
     13        1           0.000000502   -0.000000226    0.000000011
     14        6           0.000000083   -0.000000435    0.000000009
     15        1          -0.000000174   -0.000000778    0.000000011
     16        1           0.000000502   -0.000000226   -0.000000011
     17        6          -0.000000461    0.000000155    0.000000026
     18        1          -0.000000428    0.000000503   -0.000000008
     19        1          -0.000000932   -0.000000031   -0.000000003
     20        6          -0.000000461    0.000000155   -0.000000026
     21        1          -0.000000932   -0.000000031    0.000000003
     22        1          -0.000000428    0.000000503    0.000000008
     23        6          -0.000000273    0.000000595    0.000000037
     24        6          -0.000000497    0.000000383    0.000000000
     25        6           0.000000157    0.000001110   -0.000000014
     26        6          -0.000000273    0.000000595   -0.000000037
     27        1          -0.000000917   -0.000000041    0.000000000
     28        6           0.000000377    0.000001372    0.000000000
     29        1           0.000000365    0.000001285    0.000000002
     30        6           0.000000157    0.000001110    0.000000014
     31        1           0.000000712    0.000001785    0.000000000
     32        1           0.000000365    0.000001285   -0.000000002
 -------------------------------------------------------------------
 Cartesian Forces:  Max     0.000001785 RMS     0.000000577
 FormGI is forming the generalized inverse of G from B-inverse, IUseBI=4.
 Leave Link  716 at Mon Jul 28 11:52:50 2025, MaxMem=   104857600 cpu:              43.8 elap:               2.2
 (Enter /opt/linux/rocky/8/software/gaussian/16c01_avx2/g16/l103.exe)

 GradGradGradGradGradGradGradGradGradGradGradGradGradGradGradGradGradGrad
 Berny optimization.
 Red2BG is reusing G-inverse.
 Internal  Forces:  Max     0.000000055 RMS     0.000000014
 Search for a local minimum.
 Step number   1 out of a maximum of    2
 All quantities printed in internal units (Hartrees-Bohrs-Radians)
 Second derivative matrix not updated -- analytic derivatives used.
 ITU=  0
     Eigenvalues ---    0.00320   0.00384   0.01079   0.01538   0.01723
     Eigenvalues ---    0.01725   0.01840   0.01880   0.01929   0.02113
     Eigenvalues ---    0.02139   0.02155   0.02212   0.02277   0.02424
     Eigenvalues ---    0.02431   0.02445   0.02540   0.02795   0.03068
     Eigenvalues ---    0.03349   0.04201   0.04371   0.04458   0.04596
     Eigenvalues ---    0.05262   0.05376   0.06177   0.06912   0.06947
     Eigenvalues ---    0.07509   0.07839   0.08277   0.08675   0.09617
     Eigenvalues ---    0.09940   0.11072   0.11086   0.11324   0.11602
     Eigenvalues ---    0.11895   0.12037   0.12047   0.12552   0.12729
     Eigenvalues ---    0.13268   0.15339   0.17033   0.17446   0.18244
     Eigenvalues ---    0.18894   0.19027   0.19041   0.19798   0.20091
     Eigenvalues ---    0.20389   0.22302   0.25002   0.25745   0.27934
     Eigenvalues ---    0.28911   0.29001   0.29820   0.31075   0.33046
     Eigenvalues ---    0.33058   0.33232   0.33280   0.33694   0.33701
     Eigenvalues ---    0.33872   0.34051   0.35032   0.35445   0.35467
     Eigenvalues ---    0.35509   0.35703   0.35848   0.35861   0.36381
     Eigenvalues ---    0.37699   0.40098   0.40927   0.41292   0.43726
     Eigenvalues ---    0.45460   0.46080   0.46583   0.48900   0.50651
 Angle between quadratic step and forces=  90.00 degrees.
 Linear search not attempted -- first point.
 Iteration  1 RMS(Cart)=  0.00000067 RMS(Int)=  0.00000000
 ITry= 1 IFail=0 DXMaxC= 3.38D-06 DCOld= 1.00D+10 DXMaxT= 3.00D-01 DXLimC= 3.00D+00 Rises=F
 ClnCor:  largest displacement from symmetrization is 5.03D-12 for atom    21.
 Variable       Old X    -DE/DX   Delta X   Delta X   Delta X     New X
                                 (Linear)    (Quad)   (Total)
    R1        2.63081   0.00000   0.00000   0.00000   0.00000   2.63081
    R2        2.64768  -0.00000   0.00000  -0.00000  -0.00000   2.64768
    R3        2.05384   0.00000   0.00000   0.00000   0.00000   2.05384
    R4        2.64768  -0.00000   0.00000  -0.00000  -0.00000   2.64768
    R5        2.05384   0.00000   0.00000   0.00000   0.00000   2.05384
    R6        2.64938   0.00000   0.00000   0.00000   0.00000   2.64938
    R7        2.85796  -0.00000   0.00000  -0.00000  -0.00000   2.85796
    R8        2.64107  -0.00000   0.00000  -0.00000  -0.00000   2.64107
    R9        2.05631  -0.00000   0.00000  -0.00000  -0.00000   2.05631
   R10        2.64938   0.00000   0.00000   0.00000   0.00000   2.64938
   R11        2.05631  -0.00000   0.00000  -0.00000  -0.00000   2.05631
   R12        2.85796  -0.00000   0.00000  -0.00000  -0.00000   2.85796
   R13        2.07189   0.00000   0.00000   0.00000   0.00000   2.07189
   R14        2.07014  -0.00000   0.00000  -0.00000  -0.00000   2.07014
   R15        2.99597  -0.00000   0.00000   0.00000   0.00000   2.99597
   R16        2.07189   0.00000   0.00000   0.00000   0.00000   2.07189
   R17        2.07014  -0.00000   0.00000  -0.00000  -0.00000   2.07014
   R18        2.99597  -0.00000   0.00000   0.00000   0.00000   2.99597
   R19        2.07158   0.00000   0.00000   0.00000   0.00000   2.07158
   R20        2.07043  -0.00000   0.00000  -0.00000  -0.00000   2.07043
   R21        2.87550  -0.00000   0.00000  -0.00000  -0.00000   2.87550
   R22        2.07043  -0.00000   0.00000  -0.00000  -0.00000   2.07043
   R23        2.07158   0.00000   0.00000   0.00000   0.00000   2.07158
   R24        2.87550  -0.00000   0.00000  -0.00000  -0.00000   2.87550
   R25        2.64790   0.00000   0.00000   0.00000   0.00000   2.64790
   R26        2.64763   0.00000   0.00000   0.00000   0.00000   2.64763
   R27        2.64790   0.00000   0.00000   0.00000   0.00000   2.64790
   R28        2.04859   0.00000   0.00000   0.00000   0.00000   2.04859
   R29        2.64046  -0.00000   0.00000  -0.00000  -0.00000   2.64046
   R30        2.05532  -0.00000   0.00000   0.00000   0.00000   2.05532
   R31        2.64763   0.00000   0.00000   0.00000   0.00000   2.64763
   R32        2.64046  -0.00000   0.00000  -0.00000  -0.00000   2.64046
   R33        2.05355   0.00000   0.00000   0.00000   0.00000   2.05355
   R34        2.05532  -0.00000   0.00000   0.00000   0.00000   2.05532
    A1        2.10236   0.00000   0.00000   0.00000   0.00000   2.10236
    A2        2.08071   0.00000   0.00000   0.00000   0.00000   2.08071
    A3        2.08590  -0.00000   0.00000  -0.00000  -0.00000   2.08590
    A4        2.10236   0.00000   0.00000   0.00000   0.00000   2.10236
    A5        2.08071   0.00000   0.00000   0.00000   0.00000   2.08071
    A6        2.08590  -0.00000   0.00000  -0.00000  -0.00000   2.08590
    A7        2.04858  -0.00000   0.00000   0.00000   0.00000   2.04858
    A8        2.07411  -0.00000   0.00000  -0.00000  -0.00000   2.07411
    A9        2.11590   0.00000   0.00000  -0.00000  -0.00000   2.11590
   A10        2.09974   0.00000   0.00000   0.00000   0.00000   2.09974
   A11        2.08959  -0.00000   0.00000  -0.00000  -0.00000   2.08959
   A12        2.08085   0.00000   0.00000   0.00000   0.00000   2.08085
   A13        2.09974   0.00000   0.00000   0.00000   0.00000   2.09974
   A14        2.08085   0.00000   0.00000   0.00000   0.00000   2.08085
   A15        2.08959  -0.00000   0.00000  -0.00000  -0.00000   2.08959
   A16        2.04858  -0.00000   0.00000   0.00000   0.00000   2.04858
   A17        2.07411  -0.00000   0.00000  -0.00000  -0.00000   2.07411
   A18        2.11590   0.00000   0.00000  -0.00000  -0.00000   2.11590
   A19        1.96947   0.00000   0.00000   0.00000   0.00000   1.96947
   A20        1.91861  -0.00000   0.00000  -0.00000  -0.00000   1.91861
   A21        1.91347  -0.00000   0.00000  -0.00000  -0.00000   1.91347
   A22        1.87259   0.00000   0.00000   0.00000   0.00000   1.87259
   A23        1.88728   0.00000   0.00000   0.00000   0.00000   1.88728
   A24        1.90083  -0.00000   0.00000  -0.00000  -0.00000   1.90083
   A25        1.96947   0.00000   0.00000   0.00000   0.00000   1.96947
   A26        1.91861  -0.00000   0.00000  -0.00000  -0.00000   1.91861
   A27        1.91347  -0.00000   0.00000  -0.00000  -0.00000   1.91347
   A28        1.87259   0.00000   0.00000   0.00000   0.00000   1.87259
   A29        1.88728   0.00000   0.00000   0.00000   0.00000   1.88728
   A30        1.90083  -0.00000   0.00000  -0.00000  -0.00000   1.90083
   A31        1.88970  -0.00000   0.00000  -0.00000  -0.00000   1.88970
   A32        1.88222   0.00000   0.00000  -0.00000  -0.00000   1.88222
   A33        1.98237  -0.00000   0.00000  -0.00000  -0.00000   1.98237
   A34        1.86589  -0.00000   0.00000   0.00000   0.00000   1.86589
   A35        1.93851   0.00000   0.00000   0.00000   0.00000   1.93851
   A36        1.90083   0.00000   0.00000   0.00000   0.00000   1.90083
   A37        1.88222   0.00000   0.00000  -0.00000  -0.00000   1.88222
   A38        1.88970  -0.00000   0.00000  -0.00000  -0.00000   1.88970
   A39        1.98237  -0.00000   0.00000  -0.00000  -0.00000   1.98237
   A40        1.86589  -0.00000   0.00000   0.00000   0.00000   1.86589
   A41        1.90083   0.00000   0.00000   0.00000   0.00000   1.90083
   A42        1.93851   0.00000   0.00000   0.00000   0.00000   1.93851
   A43        2.08206   0.00000   0.00000  -0.00000  -0.00000   2.08206
   A44        2.13698   0.00000   0.00000   0.00000   0.00000   2.13698
   A45        2.05468  -0.00000   0.00000  -0.00000  -0.00000   2.05468
   A46        2.13809   0.00000   0.00000   0.00000   0.00000   2.13809
   A47        2.06818  -0.00000   0.00000   0.00000   0.00000   2.06818
   A48        2.06818  -0.00000   0.00000   0.00000   0.00000   2.06818
   A49        2.09936   0.00000   0.00000   0.00000   0.00000   2.09936
   A50        2.09270  -0.00000   0.00000  -0.00000  -0.00000   2.09270
   A51        2.09088   0.00000   0.00000   0.00000   0.00000   2.09088
   A52        2.08206   0.00000   0.00000  -0.00000  -0.00000   2.08206
   A53        2.13698   0.00000   0.00000   0.00000   0.00000   2.13698
   A54        2.05468  -0.00000   0.00000  -0.00000  -0.00000   2.05468
   A55        2.10375   0.00000   0.00000   0.00000   0.00000   2.10375
   A56        2.08909  -0.00000   0.00000   0.00000   0.00000   2.08909
   A57        2.08909  -0.00000   0.00000   0.00000   0.00000   2.08909
   A58        2.09936   0.00000   0.00000   0.00000   0.00000   2.09936
   A59        2.09270  -0.00000   0.00000  -0.00000  -0.00000   2.09270
   A60        2.09088   0.00000   0.00000   0.00000   0.00000   2.09088
    D1        0.00000  -0.00000   0.00000  -0.00000   0.00000   0.00000
    D2        2.96035   0.00000   0.00000   0.00000   0.00000   2.96035
    D3       -2.96035  -0.00000   0.00000  -0.00000  -0.00000  -2.96035
    D4       -0.00000   0.00000   0.00000   0.00000  -0.00000  -0.00000
    D5        0.27033  -0.00000   0.00000  -0.00000  -0.00000   0.27033
    D6       -2.55905  -0.00000   0.00000  -0.00000  -0.00000  -2.55905
    D7       -3.05304  -0.00000   0.00000  -0.00000  -0.00000  -3.05304
    D8        0.40076  -0.00000   0.00000  -0.00000  -0.00000   0.40076
    D9       -0.27033   0.00000   0.00000   0.00000   0.00000  -0.27033
   D10        2.55905   0.00000   0.00000   0.00000   0.00000   2.55905
   D11        3.05304   0.00000   0.00000   0.00000   0.00000   3.05304
   D12       -0.40076   0.00000   0.00000   0.00000   0.00000  -0.40076
   D13        0.26991  -0.00000   0.00000  -0.00000  -0.00000   0.26991
   D14       -3.04566  -0.00000   0.00000  -0.00000  -0.00000  -3.04566
   D15       -2.55157  -0.00000   0.00000  -0.00000  -0.00000  -2.55157
   D16        0.41605  -0.00000   0.00000   0.00000   0.00000   0.41605
   D17        2.62006   0.00000   0.00000   0.00000   0.00000   2.62006
   D18        0.53052  -0.00000   0.00000   0.00000   0.00000   0.53052
   D19       -1.55850   0.00000   0.00000   0.00000   0.00000  -1.55850
   D20       -0.84620   0.00000   0.00000   0.00000   0.00000  -0.84620
   D21       -2.93574  -0.00000   0.00000   0.00000   0.00000  -2.93574
   D22        1.25842   0.00000   0.00000   0.00000   0.00000   1.25843
   D23        0.00000  -0.00000   0.00000  -0.00000   0.00000   0.00000
   D24        2.96848   0.00000   0.00000   0.00000   0.00000   2.96848
   D25       -2.96848  -0.00000   0.00000  -0.00000  -0.00000  -2.96848
   D26       -0.00000  -0.00000   0.00000  -0.00000  -0.00000  -0.00000
   D27       -0.26991   0.00000   0.00000   0.00000   0.00000  -0.26991
   D28        2.55157   0.00000   0.00000   0.00000   0.00000   2.55157
   D29        3.04566   0.00000   0.00000   0.00000   0.00000   3.04566
   D30       -0.41605   0.00000   0.00000  -0.00000  -0.00000  -0.41605
   D31       -2.62006  -0.00000   0.00000  -0.00000  -0.00000  -2.62006
   D32       -0.53052   0.00000   0.00000  -0.00000  -0.00000  -0.53052
   D33        1.55850  -0.00000   0.00000  -0.00000  -0.00000   1.55850
   D34        0.84620  -0.00000   0.00000  -0.00000  -0.00000   0.84620
   D35        2.93574   0.00000   0.00000  -0.00000  -0.00000   2.93574
   D36       -1.25842  -0.00000   0.00000  -0.00000  -0.00000  -1.25843
   D37        2.81896  -0.00000   0.00000  -0.00000  -0.00000   2.81896
   D38       -1.45112  -0.00000   0.00000  -0.00000  -0.00000  -1.45112
   D39        0.65716  -0.00000   0.00000  -0.00000  -0.00000   0.65716
   D40       -1.31043   0.00000   0.00000  -0.00000  -0.00000  -1.31043
   D41        0.70267   0.00000   0.00000  -0.00000  -0.00000   0.70267
   D42        2.81096   0.00000   0.00000  -0.00000  -0.00000   2.81096
   D43        0.71908   0.00000   0.00000  -0.00000  -0.00000   0.71908
   D44        2.73218   0.00000   0.00000  -0.00000  -0.00000   2.73218
   D45       -1.44272   0.00000   0.00000  -0.00000  -0.00000  -1.44272
   D46        1.45112   0.00000   0.00000   0.00000   0.00000   1.45112
   D47       -2.81896   0.00000   0.00000   0.00000   0.00000  -2.81896
   D48       -0.65716   0.00000   0.00000   0.00000   0.00000  -0.65716
   D49       -0.70267  -0.00000   0.00000   0.00000   0.00000  -0.70267
   D50        1.31043  -0.00000   0.00000   0.00000   0.00000   1.31043
   D51       -2.81096  -0.00000   0.00000   0.00000   0.00000  -2.81096
   D52       -2.73218  -0.00000   0.00000   0.00000   0.00000  -2.73218
   D53       -0.71908  -0.00000   0.00000   0.00000   0.00000  -0.71908
   D54        1.44272  -0.00000   0.00000   0.00000   0.00000   1.44272
   D55       -1.49785  -0.00000   0.00000  -0.00000  -0.00000  -1.49785
   D56        1.49297  -0.00000   0.00000  -0.00000  -0.00000   1.49297
   D57        2.65032  -0.00000   0.00000   0.00000   0.00000   2.65032
   D58       -0.64204   0.00000   0.00000   0.00000   0.00000  -0.64204
   D59        0.59994  -0.00000   0.00000  -0.00000  -0.00000   0.59994
   D60       -2.69242  -0.00000   0.00000  -0.00000  -0.00000  -2.69242
   D61        1.49785   0.00000   0.00000   0.00000   0.00000   1.49785
   D62       -1.49297   0.00000   0.00000   0.00000   0.00000  -1.49297
   D63       -0.59994   0.00000   0.00000   0.00000   0.00000  -0.59994
   D64        2.69242   0.00000   0.00000   0.00000   0.00000   2.69242
   D65       -2.65032   0.00000   0.00000  -0.00000  -0.00000  -2.65032
   D66        0.64204  -0.00000   0.00000  -0.00000  -0.00000   0.64204
   D67       -2.81586  -0.00000   0.00000  -0.00000  -0.00000  -2.81586
   D68        0.18189  -0.00000   0.00000   0.00000   0.00000   0.18189
   D69        0.18204  -0.00000   0.00000  -0.00000  -0.00000   0.18204
   D70       -3.10339   0.00000   0.00000   0.00000   0.00000  -3.10339
   D71        2.94280   0.00000   0.00000   0.00000   0.00000   2.94280
   D72       -0.17483   0.00000   0.00000   0.00000   0.00000  -0.17483
   D73       -0.05027   0.00000   0.00000   0.00000   0.00000  -0.05027
   D74        3.11529   0.00000   0.00000   0.00000   0.00000   3.11529
   D75        2.81586   0.00000   0.00000   0.00000   0.00000   2.81586
   D76       -0.18204   0.00000   0.00000   0.00000   0.00000  -0.18204
   D77       -0.18189   0.00000   0.00000  -0.00000  -0.00000  -0.18189
   D78        3.10339  -0.00000   0.00000  -0.00000  -0.00000   3.10339
   D79       -0.07449   0.00000   0.00000   0.00000   0.00000  -0.07449
   D80        3.12106  -0.00000   0.00000  -0.00000  -0.00000   3.12106
   D81        3.04316   0.00000   0.00000   0.00000   0.00000   3.04316
   D82       -0.04448   0.00000   0.00000   0.00000   0.00000  -0.04448
   D83       -2.94280  -0.00000   0.00000  -0.00000  -0.00000  -2.94280
   D84        0.17483  -0.00000   0.00000  -0.00000  -0.00000   0.17483
   D85        0.05027  -0.00000   0.00000  -0.00000  -0.00000   0.05027
   D86       -3.11529  -0.00000   0.00000  -0.00000  -0.00000  -3.11529
   D87        0.07449  -0.00000   0.00000  -0.00000  -0.00000   0.07449
   D88       -3.04316  -0.00000   0.00000  -0.00000  -0.00000  -3.04316
   D89       -3.12106   0.00000   0.00000   0.00000   0.00000  -3.12106
   D90        0.04448  -0.00000   0.00000  -0.00000  -0.00000   0.04448
         Item               Value     Threshold  Converged?
 Maximum Force            0.000000     0.000002     YES
 RMS     Force            0.000000     0.000001     YES
 Maximum Displacement     0.000003     0.000006     YES
 RMS     Displacement     0.000001     0.000004     YES
 Predicted change in Energy=-1.710014D-13
 Optimization completed.
    -- Stationary point found.
                           ----------------------------
                           !   Optimized Parameters   !
                           ! (Angstroms and Degrees)  !
 --------------------------                            --------------------------
 ! Name  Definition              Value          Derivative Info.                !
 --------------------------------------------------------------------------------
 ! R1    R(1,2)                  1.3922         -DE/DX =    0.0                 !
 ! R2    R(1,6)                  1.4011         -DE/DX =    0.0                 !
 ! R3    R(1,7)                  1.0868         -DE/DX =    0.0                 !
 ! R4    R(2,3)                  1.4011         -DE/DX =    0.0                 !
 ! R5    R(2,8)                  1.0868         -DE/DX =    0.0                 !
 ! R6    R(3,4)                  1.402          -DE/DX =    0.0                 !
 ! R7    R(3,11)                 1.5124         -DE/DX =    0.0                 !
 ! R8    R(4,5)                  1.3976         -DE/DX =    0.0                 !
 ! R9    R(4,9)                  1.0882         -DE/DX =    0.0                 !
 ! R10   R(5,6)                  1.402          -DE/DX =    0.0                 !
 ! R11   R(5,10)                 1.0882         -DE/DX =    0.0                 !
 ! R12   R(6,14)                 1.5124         -DE/DX =    0.0                 !
 ! R13   R(11,12)                1.0964         -DE/DX =    0.0                 !
 ! R14   R(11,13)                1.0955         -DE/DX =    0.0                 !
 ! R15   R(11,17)                1.5854         -DE/DX =    0.0                 !
 ! R16   R(14,15)                1.0964         -DE/DX =    0.0                 !
 ! R17   R(14,16)                1.0955         -DE/DX =    0.0                 !
 ! R18   R(14,20)                1.5854         -DE/DX =    0.0                 !
 ! R19   R(17,18)                1.0962         -DE/DX =    0.0                 !
 ! R20   R(17,19)                1.0956         -DE/DX =    0.0                 !
 ! R21   R(17,26)                1.5216         -DE/DX =    0.0                 !
 ! R22   R(20,21)                1.0956         -DE/DX =    0.0                 !
 ! R23   R(20,22)                1.0962         -DE/DX =    0.0                 !
 ! R24   R(20,23)                1.5216         -DE/DX =    0.0                 !
 ! R25   R(23,24)                1.4012         -DE/DX =    0.0                 !
 ! R26   R(23,25)                1.4011         -DE/DX =    0.0                 !
 ! R27   R(24,26)                1.4012         -DE/DX =    0.0                 !
 ! R28   R(24,27)                1.0841         -DE/DX =    0.0                 !
 ! R29   R(25,28)                1.3973         -DE/DX =    0.0                 !
 ! R30   R(25,29)                1.0876         -DE/DX =    0.0                 !
 ! R31   R(26,30)                1.4011         -DE/DX =    0.0                 !
 ! R32   R(28,30)                1.3973         -DE/DX =    0.0                 !
 ! R33   R(28,31)                1.0867         -DE/DX =    0.0                 !
 ! R34   R(30,32)                1.0876         -DE/DX =    0.0                 !
 ! A1    A(2,1,6)              120.4562         -DE/DX =    0.0                 !
 ! A2    A(2,1,7)              119.2158         -DE/DX =    0.0                 !
 ! A3    A(6,1,7)              119.5133         -DE/DX =    0.0                 !
 ! A4    A(1,2,3)              120.4562         -DE/DX =    0.0                 !
 ! A5    A(1,2,8)              119.2158         -DE/DX =    0.0                 !
 ! A6    A(3,2,8)              119.5133         -DE/DX =    0.0                 !
 ! A7    A(2,3,4)              117.3748         -DE/DX =    0.0                 !
 ! A8    A(2,3,11)             118.8379         -DE/DX =    0.0                 !
 ! A9    A(4,3,11)             121.2321         -DE/DX =    0.0                 !
 ! A10   A(3,4,5)              120.306          -DE/DX =    0.0                 !
 ! A11   A(3,4,9)              119.7244         -DE/DX =    0.0                 !
 ! A12   A(5,4,9)              119.2238         -DE/DX =    0.0                 !
 ! A13   A(4,5,6)              120.306          -DE/DX =    0.0                 !
 ! A14   A(4,5,10)             119.2238         -DE/DX =    0.0                 !
 ! A15   A(6,5,10)             119.7244         -DE/DX =    0.0                 !
 ! A16   A(1,6,5)              117.3748         -DE/DX =    0.0                 !
 ! A17   A(1,6,14)             118.8379         -DE/DX =    0.0                 !
 ! A18   A(5,6,14)             121.2321         -DE/DX =    0.0                 !
 ! A19   A(3,11,12)            112.8423         -DE/DX =    0.0                 !
 ! A20   A(3,11,13)            109.9284         -DE/DX =    0.0                 !
 ! A21   A(3,11,17)            109.6337         -DE/DX =    0.0                 !
 ! A22   A(12,11,13)           107.2915         -DE/DX =    0.0                 !
 ! A23   A(12,11,17)           108.1333         -DE/DX =    0.0                 !
 ! A24   A(13,11,17)           108.9096         -DE/DX =    0.0                 !
 ! A25   A(6,14,15)            112.8423         -DE/DX =    0.0                 !
 ! A26   A(6,14,16)            109.9284         -DE/DX =    0.0                 !
 ! A27   A(6,14,20)            109.6337         -DE/DX =    0.0                 !
 ! A28   A(15,14,16)           107.2915         -DE/DX =    0.0                 !
 ! A29   A(15,14,20)           108.1333         -DE/DX =    0.0                 !
 ! A30   A(16,14,20)           108.9096         -DE/DX =    0.0                 !
 ! A31   A(11,17,18)           108.2718         -DE/DX =    0.0                 !
 ! A32   A(11,17,19)           107.8434         -DE/DX =    0.0                 !
 ! A33   A(11,17,26)           113.5814         -DE/DX =    0.0                 !
 ! A34   A(18,17,19)           106.9074         -DE/DX =    0.0                 !
 ! A35   A(18,17,26)           111.0687         -DE/DX =    0.0                 !
 ! A36   A(19,17,26)           108.9094         -DE/DX =    0.0                 !
 ! A37   A(14,20,21)           107.8434         -DE/DX =    0.0                 !
 ! A38   A(14,20,22)           108.2718         -DE/DX =    0.0                 !
 ! A39   A(14,20,23)           113.5814         -DE/DX =    0.0                 !
 ! A40   A(21,20,22)           106.9074         -DE/DX =    0.0                 !
 ! A41   A(21,20,23)           108.9094         -DE/DX =    0.0                 !
 ! A42   A(22,20,23)           111.0687         -DE/DX =    0.0                 !
 ! A43   A(20,23,24)           119.2935         -DE/DX =    0.0                 !
 ! A44   A(20,23,25)           122.44           -DE/DX =    0.0                 !
 ! A45   A(24,23,25)           117.7248         -DE/DX =    0.0                 !
 ! A46   A(23,24,26)           122.5033         -DE/DX =    0.0                 !
 ! A47   A(23,24,27)           118.4982         -DE/DX =    0.0                 !
 ! A48   A(26,24,27)           118.4982         -DE/DX =    0.0                 !
 ! A49   A(23,25,28)           120.2846         -DE/DX =    0.0                 !
 ! A50   A(23,25,29)           119.9029         -DE/DX =    0.0                 !
 ! A51   A(28,25,29)           119.7983         -DE/DX =    0.0                 !
 ! A52   A(17,26,24)           119.2935         -DE/DX =    0.0                 !
 ! A53   A(17,26,30)           122.44           -DE/DX =    0.0                 !
 ! A54   A(24,26,30)           117.7248         -DE/DX =    0.0                 !
 ! A55   A(25,28,30)           120.5357         -DE/DX =    0.0                 !
 ! A56   A(25,28,31)           119.6962         -DE/DX =    0.0                 !
 ! A57   A(30,28,31)           119.6962         -DE/DX =    0.0                 !
 ! A58   A(26,30,28)           120.2846         -DE/DX =    0.0                 !
 ! A59   A(26,30,32)           119.9029         -DE/DX =    0.0                 !
 ! A60   A(28,30,32)           119.7983         -DE/DX =    0.0                 !
 ! D1    D(6,1,2,3)              0.0            -DE/DX =    0.0                 !
 ! D2    D(6,1,2,8)            169.6155         -DE/DX =    0.0                 !
 ! D3    D(7,1,2,3)           -169.6155         -DE/DX =    0.0                 !
 ! D4    D(7,1,2,8)              0.0            -DE/DX =    0.0                 !
 ! D5    D(2,1,6,5)             15.489          -DE/DX =    0.0                 !
 ! D6    D(2,1,6,14)          -146.6227         -DE/DX =    0.0                 !
 ! D7    D(7,1,6,5)           -174.9262         -DE/DX =    0.0                 !
 ! D8    D(7,1,6,14)            22.9621         -DE/DX =    0.0                 !
 ! D9    D(1,2,3,4)            -15.489          -DE/DX =    0.0                 !
 ! D10   D(1,2,3,11)           146.6227         -DE/DX =    0.0                 !
 ! D11   D(8,2,3,4)            174.9262         -DE/DX =    0.0                 !
 ! D12   D(8,2,3,11)           -22.9621         -DE/DX =    0.0                 !
 ! D13   D(2,3,4,5)             15.4646         -DE/DX =    0.0                 !
 ! D14   D(2,3,4,9)           -174.5034         -DE/DX =    0.0                 !
 ! D15   D(11,3,4,5)          -146.1942         -DE/DX =    0.0                 !
 ! D16   D(11,3,4,9)            23.8377         -DE/DX =    0.0                 !
 ! D17   D(2,3,11,12)          150.1185         -DE/DX =    0.0                 !
 ! D18   D(2,3,11,13)           30.3967         -DE/DX =    0.0                 !
 ! D19   D(2,3,11,17)          -89.2954         -DE/DX =    0.0                 !
 ! D20   D(4,3,11,12)          -48.4837         -DE/DX =    0.0                 !
 ! D21   D(4,3,11,13)         -168.2055         -DE/DX =    0.0                 !
 ! D22   D(4,3,11,17)           72.1024         -DE/DX =    0.0                 !
 ! D23   D(3,4,5,6)              0.0            -DE/DX =    0.0                 !
 ! D24   D(3,4,5,10)           170.0815         -DE/DX =    0.0                 !
 ! D25   D(9,4,5,6)           -170.0815         -DE/DX =    0.0                 !
 ! D26   D(9,4,5,10)             0.0            -DE/DX =    0.0                 !
 ! D27   D(4,5,6,1)            -15.4646         -DE/DX =    0.0                 !
 ! D28   D(4,5,6,14)           146.1942         -DE/DX =    0.0                 !
 ! D29   D(10,5,6,1)           174.5034         -DE/DX =    0.0                 !
 ! D30   D(10,5,6,14)          -23.8377         -DE/DX =    0.0                 !
 ! D31   D(1,6,14,15)         -150.1185         -DE/DX =    0.0                 !
 ! D32   D(1,6,14,16)          -30.3967         -DE/DX =    0.0                 !
 ! D33   D(1,6,14,20)           89.2954         -DE/DX =    0.0                 !
 ! D34   D(5,6,14,15)           48.4837         -DE/DX =    0.0                 !
 ! D35   D(5,6,14,16)          168.2055         -DE/DX =    0.0                 !
 ! D36   D(5,6,14,20)          -72.1024         -DE/DX =    0.0                 !
 ! D37   D(3,11,17,18)         161.5143         -DE/DX =    0.0                 !
 ! D38   D(3,11,17,19)         -83.1433         -DE/DX =    0.0                 !
 ! D39   D(3,11,17,26)          37.6526         -DE/DX =    0.0                 !
 ! D40   D(12,11,17,18)        -75.0823         -DE/DX =    0.0                 !
 ! D41   D(12,11,17,19)         40.2602         -DE/DX =    0.0                 !
 ! D42   D(12,11,17,26)        161.056          -DE/DX =    0.0                 !
 ! D43   D(13,11,17,18)         41.2002         -DE/DX =    0.0                 !
 ! D44   D(13,11,17,19)        156.5426         -DE/DX =    0.0                 !
 ! D45   D(13,11,17,26)        -82.6615         -DE/DX =    0.0                 !
 ! D46   D(6,14,20,21)          83.1433         -DE/DX =    0.0                 !
 ! D47   D(6,14,20,22)        -161.5143         -DE/DX =    0.0                 !
 ! D48   D(6,14,20,23)         -37.6526         -DE/DX =    0.0                 !
 ! D49   D(15,14,20,21)        -40.2602         -DE/DX =    0.0                 !
 ! D50   D(15,14,20,22)         75.0823         -DE/DX =    0.0                 !
 ! D51   D(15,14,20,23)       -161.056          -DE/DX =    0.0                 !
 ! D52   D(16,14,20,21)       -156.5426         -DE/DX =    0.0                 !
 ! D53   D(16,14,20,22)        -41.2002         -DE/DX =    0.0                 !
 ! D54   D(16,14,20,23)         82.6615         -DE/DX =    0.0                 !
 ! D55   D(11,17,26,24)        -85.8205         -DE/DX =    0.0                 !
 ! D56   D(11,17,26,30)         85.541          -DE/DX =    0.0                 !
 ! D57   D(18,17,26,24)        151.852          -DE/DX =    0.0                 !
 ! D58   D(18,17,26,30)        -36.7864         -DE/DX =    0.0                 !
 ! D59   D(19,17,26,24)         34.374          -DE/DX =    0.0                 !
 ! D60   D(19,17,26,30)       -154.2644         -DE/DX =    0.0                 !
 ! D61   D(14,20,23,24)         85.8205         -DE/DX =    0.0                 !
 ! D62   D(14,20,23,25)        -85.541          -DE/DX =    0.0                 !
 ! D63   D(21,20,23,24)        -34.374          -DE/DX =    0.0                 !
 ! D64   D(21,20,23,25)        154.2644         -DE/DX =    0.0                 !
 ! D65   D(22,20,23,24)       -151.852          -DE/DX =    0.0                 !
 ! D66   D(22,20,23,25)         36.7864         -DE/DX =    0.0                 !
 ! D67   D(20,23,24,26)       -161.3368         -DE/DX =    0.0                 !
 ! D68   D(20,23,24,27)         10.4217         -DE/DX =    0.0                 !
 ! D69   D(25,23,24,26)         10.43           -DE/DX =    0.0                 !
 ! D70   D(25,23,24,27)       -177.8114         -DE/DX =    0.0                 !
 ! D71   D(20,23,25,28)        168.6099         -DE/DX =    0.0                 !
 ! D72   D(20,23,25,29)        -10.0169         -DE/DX =    0.0                 !
 ! D73   D(24,23,25,28)         -2.8801         -DE/DX =    0.0                 !
 ! D74   D(24,23,25,29)        178.4931         -DE/DX =    0.0                 !
 ! D75   D(23,24,26,17)        161.3368         -DE/DX =    0.0                 !
 ! D76   D(23,24,26,30)        -10.43           -DE/DX =    0.0                 !
 ! D77   D(27,24,26,17)        -10.4217         -DE/DX =    0.0                 !
 ! D78   D(27,24,26,30)        177.8114         -DE/DX =    0.0                 !
 ! D79   D(23,25,28,30)         -4.2679         -DE/DX =    0.0                 !
 ! D80   D(23,25,28,31)        178.8234         -DE/DX =    0.0                 !
 ! D81   D(29,25,28,30)        174.3604         -DE/DX =    0.0                 !
 ! D82   D(29,25,28,31)         -2.5484         -DE/DX =    0.0                 !
 ! D83   D(17,26,30,28)       -168.6099         -DE/DX =    0.0                 !
 ! D84   D(17,26,30,32)         10.0169         -DE/DX =    0.0                 !
 ! D85   D(24,26,30,28)          2.8801         -DE/DX =    0.0                 !
 ! D86   D(24,26,30,32)       -178.4931         -DE/DX =    0.0                 !
 ! D87   D(25,28,30,26)          4.2679         -DE/DX =    0.0                 !
 ! D88   D(25,28,30,32)       -174.3604         -DE/DX =    0.0                 !
 ! D89   D(31,28,30,26)       -178.8234         -DE/DX =    0.0                 !
 ! D90   D(31,28,30,32)          2.5484         -DE/DX =    0.0                 !
 --------------------------------------------------------------------------------
 GradGradGradGradGradGradGradGradGradGradGradGradGradGradGradGradGradGrad

 Leave Link  103 at Mon Jul 28 11:52:52 2025, MaxMem=   104857600 cpu:              38.4 elap:               1.3
 (Enter /opt/linux/rocky/8/software/gaussian/16c01_avx2/g16/l9999.exe)

 ----------------------------------------------------------------------

 Electric dipole moment (input orientation):
 (Debye = 10**-18 statcoulomb cm , SI units = C m)
                  (au)            (Debye)         (10**-30 SI)
   Tot        0.122796D+00      0.312116D+00      0.104111D+01
   x         -0.779618D-01     -0.198159D+00     -0.660987D+00
   y         -0.948724D-01     -0.241141D+00     -0.804361D+00
   z          0.000000D+00      0.000000D+00      0.000000D+00

 Dipole polarizability, Alpha (input orientation).
 (esu units = cm**3 , SI units = C**2 m**2 J**-1)
 Alpha(0;0):
               (au)            (10**-24 esu)      (10**-40 SI)
   iso        0.148574D+03      0.220164D+02      0.244966D+02
   aniso      0.806513D+02      0.119513D+02      0.132976D+02
   xx         0.136371D+03      0.202080D+02      0.224845D+02
   yx        -0.313791D+02     -0.464991D+01     -0.517372D+01
   yy         0.121936D+03      0.180691D+02      0.201046D+02
   zx         0.000000D+00      0.000000D+00      0.000000D+00
   zy         0.000000D+00      0.000000D+00      0.000000D+00
   zz         0.187415D+03      0.277721D+02      0.309006D+02

 ----------------------------------------------------------------------

 Dipole orientation:
     6          0.48853167          1.30111138         -3.42079832
     6         -1.18174375         -0.73146135         -3.42079832
     6         -0.44825399         -3.07126197         -2.42203954
     6          2.14085051         -3.46845395         -2.02454727
     6          3.81763648         -1.42795849         -2.02454727
     6          2.92613065          1.03505612         -2.42203954
     1         -0.20914249          3.17196404         -3.90184462
     1         -3.15234618         -0.40964620         -3.90184462
     1          2.80695541         -5.31525304         -1.41293661
     1          5.75852243         -1.72346540         -1.41293661
     6         -2.41236918         -4.69419750         -1.12732254
     1         -2.01719973         -6.72126231         -1.29336592
     1         -4.27262424         -4.35878662         -1.97138715
     6          4.13758259          3.27649593         -1.12732254
     1          6.20280007          3.28172714         -1.29336592
     1          3.44795919          5.03645868         -1.97138715
     6         -2.52876151         -4.00242518          1.78536557
     1         -4.32428690         -4.70015907          2.54739208
     1         -1.02071257         -5.04620655          2.74608195
     6          3.43636931          3.25659454          1.78536557
     1          4.75266086          1.97946192          2.74608195
     1          3.77284377          5.15330984          2.54739208
     6          0.74546594          2.39221555          2.31487928
     6          0.23863834         -0.19610209          2.54963228
     6         -1.31757638          4.05041862          2.25018966
     6         -2.20235364         -1.19501179          2.31487928
     1          1.81862667         -1.49446432          2.67059129
     6         -3.78421955          3.10969877          2.30239356
     1         -0.99978907          6.07659914          2.11630436
     6         -4.22898888          0.50749536          2.25018966
     1         -5.37075698          4.41344276          2.28804731
     1         -6.15514632         -0.19700005          2.11630436

 Electric dipole moment (dipole orientation):
 (Debye = 10**-18 statcoulomb cm , SI units = C m)
                  (au)            (Debye)         (10**-30 SI)
   Tot        0.122796D+00      0.312116D+00      0.104111D+01
   x          0.000000D+00      0.000000D+00      0.000000D+00
   y          0.000000D+00      0.000000D+00      0.000000D+00
   z          0.122796D+00      0.312116D+00      0.104111D+01

 Dipole polarizability, Alpha (dipole orientation).
 (esu units = cm**3 , SI units = C**2 m**2 J**-1)
 Alpha(0;0):
               (au)            (10**-24 esu)      (10**-40 SI)
   iso        0.148574D+03      0.220164D+02      0.244966D+02
   aniso      0.806513D+02      0.119513D+02      0.132976D+02
   xx         0.171848D+03      0.254653D+02      0.283340D+02
   yx         0.127921D+02      0.189559D+01      0.210913D+01
   yy         0.176903D+03      0.262144D+02      0.291674D+02
   zx        -0.771013D+00     -0.114252D+00     -0.127123D+00
   zy         0.633583D+00      0.938873D-01      0.104464D+00
   zz         0.969706D+02      0.143696D+02      0.159883D+02

 ----------------------------------------------------------------------
 Unable to Open any file for archive entry.
 1\1\GINC-A003\Freq\RB3LYP\6-31G(d,p)\C16H16\DJO04747\28-Jul-2025\0\\#P
  Geom=AllCheck Guess=TCheck SCRF=Check GenChk RB3LYP/6-31G(d,p) Freq\\
 Title Card Required\\0,1\C,0.9658667016,1.5492950699,0.6960828831\C,0.
 9658667016,1.5492950699,-0.6960828831\C,1.4693485062,0.4514789671,-1.4
 062659084\C,2.2567331979,-0.4678113544,-0.6987961364\C,2.2567331979,-0
 .4678113544,0.6987961364\C,1.4693485062,0.4514789671,1.4062659084\H,0.
 421487841,2.3261227823,1.2265723868\H,0.421487841,2.3261227823,-1.2265
 723868\H,2.7410309548,-1.2846943328,-1.2300577824\H,2.7410309548,-1.28
 46943328,1.2300577824\C,0.8352174121,0.0857911424,-2.7296751515\H,1.54
 19932105,-0.3812771866,-3.42566327\H,0.4441283004,0.985293709,-3.21753
 2809\C,0.8352174121,0.0857911424,2.7296751515\H,1.5419932105,-0.381277
 1866,3.42566327\H,0.4441283004,0.985293709,3.217532809\C,-0.3596850756
 ,-0.9272739195,-2.4859525589\H,-1.0017507296,-0.9215869104,-3.37445788
 02\H,0.0648321605,-1.9341442498,-2.4060381718\C,-0.3596850756,-0.92727
 39195,2.4859525589\H,0.0648321605,-1.9341442498,2.4060381718\H,-1.0017
 507296,-0.9215869104,3.3744578802\C,-1.1632039179,-0.6296575533,1.2284
 960442\C,-0.7303158306,-1.1461740917,0.\C,-2.2235522848,0.2859960262,1
 .2133234898\C,-1.1632039179,-0.6296575533,-1.2284960442\H,0.0651394876
 ,-1.8826911377,0.\C,-2.7760559652,0.7042624023,0.\H,-2.6041273649,0.69
 04370194,2.1484815561\C,-2.2235522848,0.2859960262,-1.2133234898\H,-3.
 6107955202,1.4000393872,0.\H,-2.6041273649,0.6904370194,-2.1484815561\
 \Version=ES64L-G16RevC.01\State=1-A'\HF=-619.341347\RMSD=4.384e-11\RMS
 F=5.774e-07\ZeroPoint=0.274967\Thermal=0.2867548\ETot=-619.0545922\HTo
 t=-619.0536481\GTot=-619.1030566\Dipole=-0.0779618,-0.0948724,0.\Dipol
 eDeriv=-0.0560319,-0.117618,-0.0040775,-0.0642659,0.0126773,0.1277202,
 0.0196571,0.0729051,-0.0390852,-0.0560319,-0.117618,0.0040775,-0.06426
 59,0.0126773,-0.1277202,-0.0196571,-0.0729051,-0.0390852,-0.0241258,0.
 0472454,0.2655054,0.0721621,-0.0700391,0.1939325,0.1656782,0.0979058,-
 0.0159059,-0.0991776,-0.0848549,-0.1223459,-0.1659045,0.0200833,0.0555
 092,-0.0894905,0.0202991,-0.0269516,-0.0991776,-0.0848549,0.1223459,-0
 .1659045,0.0200833,-0.0555092,0.0894905,-0.0202991,-0.0269516,-0.02412
 58,0.0472454,-0.2655054,0.0721621,-0.0700391,-0.1939325,-0.1656782,-0.
 0979058,-0.0159059,0.0574143,0.0926693,0.0868486,0.0554012,0.0022878,-
 0.0226831,0.0247574,-0.0693155,0.0073819,0.0574143,0.0926693,-0.086848
 6,0.0554012,0.0022878,0.0226831,-0.0247574,0.0693155,0.0073819,0.06397
 18,0.0547947,-0.0002215,0.0951612,-0.0190259,-0.092071,0.0582315,-0.06
 20993,0.0052397,0.0639718,0.0547947,0.0002215,0.0951612,-0.0190259,0.0
 92071,-0.0582315,0.0620994,0.0052396,0.1179591,-0.055861,-0.067528,-0.
 0116833,0.1305245,-0.1243804,0.0063547,0.0103309,0.2496561,-0.0811351,
 0.0357292,0.1328312,0.0244868,0.0090116,-0.0769829,0.060922,-0.0388933
 ,-0.1037005,-0.0020399,0.038972,-0.0694099,0.0110528,-0.0955126,0.0998
 733,-0.0098053,0.0278671,-0.0208248,0.1179592,-0.055861,0.067528,-0.01
 16833,0.1305245,0.1243804,-0.0063547,-0.0103309,0.2496561,-0.0811351,0
 .0357292,-0.1328312,0.0244868,0.0090116,0.0769829,-0.060922,0.0388933,
 -0.1037005,-0.0020399,0.038972,0.0694099,0.0110528,-0.0955126,-0.09987
 33,0.0098053,-0.0278671,-0.0208248,0.1283829,-0.0080157,0.0527582,0.00
 0284,0.1542446,0.1179133,-0.0200435,-0.0220996,0.0967932,-0.0668044,-0
 .0374501,-0.139724,-0.0171104,0.033132,-0.0223055,-0.0487797,-0.033955
 ,-0.1270612,-0.0177104,0.0668835,0.042921,0.0280683,-0.1121989,-0.0235
 654,0.0091805,0.0455102,0.015221,0.1283829,-0.0080158,-0.0527582,0.000
 284,0.1542446,-0.1179133,0.0200435,0.0220996,0.0967932,-0.0177104,0.06
 68835,-0.042921,0.0280683,-0.1121989,0.0235654,-0.0091805,-0.0455102,0
 .015221,-0.0668044,-0.0374501,0.139724,-0.0171104,0.033132,0.0223055,0
 .0487797,0.033955,-0.1270612,0.0704647,-0.0298601,0.1428155,0.013687,-
 0.0642116,0.0479763,0.1409568,-0.0243606,0.1020464,-0.0757387,-0.11491
 45,0.,-0.0960108,-0.0479861,0.,0.,0.,-0.2014923,-0.1203341,-0.0273673,
 -0.0758046,-0.0735889,-0.0621726,0.0679053,-0.0924084,0.0657549,0.0155
 943,0.0704647,-0.0298601,-0.1428155,0.013687,-0.0642116,-0.0479763,-0.
 1409568,0.0243606,0.1020464,-0.0004321,0.1281079,0.,0.0833311,0.036413
 3,0.,0.,0.,0.0405553,0.0666148,-0.1295824,0.,-0.1338244,-0.0004592,0.,
 0.,0.,-0.0397282,0.0581899,0.0315352,0.0286506,0.0397685,0.0621775,-0.
 0578122,0.0676616,-0.0516193,-0.0840427,-0.1203341,-0.0273673,0.075804
 6,-0.0735889,-0.0621726,-0.0679053,0.0924084,-0.0657549,0.0155943,-0.0
 484912,0.1027847,0.,0.1314665,0.0100764,0.,0.,0.,0.051944,0.0581899,0.
 0315352,-0.0286506,0.0397685,0.0621775,0.0578122,-0.0676616,0.0516193,
 -0.0840427\Polar=136.3705673,-31.3791447,121.9364936,0.,0.,187.4152283
 \Quadrupole=-3.8226968,-0.2728112,4.095508,-5.1491202,0.,0.\PG=CS [SG(
 C2H2),X(C14H14)]\NImag=0\\0.28219008,-0.24276117,0.56590180,-0.0594921
 6,0.00345970,0.68561455,-0.08136707,0.03503217,-0.02779242,0.28219008,
 0.03503217,-0.09709885,0.02542766,-0.24276117,0.56590180,0.02779242,-0
 .02542766,-0.34268753,0.05949216,-0.00345970,0.68561455,0.01868369,-0.
 01702626,0.04048949,-0.09644482,0.07805705,-0.00013726,0.35348189,-0.0
 1515587,0.01984401,-0.06749168,0.08037352,-0.23746445,-0.05627297,-0.2
 0031423,0.53305672,0.01242765,-0.02306636,-0.02699114,0.04155609,-0.10
 925771,-0.16712025,0.10983090,0.06825718,0.58176735,-0.00905717,0.0041
 9547,-0.01435465,-0.01270961,0.02342109,0.01152469,-0.15223661,0.10317
 320,-0.07893226,0.33168635,0.00638037,-0.01436556,0.02305191,0.0338881
 0,-0.03902175,-0.02082047,0.10504196,-0.18107013,0.08083743,-0.2639337
 7,0.51181887,-0.01538679,0.02332704,-0.05199811,-0.01385950,0.01884349
 ,0.06407219,-0.05256481,0.02226470,-0.16573144,0.02048901,0.05450089,0
 .66795333,-0.01270961,0.02342109,-0.01152469,-0.00905717,0.00419547,0.
 01435465,0.00673208,-0.01150194,-0.01536162,-0.06563008,0.02957059,-0.
 01150843,0.33168635,0.03388810,-0.03902175,0.02082047,0.00638037,-0.01
 436556,-0.02305191,-0.00947291,0.03053385,0.02016508,0.02957059,-0.108
 61538,0.03506728,-0.26393377,0.51181887,0.01385950,-0.01884349,0.06407
 219,0.01538679,-0.02332704,-0.05199811,-0.04318460,0.06621920,-0.02865
 774,0.01150843,-0.03506728,-0.33103349,-0.02048901,-0.05450089,0.66795
 333,-0.09644482,0.07805705,0.00013726,0.01868369,-0.01702626,-0.040489
 49,-0.02337091,0.02879307,-0.00268507,0.00673208,-0.00947291,0.0431846
 0,-0.15223661,0.10504196,0.05256481,0.35348189,0.08037352,-0.23746445,
 0.05627297,-0.01515587,0.01984401,0.06749168,0.02879307,-0.05163879,-0
 .00013523,-0.01150194,0.03053385,-0.06621920,0.10317320,-0.18107013,-0
 .02226470,-0.20031423,0.53305672,-0.04155609,0.10925771,-0.16712025,-0
 .01242765,0.02306636,-0.02699114,0.00268507,0.00013523,0.00071732,0.01
 536162,-0.02016508,-0.02865774,0.07893226,-0.08083743,-0.16573144,-0.1
 0983090,-0.06825718,0.58176735,-0.10915229,0.10798866,0.07680256,0.002
 04786,0.00009685,-0.00536680,0.00435604,0.00429012,-0.00044427,0.00025
 034,-0.00121894,0.00246958,0.00509700,0.00197958,-0.00276290,-0.006262
 44,0.01330270,0.00582063,0.10865266,0.10861780,-0.19567754,-0.09047234
 ,-0.00065184,0.00306737,-0.00054974,0.00194660,0.00467722,0.00042163,-
 0.00015254,-0.00053935,0.00255323,0.00408701,-0.00261290,0.00320932,0.
 01035589,-0.01045552,-0.01488516,-0.12153982,0.20240429,0.07068868,-0.
 09484096,-0.12227451,0.01739217,-0.02409764,-0.01212067,-0.00172004,0.
 00164609,-0.00510266,-0.00015035,0.00063341,-0.00024187,-0.00049580,0.
 00293200,-0.00141260,-0.00805431,0.01222912,0.00946601,-0.07602624,0.1
 0171988,0.12946796,0.00204786,0.00009685,0.00536680,-0.10915229,0.1079
 8866,-0.07680256,-0.00626244,0.01330270,-0.00582063,0.00509700,0.00197
 958,0.00276290,0.00025034,-0.00121894,-0.00246958,0.00435604,0.0042901
 2,0.00044427,-0.00236963,-0.00225731,-0.00020148,0.10865266,-0.0006518
 4,0.00306737,0.00054974,0.10861780,-0.19567754,0.09047234,0.01035589,-
 0.01045552,0.01488516,0.00408701,-0.00261290,-0.00320932,-0.00015254,-
 0.00053935,-0.00255323,0.00194660,0.00467722,-0.00042163,-0.00225731,-
 0.00063727,0.00016458,-0.12153982,0.20240429,-0.01739217,0.02409764,-0
 .01212067,-0.07068868,0.09484096,-0.12227451,0.00805431,-0.01222912,0.
 00946601,0.00049580,-0.00293200,-0.00141260,0.00015035,-0.00063341,-0.
 00024187,0.00172004,-0.00164609,-0.00510266,0.00020148,-0.00016458,0.0
 0102790,0.07602624,-0.10171988,0.12946796,-0.00099608,0.00047365,-0.00
 333277,0.00126215,0.00605857,-0.00182675,-0.00079494,0.00763534,0.0116
 9385,-0.09937273,0.10410772,0.05024557,0.00209687,-0.00106392,0.002676
 86,0.00708636,0.00069492,-0.00036486,-0.00060342,-0.00032879,-0.000039
 40,0.00013676,0.00121176,0.00065922,0.09484609,-0.00077281,0.00068855,
 -0.00116301,0.00403320,0.00161462,0.00385567,0.01075334,-0.01606141,-0
 .01159868,0.10197137,-0.20307830,-0.10605269,-0.00049311,0.00227625,0.
 00469686,0.00340317,0.00209311,0.00041490,-0.00042137,-0.00026804,-0.0
 0020654,0.00041080,-0.00062958,-0.00048018,-0.11455625,0.21403882,-0.0
 0050525,0.00042077,-0.00026018,-0.00248901,0.00181749,-0.00142683,-0.0
 0733729,0.01263769,0.01064461,0.05586087,-0.10169426,-0.12191400,0.014
 86227,-0.02574457,-0.01199562,-0.00080554,0.00233799,-0.00524523,0.000
 18623,-0.00004742,0.00009129,-0.00018039,0.00081993,0.00049340,-0.0613
 8655,0.10984270,0.12769226,0.00126215,0.00605857,0.00182675,-0.0009960
 8,0.00047365,0.00333277,0.00708636,0.00069492,0.00036486,0.00209687,-0
 .00106392,-0.00267686,-0.09937273,0.10410772,-0.05024557,-0.00079494,0
 .00763534,-0.01169385,0.00013676,0.00121176,-0.00065922,-0.00060342,-0
 .00032879,0.00003940,-0.00267383,-0.00222468,-0.00011625,0.09484609,0.
 00403320,0.00161462,-0.00385567,-0.00077281,0.00068855,0.00116301,0.00
 340317,0.00209311,-0.00041490,-0.00049311,0.00227625,-0.00469686,0.101
 97137,-0.20307830,0.10605269,0.01075334,-0.01606141,0.01159868,0.00041
 080,-0.00062958,0.00048018,-0.00042137,-0.00026804,0.00020654,-0.00222
 468,-0.00042831,0.00028629,-0.11455625,0.21403882,0.00248901,-0.001817
 49,-0.00142683,0.00050525,-0.00042077,-0.00026018,0.00080554,-0.002337
 99,-0.00524523,-0.01486227,0.02574457,-0.01199562,-0.05586087,0.101694
 26,-0.12191400,0.00733729,-0.01263769,0.01064461,0.00018039,-0.0008199
 3,0.00049340,-0.00018623,0.00004742,0.00009129,0.00011625,-0.00028629,
 0.00109678,0.06138655,-0.10984270,0.12769226,0.00310713,0.00561512,0.0
 0161240,0.00778126,0.00021691,0.00952884,-0.09020475,0.00089768,-0.048
 93844,-0.00530791,-0.00286718,-0.02077294,0.00171157,0.00437958,0.0012
 1363,-0.00100590,-0.00140105,-0.00047147,-0.00017066,0.00000439,0.0006
 3762,-0.00263089,-0.00083222,0.00140525,-0.00134577,-0.00225300,0.0001
 6210,0.00058653,0.00024718,-0.00070492,0.44400590,0.00408561,-0.001576
 95,-0.00062451,-0.00805983,-0.00300633,-0.02687622,0.00479820,-0.08877
 201,-0.02573561,0.00438584,0.00863957,0.02050136,0.00553308,-0.0017816
 8,0.00266774,-0.00065821,-0.00165749,-0.00073111,0.00057005,0.00048124
 ,-0.00114669,-0.00206882,-0.00035147,-0.00087496,-0.00147363,-0.000694
 75,0.00057876,-0.00042773,-0.00037861,0.00121179,-0.12166476,0.5216352
 3,-0.00285669,-0.00322824,0.00030614,-0.00444250,-0.00946097,-0.020855
 58,-0.04374971,-0.02831751,-0.17424237,-0.00983632,0.00089328,-0.01820
 605,-0.00391418,-0.00060809,0.00203178,0.00129982,-0.00021999,-0.00109
 512,-0.00017046,0.00012426,0.00000275,0.00083281,0.00282930,0.00117156
 ,0.00238310,-0.00011112,0.00122008,-0.00009043,-0.00028603,0.00009016,
 -0.02101424,-0.00124103,0.53568588,0.00003009,-0.00061774,-0.00037274,
 -0.00096559,-0.00019368,-0.00238583,0.01186696,-0.00780249,-0.00979019
 ,0.00022430,-0.00040110,0.00061013,0.00024644,-0.00015101,0.00023205,0
 .00014313,-0.00004896,-0.00012700,0.00006409,-0.00001334,-0.00018144,0
 .00009564,-0.00010991,-0.00004828,-0.00001969,0.00006235,0.00046041,-0
 .00008155,-0.00003269,0.00003728,-0.15595099,0.07689159,0.10366183,0.1
 6863208,-0.00030802,-0.00065891,-0.00013861,-0.00046870,0.00076077,-0.
 00268517,0.00416748,-0.00543619,-0.00544773,0.00002997,-0.00019780,0.0
 0137661,-0.00029215,-0.00018028,-0.00058704,-0.00013439,0.00014076,0.0
 0019341,0.00007646,-0.00001070,-0.00019038,0.00001900,0.00048006,0.000
 04808,0.00018262,0.00047783,-0.00022061,0.00001897,0.00005227,-0.00003
 262,0.07697161,-0.09529252,-0.06859229,-0.07784700,0.10458317,-0.00004
 380,-0.00134468,0.00020442,-0.00178771,0.00088039,-0.00490061,0.018085
 13,-0.01339971,-0.01541030,0.00034551,-0.00139338,0.00242695,0.0000222
 9,-0.00031209,-0.00057216,-0.00052225,0.00016696,-0.00013712,0.0000703
 8,0.00001424,-0.00035505,0.00023000,-0.00006248,0.00003669,-0.00026709
 ,0.00108397,-0.00010077,-0.00003606,0.00001394,0.00001953,0.10243217,-
 0.06914678,-0.15093528,-0.11383334,0.07802705,0.16172490,-0.00006808,-
 0.00021842,-0.00011461,-0.00040730,0.00047413,0.00180450,-0.00742764,0
 .01250690,-0.00735060,0.00084526,-0.00102692,-0.00344396,-0.00064889,0
 .00037634,-0.00028766,-0.00007619,0.00003826,0.00012003,-0.00001903,-0
 .00003114,-0.00001239,0.00078197,-0.00033452,-0.00007480,0.00024152,-0
 .00020581,0.00017757,0.00000989,0.00004639,-0.00030335,-0.08114646,0.0
 8061071,-0.03943885,-0.00743068,0.01655425,-0.00996108,0.08968388,-0.0
 0004620,0.00032670,0.00037651,-0.00056267,0.00043098,-0.00127142,-0.00
 317428,0.00742824,-0.00456268,-0.00052779,-0.00010302,-0.00128560,-0.0
 0016967,0.00025202,-0.00038291,0.00005854,0.00029221,-0.00006058,-0.00
 007443,-0.00004513,0.00004204,-0.00032160,0.00015436,0.00031854,-0.000
 12818,0.00009376,-0.00008799,0.00001715,0.00002550,-0.00008170,0.08189
 900,-0.22340425,0.09398139,0.00452507,-0.01056184,0.00593250,-0.083078
 84,0.24352887,0.00003173,0.00015408,-0.00045695,-0.00138819,0.00157997
 ,0.00193098,-0.01167266,0.02353028,-0.01316730,-0.00072302,-0.00232314
 ,-0.00544460,-0.00120745,0.00095561,0.00049228,0.00006222,-0.00063920,
 -0.00006878,0.00001443,-0.00000698,0.00002117,0.00069311,-0.00099294,-
 0.00016614,-0.00000577,0.00018826,0.00002096,0.00014208,0.00013076,-0.
 00039825,-0.03967892,0.09185759,-0.10028671,0.00706653,-0.01717050,0.0
 1035993,0.04823217,-0.10029034,0.10758393,0.00778126,0.00021691,-0.009
 52884,0.00310713,0.00561512,-0.00161240,-0.00100590,-0.00140105,0.0004
 7147,0.00171157,0.00437958,-0.00121363,-0.00530791,-0.00286718,0.02077
 294,-0.09020475,0.00089768,0.04893844,-0.00263089,-0.00083222,-0.00140
 525,-0.00017066,0.00000439,-0.00063762,0.00058653,0.00024718,0.0007049
 2,-0.00134577,-0.00225300,-0.00016210,-0.00072625,-0.00037869,0.000083
 54,-0.00002464,0.00014286,0.00005210,0.00011797,-0.00010137,0.00000017
 ,0.44400590,-0.00805983,-0.00300633,0.02687622,0.00408561,-0.00157695,
 0.00062451,-0.00065821,-0.00165749,0.00073111,0.00553308,-0.00178168,-
 0.00266774,0.00438584,0.00863957,-0.02050136,0.00479820,-0.08877201,0.
 02573561,-0.00206882,-0.00035147,0.00087496,0.00057005,0.00048124,0.00
 114669,-0.00042773,-0.00037861,-0.00121179,-0.00147363,-0.00069475,-0.
 00057876,-0.00037869,0.00014017,0.00008637,-0.00009208,0.00012092,0.00
 013382,0.00002243,-0.00004144,-0.00009295,-0.12166476,0.52163523,0.004
 44250,0.00946097,-0.02085558,0.00285669,0.00322824,0.00030614,-0.00129
 982,0.00021999,-0.00109512,0.00391418,0.00060809,0.00203178,0.00983632
 ,-0.00089328,-0.01820605,0.04374971,0.02831751,-0.17424237,-0.00083281
 ,-0.00282930,0.00117156,0.00017046,-0.00012426,0.00000275,0.00009043,0
 .00028603,0.00009016,-0.00238310,0.00011112,0.00122008,-0.00008354,-0.
 00008637,-0.00014409,0.00005484,0.00010174,0.00013816,0.00007315,-0.00
 005343,0.00014789,0.02101424,0.00124103,0.53568588,-0.00096559,-0.0001
 9368,0.00238583,0.00003009,-0.00061774,0.00037274,0.00014313,-0.000048
 96,0.00012700,0.00024644,-0.00015101,-0.00023205,0.00022430,-0.0004011
 0,-0.00061013,0.01186696,-0.00780249,0.00979019,0.00009564,-0.00010991
 ,0.00004828,0.00006409,-0.00001334,0.00018144,-0.00008155,-0.00003269,
 -0.00003728,-0.00001969,0.00006235,-0.00046041,-0.00002464,-0.00009208
 ,-0.00005484,0.00005769,0.00001872,0.00001622,-0.00000358,0.00002946,0
 .00003010,-0.15595099,0.07689159,-0.10366183,0.16863208,-0.00046870,0.
 00076077,0.00268517,-0.00030802,-0.00065891,0.00013861,-0.00013439,0.0
 0014076,-0.00019341,-0.00029215,-0.00018028,0.00058704,0.00002997,-0.0
 0019780,-0.00137661,0.00416748,-0.00543619,0.00544773,0.00001900,0.000
 48006,-0.00004808,0.00007646,-0.00001070,0.00019038,0.00001897,0.00005
 227,0.00003262,0.00018262,0.00047783,0.00022061,0.00014286,0.00012092,
 -0.00010174,0.00001872,0.00002540,0.00001894,-0.00000210,-0.00000059,0
 .00000641,0.07697161,-0.09529252,0.06859229,-0.07784700,0.10458317,0.0
 0178771,-0.00088039,-0.00490061,0.00004380,0.00134468,0.00020442,0.000
 52225,-0.00016696,-0.00013712,-0.00002229,0.00031209,-0.00057216,-0.00
 034551,0.00139338,0.00242695,-0.01808513,0.01339971,-0.01541030,-0.000
 23000,0.00006248,0.00003669,-0.00007038,-0.00001424,-0.00035505,0.0000
 3606,-0.00001394,0.00001953,0.00026709,-0.00108397,-0.00010077,-0.0000
 5210,-0.00013382,0.00013816,-0.00001622,-0.00001894,-0.00006608,0.0000
 0277,-0.00000889,-0.00001404,-0.10243217,0.06914678,-0.15093528,0.1138
 3334,-0.07802705,0.16172490,-0.00040730,0.00047413,-0.00180450,-0.0000
 6808,-0.00021842,0.00011461,-0.00007619,0.00003826,-0.00012003,-0.0006
 4889,0.00037634,0.00028766,0.00084526,-0.00102692,0.00344396,-0.007427
 64,0.01250690,0.00735060,0.00078197,-0.00033452,0.00007480,-0.00001903
 ,-0.00003114,0.00001239,0.00000989,0.00004639,0.00030335,0.00024152,-0
 .00020581,-0.00017757,0.00011797,0.00002243,-0.00007315,-0.00000358,-0
 .00000210,-0.00000277,0.00003690,-0.00000324,0.00003288,-0.08114646,0.
 08061071,0.03943885,-0.00743068,0.01655425,0.00996108,0.08968388,-0.00
 056267,0.00043098,0.00127142,-0.00004620,0.00032670,-0.00037651,0.0000
 5854,0.00029221,0.00006058,-0.00016967,0.00025202,0.00038291,-0.000527
 79,-0.00010302,0.00128560,-0.00317428,0.00742824,0.00456268,-0.0003216
 0,0.00015436,-0.00031854,-0.00007443,-0.00004513,-0.00004204,0.0000171
 5,0.00002550,0.00008170,-0.00012818,0.00009376,0.00008799,-0.00010137,
 -0.00004144,0.00005343,0.00002946,-0.00000059,0.00000889,-0.00000324,0
 .00000789,-0.00000295,0.08189900,-0.22340425,-0.09398139,0.00452507,-0
 .01056184,-0.00593250,-0.08307884,0.24352887,0.00138819,-0.00157997,0.
 00193098,-0.00003173,-0.00015408,-0.00045695,-0.00006222,0.00063920,-0
 .00006878,0.00120745,-0.00095561,0.00049228,0.00072302,0.00232314,-0.0
 0544460,0.01167266,-0.02353028,-0.01316730,-0.00069311,0.00099294,-0.0
 0016614,-0.00001443,0.00000698,0.00002117,-0.00014208,-0.00013076,-0.0
 0039825,0.00000577,-0.00018826,0.00002096,-0.00000017,0.00009295,0.000
 14789,-0.00003010,-0.00000641,-0.00001404,-0.00003288,0.00000295,-0.00
 003271,0.03967892,-0.09185759,-0.10028671,-0.00706653,0.01717050,0.010
 35993,-0.04823217,0.10029034,0.10758393,0.00014715,0.00008779,0.000065
 00,-0.00175735,0.00127700,0.00181368,-0.01741641,-0.01244542,-0.012613
 06,-0.00012245,-0.00182007,0.00057056,0.00066359,0.00047735,0.00052476
 ,0.00078054,0.00058023,0.00034113,-0.00006612,0.00002713,0.00005542,0.
 00024022,-0.00011400,0.00002278,-0.00034162,-0.00002201,0.00002154,-0.
 00004386,-0.00006458,-0.00001479,-0.09190377,-0.01917406,0.01299187,-0
 .01574530,-0.01626271,0.00435996,0.00621870,0.00524881,-0.00169633,0.0
 0000124,-0.00006332,-0.00023585,-0.00004252,-0.00010525,0.00002268,-0.
 00006569,0.00000432,-0.00003148,0.45014535,0.00055909,-0.00013736,0.00
 079378,-0.00027211,0.00003560,-0.00021431,-0.01015924,-0.00568359,-0.0
 0813259,0.00110862,-0.00029893,0.00250845,-0.00012375,-0.00066304,-0.0
 0107686,0.00005397,0.00135251,0.00077548,-0.00010896,-0.00006277,0.000
 04906,-0.00030879,-0.00013105,0.00001955,0.00041331,-0.00001770,-0.000
 11798,0.00006258,-0.00002600,0.00012056,-0.02421072,-0.09719828,0.0131
 6200,0.00847966,0.00574256,-0.00148567,-0.02261285,-0.01819328,0.00339
 798,0.00013197,-0.00010093,-0.00026090,0.00007961,-0.00002158,0.000037
 03,-0.00004460,-0.00000443,-0.00003099,-0.09061049,0.51081184,0.001287
 95,0.00160360,-0.00111204,-0.00086102,0.00073719,-0.00016395,-0.020828
 50,-0.01790079,0.00310421,-0.00020338,-0.00086244,-0.00094937,0.001362
 15,0.00054206,-0.00014585,-0.00129643,-0.00171888,-0.00086859,0.000270
 79,0.00002924,-0.00028369,-0.00065683,-0.00057426,0.00015926,-0.000383
 38,-0.00013583,0.00008390,-0.00002487,0.00008222,-0.00015298,-0.000113
 07,-0.00039764,-0.07328030,0.01526173,0.01524279,-0.00311454,0.0102684
 9,0.00760055,-0.00221140,-0.00027027,-0.00009243,0.00052123,0.00010974
 ,0.00015776,-0.00009320,0.00009201,-0.00002723,-0.00003306,0.07505536,
 -0.00238650,0.53459637,0.00025611,0.00035330,-0.00036841,-0.00071517,0
 .00029884,0.00014303,-0.00257773,-0.00275528,0.00128950,-0.00018034,-0
 .00053225,-0.00029105,0.00033858,0.00020758,0.00028927,-0.00021894,-0.
 00055228,-0.00023138,0.00008671,0.00000664,-0.00008785,-0.00006871,-0.
 00012257,0.00004254,-0.00001813,-0.00001098,0.00001809,-0.00001494,0.0
 0004852,-0.00006081,-0.01367213,-0.00082707,-0.01795690,-0.00009985,0.
 00044297,0.00032099,0.00157245,0.00005338,-0.00005609,-0.00006805,-0.0
 0004784,0.00024153,0.00003888,0.00006150,-0.00004974,0.00003953,-0.000
 00530,-0.00002923,-0.13738907,0.00647159,-0.12521756,0.14957704,0.0003
 3437,0.00032957,0.00005698,-0.00022662,0.00010118,-0.00021264,-0.00331
 282,-0.00192015,0.00133743,-0.00000701,-0.00027386,-0.00022750,0.00043
 157,0.00020803,-0.00017140,-0.00037403,-0.00018013,-0.00023697,0.00003
 415,-0.00001371,-0.00006812,-0.00013257,-0.00014869,0.00002329,-0.0003
 4049,-0.00004796,0.00006372,0.00000949,0.00003806,-0.00007587,-0.01526
 661,-0.00287605,-0.01688754,0.00019591,0.00032262,0.00026481,0.0006664
 9,0.00102229,-0.00075566,-0.00006912,-0.00004834,0.00015934,0.00003125
 ,0.00003991,-0.00002945,0.00002450,0.00000012,-0.00001774,0.00692609,-
 0.04831180,0.00155295,-0.00200835,0.04979839,-0.00017156,0.00004914,-0
 .00008912,0.00004165,0.00013717,0.00025534,0.00067829,0.00036948,-0.00
 007674,0.00014887,-0.00002709,0.00032370,-0.00001791,-0.00021331,-0.00
 010585,0.00001839,-0.00001086,0.00002612,0.00000536,0.00001208,0.00003
 196,0.00003445,0.00001398,-0.00003138,0.00002888,0.00001192,-0.0000200
 7,0.00002089,0.00000393,0.00003336,0.00331236,0.00116616,0.00441171,-0
 .00048944,-0.00048943,-0.00006521,0.00007375,-0.00038557,0.00080520,0.
 00003122,0.00003516,-0.00001352,-0.00003192,-0.00001642,-0.00000942,-0
 .00000723,-0.00001421,0.00000050,-0.12302094,0.00217337,-0.21705772,0.
 13267902,-0.00449924,0.23683555,0.00017211,-0.00002400,0.00044857,0.00
 035153,-0.00038482,-0.00070518,0.00082719,0.00052376,0.00159968,0.0001
 8009,0.00004842,0.00029323,0.00006713,-0.00003932,-0.00047780,-0.00028
 335,0.00032745,0.00001280,-0.00002120,-0.00003713,-0.00002568,-0.00016
 180,0.00002632,0.00002539,-0.00031582,-0.00003715,-0.00003735,0.000021
 84,0.00000339,-0.00001524,0.00576823,-0.02514403,0.00374139,0.00167761
 ,0.00031450,-0.00025992,-0.00322715,-0.00376419,0.00037227,-0.00000829
 ,-0.00000780,-0.00000154,0.00002897,0.00001189,-0.00000002,-0.00000414
 ,-0.00000812,-0.00000952,-0.08542134,0.09587950,-0.01163784,-0.0075077
 2,0.01740449,-0.00059200,0.09754890,0.00013060,0.00007824,0.00041813,0
 .00016382,-0.00039729,-0.00053442,0.00045847,0.00074809,0.00135361,0.0
 0030906,-0.00009750,0.00000045,0.00013454,0.00001265,-0.00058433,-0.00
 035040,0.00023364,-0.00008333,0.00000254,-0.00000352,-0.00001623,-0.00
 014592,0.00007277,0.00003251,-0.00038313,0.00013638,0.00010810,0.00001
 281,0.00001753,-0.00004515,0.00554204,-0.02041853,0.00332633,0.0001252
 5,0.00155123,-0.00004168,-0.00357029,-0.00157036,0.00023433,-0.0000259
 5,0.00007704,-0.00003330,-0.00001594,-0.00000141,-0.00002253,0.0000049
 6,0.00000222,0.00000467,0.09681987,-0.26517588,0.01674521,-0.00024209,
 0.00085871,0.00031841,-0.10193905,0.28769308,0.00002605,-0.00003077,0.
 00015273,0.00009359,-0.00006909,-0.00011147,0.00028811,-0.00035698,0.0
 0002667,-0.00003234,-0.00000662,0.00015194,-0.00002196,-0.00008891,-0.
 00011050,-0.00004363,0.00013367,0.00002588,-0.00000472,0.00001856,0.00
 002517,0.00001197,-0.00001144,-0.00005809,-0.00011776,-0.00001399,0.00
 003674,-0.00000491,-0.00001005,0.00000658,-0.00077314,0.00483569,-0.00
 140139,0.00015062,0.00050746,0.00033488,0.00127854,0.00082481,0.000724
 80,-0.00000769,-0.00000611,-0.00003557,-0.00001074,-0.00000644,0.00000
 822,0.00000059,0.00001106,0.00001205,-0.01183474,0.01850245,-0.0520663
 1,-0.00986359,0.02464057,-0.00113924,0.00493705,-0.02163607,0.05557202
 ,-0.00175735,0.00127700,-0.00181368,0.00014715,0.00008779,-0.00006500,
 0.00078054,0.00058023,-0.00034113,0.00066359,0.00047735,-0.00052476,-0
 .00012245,-0.00182007,-0.00057056,-0.01741641,-0.01244542,0.01261306,0
 .00024022,-0.00011400,-0.00002278,-0.00006612,0.00002713,-0.00005542,-
 0.00004386,-0.00006458,0.00001479,-0.00034162,-0.00002201,-0.00002154,
 0.00000124,-0.00006332,0.00023585,-0.00004252,-0.00010525,-0.00002268,
 -0.00006569,0.00000432,0.00003148,-0.09190377,-0.01917406,-0.01299187,
 -0.01574530,-0.01626271,-0.00435996,0.00621870,0.00524881,0.00169633,0
 .00018807,-0.00056145,0.00041031,-0.00006708,0.00003270,0.00021031,-0.
 00003967,-0.00003766,-0.00002092,0.45014535,-0.00027211,0.00003560,0.0
 0021431,0.00055909,-0.00013736,-0.00079378,0.00005397,0.00135251,-0.00
 077548,-0.00012375,-0.00066304,0.00107686,0.00110862,-0.00029893,-0.00
 250845,-0.01015924,-0.00568359,0.00813259,-0.00030879,-0.00013105,-0.0
 0001955,-0.00010896,-0.00006277,-0.00004906,0.00006258,-0.00002600,-0.
 00012056,0.00041331,-0.00001770,0.00011798,0.00013197,-0.00010093,0.00
 026090,0.00007961,-0.00002158,-0.00003703,-0.00004460,-0.00000443,0.00
 003099,-0.02421072,-0.09719828,-0.01316200,0.00847966,0.00574256,0.001
 48567,-0.02261285,-0.01819328,-0.00339798,-0.00056145,0.00062136,-0.00
 017545,0.00007816,-0.00002053,-0.00018183,0.00001806,-0.00009697,0.000
 02442,-0.09061049,0.51081184,0.00086102,-0.00073719,-0.00016395,-0.001
 28795,-0.00160360,-0.00111204,0.00129643,0.00171888,-0.00086859,-0.001
 36215,-0.00054206,-0.00014585,0.00020338,0.00086244,-0.00094937,0.0208
 2850,0.01790079,0.00310421,0.00065683,0.00057426,0.00015926,-0.0002707
 9,-0.00002924,-0.00028369,0.00002487,-0.00008222,-0.00015298,0.0003833
 8,0.00013583,0.00008390,0.00027027,0.00009243,0.00052123,-0.00010974,-
 0.00015776,-0.00009320,-0.00009201,0.00002723,-0.00003306,0.00011307,0
 .00039764,-0.07328030,-0.01526173,-0.01524279,-0.00311454,-0.01026849,
 -0.00760055,-0.00221140,-0.00041031,0.00017545,-0.00073191,0.00000604,
 -0.00011698,-0.00014577,-0.00005308,0.00001697,0.00009456,-0.07505536,
 0.00238650,0.53459637,0.00035153,-0.00038482,0.00070518,0.00017211,-0.
 00002400,-0.00044857,-0.00028335,0.00032745,-0.00001280,0.00006713,-0.
 00003932,0.00047780,0.00018009,0.00004842,-0.00029323,0.00082719,0.000
 52376,-0.00159968,-0.00016180,0.00002632,-0.00002539,-0.00002120,-0.00
 003713,0.00002568,0.00002184,0.00000339,0.00001524,-0.00031582,-0.0000
 3715,0.00003735,-0.00000829,-0.00000780,0.00000154,0.00002897,0.000011
 89,0.00000002,-0.00000414,-0.00000812,0.00000952,0.00576823,-0.0251440
 3,-0.00374139,0.00167761,0.00031450,0.00025992,-0.00322715,-0.00376419
 ,-0.00037227,-0.00003967,0.00001806,0.00005308,0.00001209,0.00000367,-
 0.00001924,0.00003293,-0.00001801,-0.00003191,-0.08542134,0.09587950,0
 .01163784,0.09754890,0.00016382,-0.00039729,0.00053442,0.00013060,0.00
 007824,-0.00041813,-0.00035040,0.00023364,0.00008333,0.00013454,0.0000
 1265,0.00058433,0.00030906,-0.00009750,-0.00000045,0.00045847,0.000748
 09,-0.00135361,-0.00014592,0.00007277,-0.00003251,0.00000254,-0.000003
 52,0.00001623,0.00001281,0.00001753,0.00004515,-0.00038313,0.00013638,
 -0.00010810,-0.00002595,0.00007704,0.00003330,-0.00001594,-0.00000141,
 0.00002253,0.00000496,0.00000222,-0.00000467,0.00554204,-0.02041853,-0
 .00332633,0.00012525,0.00155123,0.00004168,-0.00357029,-0.00157036,-0.
 00023433,-0.00003766,-0.00009697,-0.00001697,-0.00000107,-0.00000099,-
 0.00000222,-0.00001801,0.00002982,0.00002435,0.09681987,-0.26517588,-0
 .01674521,-0.10193905,0.28769308,-0.00009359,0.00006909,-0.00011147,-0
 .00002605,0.00003077,0.00015273,0.00004363,-0.00013367,0.00002588,0.00
 002196,0.00008891,-0.00011050,0.00003234,0.00000662,0.00015194,-0.0002
 8811,0.00035698,0.00002667,-0.00001197,0.00001144,-0.00005809,0.000004
 72,-0.00001856,0.00002517,0.00000491,0.00001005,0.00000658,0.00011776,
 0.00001399,0.00003674,0.00000769,0.00000611,-0.00003557,0.00001074,0.0
 0000644,0.00000822,-0.00000059,-0.00001106,0.00001205,0.00077314,-0.00
 483569,-0.00140139,-0.00015062,-0.00050746,0.00033488,-0.00127854,-0.0
 0082481,0.00072480,0.00002092,-0.00002442,0.00009456,0.00000614,0.0000
 0928,0.00003292,0.00003191,-0.00002435,-0.00004517,0.01183474,-0.01850
 245,-0.05206631,-0.00493705,0.02163607,0.05557202,-0.00071517,0.000298
 84,-0.00014303,0.00025611,0.00035330,0.00036841,-0.00021894,-0.0005522
 8,0.00023138,0.00033858,0.00020758,-0.00028927,-0.00018034,-0.00053225
 ,0.00029105,-0.00257773,-0.00275528,-0.00128950,-0.00006871,-0.0001225
 7,-0.00004254,0.00008671,0.00000664,0.00008785,-0.00001494,0.00004852,
 0.00006081,-0.00001813,-0.00001098,-0.00001809,-0.00006805,-0.00004784
 ,-0.00024153,0.00003888,0.00006150,0.00004974,0.00003953,-0.00000530,0
 .00002923,-0.01367213,-0.00082707,0.01795690,-0.00009985,0.00044297,-0
 .00032099,0.00157245,0.00005338,0.00005609,-0.00006708,0.00007816,-0.0
 0000604,0.00010062,0.00003916,-0.00005388,0.00001209,-0.00000107,-0.00
 000614,-0.13738907,0.00647159,0.12521756,-0.00750772,-0.00024209,0.009
 86359,0.14957704,-0.00022662,0.00010118,0.00021264,0.00033437,0.000329
 57,-0.00005698,-0.00037403,-0.00018013,0.00023697,0.00043157,0.0002080
 3,0.00017140,-0.00000701,-0.00027386,0.00022750,-0.00331282,-0.0019201
 5,-0.00133743,-0.00013257,-0.00014869,-0.00002329,0.00003415,-0.000013
 71,0.00006812,0.00000949,0.00003806,0.00007587,-0.00034049,-0.00004796
 ,-0.00006372,-0.00006912,-0.00004834,-0.00015934,0.00003125,0.00003991
 ,0.00002945,0.00002450,0.00000012,0.00001774,-0.01526661,-0.00287605,0
 .01688754,0.00019591,0.00032262,-0.00026481,0.00066649,0.00102229,0.00
 075566,0.00003270,-0.00002053,0.00011698,0.00003916,0.00003664,0.00000
 087,0.00000367,-0.00000099,-0.00000928,0.00692609,-0.04831180,-0.00155
 295,0.01740449,0.00085871,-0.02464057,-0.00200835,0.04979839,-0.000041
 65,-0.00013717,0.00025534,0.00017156,-0.00004914,-0.00008912,-0.000018
 39,0.00001086,0.00002612,0.00001791,0.00021331,-0.00010585,-0.00014887
 ,0.00002709,0.00032370,-0.00067829,-0.00036948,-0.00007674,-0.00003445
 ,-0.00001398,-0.00003138,-0.00000536,-0.00001208,0.00003196,-0.0000208
 9,-0.00000393,0.00003336,-0.00002888,-0.00001192,-0.00002007,-0.000031
 22,-0.00003516,-0.00001352,0.00003192,0.00001642,-0.00000942,0.0000072
 3,0.00001421,0.00000050,-0.00331236,-0.00116616,0.00441171,0.00048944,
 0.00048943,-0.00006521,-0.00007375,0.00038557,0.00080520,-0.00021031,0
 .00018183,-0.00014577,0.00005388,-0.00000087,-0.00015393,0.00001924,0.
 00000222,0.00003292,0.12302094,-0.00217337,-0.21705772,0.00059200,-0.0
 0031841,-0.00113924,-0.13267902,0.00449924,0.23683555,-0.00023944,-0.0
 0093335,-0.00000329,0.00002032,-0.00048882,0.00015825,0.00036033,0.000
 27661,-0.00023250,0.00027556,0.00006074,-0.00021448,-0.00035691,-0.000
 75184,-0.00133171,-0.00464781,-0.00058721,-0.00119634,0.00001462,0.000
 20149,0.00019225,-0.00011014,0.00006898,-0.00008820,0.00006980,-0.0000
 5522,-0.00008866,0.00017113,0.00004221,0.00007112,-0.00039596,0.000053
 85,-0.00070865,-0.00001878,0.00016315,-0.00004626,0.00023593,0.0002295
 4,-0.00016101,-0.01870791,0.00207054,-0.01887696,-0.00225266,-0.003162
 82,-0.00079687,0.00101420,0.00036658,0.00034536,0.00240475,0.00401886,
 -0.00187638,-0.00001446,-0.00050366,-0.00052953,-0.00032734,0.00032571
 ,0.00008122,-0.10493099,0.02463469,-0.04336563,-0.00952270,0.00335176,
 -0.01245940,0.01130751,-0.00433020,0.01507534,0.46485949,-0.00183376,-
 0.00091343,0.00068980,-0.00086397,-0.00076183,0.00019570,0.00047745,-0
 .00036211,0.00006760,0.00061650,0.00021838,-0.00002343,0.00006724,-0.0
 0047160,-0.00036365,-0.00182018,0.00074319,-0.00024680,-0.00009652,-0.
 00012544,-0.00008148,-0.00001392,-0.00004855,0.00002632,-0.00007745,0.
 00000612,0.00006728,-0.00000856,-0.00001201,-0.00009908,0.00071099,-0.
 00067202,-0.00097132,0.00026017,0.00013831,-0.00007653,-0.00021400,-0.
 00002432,0.00005913,-0.00627986,0.00866791,-0.01597859,-0.00347715,-0.
 00255605,-0.00073842,-0.00036716,0.00001959,-0.00029575,0.00446759,0.0
 0283894,0.00296170,-0.00062558,0.00040696,0.00138295,-0.00028163,0.000
 19613,-0.00002543,0.01995361,-0.08689714,0.01464041,0.01683073,-0.0051
 4395,0.02617305,-0.00069989,-0.00011122,-0.00261236,-0.23551428,0.3832
 5360,0.00088758,0.00041911,-0.00022161,-0.00109666,0.00008870,0.000406
 79,-0.00020526,-0.00064561,-0.00013424,-0.00026602,-0.00054244,0.00061
 825,0.00108001,0.00063607,0.00009148,0.00005943,-0.00064882,-0.0002131
 9,0.00003279,0.00006514,0.00008432,0.00018675,0.00002632,-0.00008540,0
 .00004034,-0.00002293,-0.00011554,0.00000273,0.00017992,0.00006352,0.0
 0032958,-0.00041410,-0.00013103,0.00008557,-0.00000355,0.00002657,-0.0
 0027818,-0.00023938,0.00008879,-0.01370704,-0.00619075,-0.00382523,0.0
 0078944,0.00068877,0.00054097,0.00140425,0.00122374,0.00032435,-0.0031
 4648,0.00220646,-0.00180105,0.00051402,0.00013863,-0.00028756,0.000204
 10,-0.00045243,0.00026848,-0.04178644,0.01847243,-0.15981346,0.0001523
 2,-0.00097371,0.00120183,-0.01608894,0.00434167,-0.02163281,0.02034415
 ,0.05328251,0.61705579,-0.00158761,-0.00115021,0.00091103,-0.00158761,
 -0.00115021,-0.00091103,-0.00162852,-0.00131995,0.00158158,-0.00150835
 ,-0.00159409,0.00094376,-0.00150835,-0.00159409,-0.00094376,-0.0016285
 2,-0.00131995,-0.00158158,0.00003687,0.00011839,-0.00004883,0.00003687
 ,0.00011839,0.00004883,-0.00000829,0.00015644,0.00017719,-0.00000829,0
 .00015644,-0.00017719,-0.00108060,0.00018091,0.00077807,-0.00053769,-0
 .00023562,0.00000599,0.00011855,0.00001037,-0.00007329,-0.00108060,0.0
 0018091,-0.00077807,-0.00053769,-0.00023562,-0.00000599,0.00011855,0.0
 0001037,0.00007329,0.00862241,-0.00645209,0.01380540,-0.00177969,0.000
 85077,0.00292630,0.00000797,0.00003056,0.00137681,0.00862241,-0.006452
 09,-0.01380540,0.00000797,0.00003056,-0.00137681,-0.00177969,0.0008507
 7,-0.00292630,-0.11525876,0.05560367,0.07514440,0.45489090,-0.00138745
 ,-0.00150303,0.00017697,-0.00138745,-0.00150303,-0.00017697,-0.0011516
 6,-0.00042480,0.00008616,-0.00192643,-0.00123405,-0.00100820,-0.001926
 44,-0.00123405,0.00100820,-0.00115166,-0.00042480,-0.00008616,0.000108
 17,-0.00002899,0.00001053,0.00010817,-0.00002899,-0.00001053,0.0003447
 8,0.00007199,-0.00015486,0.00034478,0.00007199,0.00015486,0.00005548,-
 0.00029062,-0.00115636,0.00026534,0.00024928,-0.00008864,0.00014496,0.
 00000400,0.00004895,0.00005548,-0.00029062,0.00115636,0.00026534,0.000
 24928,0.00008864,0.00014496,0.00000400,-0.00004895,-0.00210268,0.00678
 937,-0.00613571,0.00126927,0.00023834,-0.00284434,-0.00062457,0.000846
 15,-0.00060060,-0.00210268,0.00678937,0.00613571,-0.00062457,0.0008461
 5,0.00060060,0.00126927,0.00023834,0.00284434,0.05359273,-0.11953216,-
 0.09089666,-0.29092342,0.42569197,-0.00117138,-0.00021904,-0.00022919,
 0.00117138,0.00021904,-0.00022919,0.00079135,0.00080310,-0.00065220,0.
 00057278,0.00096474,-0.00006461,-0.00057278,-0.00096474,-0.00006461,-0
 .00079135,-0.00080310,-0.00065221,0.00014085,-0.00007152,-0.00001393,-
 0.00014085,0.00007151,-0.00001393,-0.00016687,0.00000461,0.00005866,0.
 00016687,-0.00000461,0.00005866,-0.00269895,0.00018294,0.00006381,-0.0
 0023288,0.00008062,0.00014455,0.00082299,0.00051585,-0.00028750,0.0026
 9895,-0.00018294,0.00006381,0.00023288,-0.00008062,0.00014455,-0.00082
 299,-0.00051585,-0.00028750,-0.00507039,0.00630675,-0.03046001,0.00250
 714,-0.00034167,-0.00393582,-0.00195837,0.00195335,0.00116478,0.005070
 39,-0.00630675,-0.03046002,0.00195837,-0.00195335,0.00116478,-0.002507
 14,0.00034167,-0.00393582,0.01879810,-0.04911122,-0.26981886,0.,0.,0.6
 6649480,-0.00060314,-0.00065613,0.00003983,0.00005617,0.00039675,0.000
 01740,-0.00031921,0.00025889,0.00013405,-0.00050566,-0.00025601,0.0004
 8379,0.00026429,0.00063914,0.00067606,0.00067784,-0.00001542,-0.000430
 68,-0.00018048,0.00013860,0.00007955,0.00003867,-0.00007428,0.00000223
 ,0.00006281,0.00002893,-0.00001399,-0.00008122,-0.00005637,-0.00003589
 ,0.00008744,-0.00016314,0.00010908,0.00001779,-0.00008579,0.00005290,-
 0.00016772,-0.00016935,0.00012086,0.00076172,0.00100458,0.00074763,-0.
 00007332,-0.00006908,0.00009981,0.00021810,0.00016075,0.00011049,-0.00
 010183,0.00043485,-0.00050058,0.00005014,0.00018704,0.00032931,0.00009
 040,-0.00031244,-0.00000226,-0.01173325,0.01084068,-0.00470635,-0.0001
 9827,0.00018135,-0.00118619,0.00061018,-0.00045555,0.00132978,-0.21316
 285,0.12779761,-0.02463890,-0.01171621,0.01467691,0.05365947,0.4443292
 1,-0.00023585,-0.00025291,0.00004305,0.00026485,-0.00025366,0.00001515
 ,-0.00008516,0.00015296,-0.00005886,0.00048637,0.00036487,0.00022935,0
 .00021726,-0.00044830,-0.00094353,-0.00090582,0.00014680,-0.00033183,-
 0.00019105,0.00016904,0.00018214,-0.00003588,0.00001638,0.00000445,-0.
 00004488,0.00001794,0.00003322,-0.00001428,0.00002109,0.00000783,-0.00
 038974,0.00033088,-0.00008747,-0.00008372,0.00003957,0.00000367,0.0002
 1364,0.00017786,-0.00008898,-0.00144960,-0.00135482,-0.00034439,-0.000
 09579,0.00011943,-0.00009362,-0.00000493,0.00002193,-0.00000102,-0.000
 30011,-0.00119492,0.00000916,0.00015837,-0.00021938,-0.00039955,-0.000
 00919,0.00031165,-0.00010855,0.00812540,-0.00181099,0.00457941,0.00079
 058,0.00010559,0.00037642,-0.00073474,0.00052113,-0.00211416,0.1283236
 3,-0.16957191,0.01900291,0.01961795,-0.00924581,-0.05244273,-0.2680254
 3,0.36003700,-0.00035587,-0.00032184,0.00017977,-0.00013430,0.00014337
 ,0.00008050,-0.00010432,-0.00016285,-0.00053917,-0.00040576,0.00000518
 ,-0.00003206,-0.00023614,0.00035850,0.00076703,0.00108463,-0.00007651,
 -0.00033939,-0.00003965,0.00019973,0.00020896,0.00015017,0.00001861,-0
 .00006407,-0.00004271,0.00005959,0.00003389,-0.00002122,-0.00007551,-0
 .00002413,0.00013356,-0.00073755,-0.00012634,0.00028102,0.00015989,0.0
 0003822,-0.00011569,-0.00005105,0.00009759,-0.00040728,0.00217875,-0.0
 0055662,-0.00054147,-0.00067590,-0.00007818,0.00012151,-0.00030639,0.0
 0003442,0.00042342,0.00087143,-0.00030630,0.00022130,0.00008892,0.0002
 6093,-0.00001108,-0.00020286,-0.00013541,-0.02283763,0.01943605,0.0015
 8325,-0.00379520,0.00180702,-0.00459682,-0.00018758,0.00032717,0.00170
 125,0.02228357,-0.02708071,-0.12478454,0.02217413,-0.01923232,0.032693
 66,0.00098952,0.04360814,0.71782362,0.00002032,-0.00048882,-0.00015825
 ,-0.00023944,-0.00093335,0.00000329,-0.00464781,-0.00058721,0.00119634
 ,-0.00035691,-0.00075184,0.00133171,0.00027556,0.00006074,0.00021448,0
 .00036033,0.00027661,0.00023250,-0.00011014,0.00006898,0.00008820,0.00
 001462,0.00020149,-0.00019225,0.00017113,0.00004221,-0.00007112,0.0000
 6980,-0.00005522,0.00008866,-0.01870791,0.00207054,0.01887696,-0.00225
 266,-0.00316282,0.00079687,0.00101420,0.00036658,-0.00034536,-0.000395
 96,0.00005385,0.00070865,-0.00001878,0.00016315,0.00004626,0.00023593,
 0.00022954,0.00016101,-0.10493099,0.02463469,0.04336563,0.01130751,-0.
 00433020,-0.01507534,-0.00952270,0.00335176,0.01245940,0.00240475,0.00
 401886,0.00187638,-0.00032734,0.00032571,-0.00008122,-0.00001446,-0.00
 050366,0.00052953,0.04136446,-0.02952398,-0.01907056,-0.11525876,0.053
 59273,-0.01879810,-0.03024842,0.02085924,-0.02439771,0.46485949,-0.000
 86397,-0.00076183,-0.00019570,-0.00183376,-0.00091343,-0.00068980,-0.0
 0182018,0.00074319,0.00024680,0.00006724,-0.00047160,0.00036365,0.0006
 1650,0.00021838,0.00002343,0.00047745,-0.00036211,-0.00006760,-0.00001
 392,-0.00004855,-0.00002632,-0.00009652,-0.00012544,0.00008148,-0.0000
 0856,-0.00001201,0.00009908,-0.00007745,0.00000612,-0.00006728,-0.0062
 7986,0.00866791,0.01597859,-0.00347715,-0.00255605,0.00073842,-0.00036
 716,0.00001959,0.00029575,0.00071099,-0.00067202,0.00097132,0.00026017
 ,0.00013831,0.00007653,-0.00021400,-0.00002432,-0.00005913,0.01995361,
 -0.08689714,-0.01464041,-0.00069989,-0.00011122,0.00261236,0.01683073,
 -0.00514395,-0.02617305,0.00446759,0.00283894,-0.00296170,-0.00028163,
 0.00019613,0.00002543,-0.00062558,0.00040696,-0.00138295,-0.02952398,0
 .03016545,0.01696188,0.05560367,-0.11953216,0.04911122,0.02256970,-0.0
 2708654,0.02042592,-0.23551428,0.38325360,0.00109666,-0.00008870,0.000
 40679,-0.00088758,-0.00041911,-0.00022161,-0.00005943,0.00064882,-0.00
 021319,-0.00108001,-0.00063607,0.00009148,0.00026602,0.00054244,0.0006
 1825,0.00020526,0.00064561,-0.00013424,-0.00018675,-0.00002632,-0.0000
 8540,-0.00003279,-0.00006514,0.00008432,-0.00000273,-0.00017992,0.0000
 6352,-0.00004034,0.00002293,-0.00011554,0.01370704,0.00619075,-0.00382
 523,-0.00078944,-0.00068877,0.00054097,-0.00140425,-0.00122374,0.00032
 435,-0.00032958,0.00041410,-0.00013103,-0.00008557,0.00000355,0.000026
 57,0.00027818,0.00023938,0.00008879,0.04178644,-0.01847243,-0.15981346
 ,0.01608894,-0.00434167,-0.02163281,-0.00015232,0.00097371,0.00120183,
 0.00314648,-0.00220646,-0.00180105,-0.00020410,0.00045243,0.00026848,-
 0.00051402,-0.00013863,-0.00028756,0.01907056,-0.01696188,-0.05447325,
 -0.07514440,0.09089666,-0.26981886,-0.02073606,0.01968769,-0.01726718,
 -0.02034415,-0.05328251,0.61705579,0.00007627,0.00012857,-0.00007033,0
 .00007627,0.00012857,0.00007033,-0.00029980,0.00024378,0.00004442,-0.0
 0265002,-0.00189358,0.00000393,-0.00265002,-0.00189358,-0.00000393,-0.
 00029980,0.00024378,-0.00004443,-0.00001749,-0.00002161,-0.00001084,-0
 .00001749,-0.00002161,0.00001084,0.00004734,0.00000570,0.00005528,0.00
 004734,0.00000570,-0.00005528,0.00016509,-0.00000685,0.00053511,-0.000
 02181,-0.00006253,-0.00000502,-0.00011877,-0.00010421,0.00003673,0.000
 16509,-0.00000685,-0.00053511,-0.00002181,-0.00006253,0.00000502,-0.00
 011877,-0.00010421,-0.00003673,-0.00167187,-0.00197053,0.00075851,0.00
 012963,-0.00024563,-0.00011363,0.00082905,-0.00060410,-0.00055914,-0.0
 0167187,-0.00197053,-0.00075851,0.00082905,-0.00060410,0.00055914,0.00
 012963,-0.00024563,0.00011363,-0.00586401,0.00778742,-0.00051432,-0.19
 788736,0.15446001,0.,0.00336586,0.00289664,0.00127291,-0.00586401,0.00
 778742,0.00051432,0.21102521,-0.00011237,-0.00009322,0.00004240,-0.000
 11237,-0.00009321,-0.00004240,0.00046407,-0.00015910,0.00030697,-0.000
 49202,0.00041360,0.00024963,-0.00049202,0.00041360,-0.00024963,0.00046
 407,-0.00015910,-0.00030697,0.00001737,0.00008453,0.00003718,0.0000173
 7,0.00008453,-0.00003718,-0.00012210,-0.00002678,0.00004141,-0.0001221
 0,-0.00002678,-0.00004141,-0.00007129,0.00018822,0.00085764,-0.0001461
 1,-0.00015855,-0.00000568,-0.00004807,-0.00001156,-0.00005086,-0.00007
 129,0.00018822,-0.00085764,-0.00014611,-0.00015855,0.00000568,-0.00004
 807,-0.00001156,0.00005086,-0.00210832,-0.00155739,-0.00132739,-0.0000
 0820,0.00024857,-0.00022209,-0.00003987,0.00001188,0.00053722,-0.00210
 832,-0.00155739,0.00132739,-0.00003987,0.00001188,-0.00053722,-0.00000
 820,0.00024857,0.00022209,0.00911976,-0.00422717,0.00278899,0.14902204
 ,-0.17513986,0.,0.00256256,0.00349202,-0.00338234,0.00911976,-0.004227
 17,-0.00278899,-0.16681757,0.17944362,-0.00001728,-0.00005881,-0.00015
 343,0.00001728,0.00005881,-0.00015343,0.00008510,0.00050335,-0.0002118
 4,0.00004941,0.00002898,0.00030366,-0.00004941,-0.00002898,0.00030366,
 -0.00008510,-0.00050335,-0.00021184,0.00003219,0.00003497,-0.00000016,
 -0.00003219,-0.00003497,-0.00000016,0.00015840,-0.00002234,-0.00006295
 ,-0.00015840,0.00002234,-0.00006295,0.00013592,0.00004376,-0.00013509,
 0.00002433,0.00002247,-0.00004489,-0.00005753,-0.00009865,0.00001010,-
 0.00013592,-0.00004376,-0.00013509,-0.00002433,-0.00002247,-0.00004489
 ,0.00005753,0.00009865,0.00001010,-0.00132017,0.00163254,0.00129233,0.
 00011505,-0.00025623,0.00019075,0.00027651,-0.00070474,-0.00038710,0.0
 0132017,-0.00163254,0.00129233,-0.00027651,0.00070475,-0.00038710,-0.0
 0011505,0.00025623,0.00019076,0.02103569,-0.01849996,0.00268160,0.,0.,
 -0.05882187,0.00105965,-0.00194258,-0.00491460,-0.02103569,0.01849996,
 0.00268160,0.,0.,0.06234628,-0.00010407,0.00003521,0.00002285,-0.00010
 407,0.00003521,-0.00002285,0.00003769,0.00002560,-0.00026874,-0.000357
 09,-0.00004085,-0.00039712,-0.00035709,-0.00004085,0.00039712,0.000037
 69,0.00002560,0.00026874,-0.00004165,-0.00006302,0.00001635,-0.0000416
 5,-0.00006302,-0.00001635,0.00002157,-0.00000519,-0.00002184,0.0000215
 7,-0.00000519,0.00002184,0.00059205,-0.00052241,-0.00050905,0.00025283
 ,0.00014006,-0.00007477,-0.00006889,-0.00009490,0.00002237,0.00059205,
 -0.00052241,0.00050905,0.00025283,0.00014006,0.00007477,-0.00006889,-0
 .00009490,-0.00002237,0.00049547,0.00678317,-0.00130863,0.00030893,-0.
 00022093,0.00043923,-0.00092781,0.00024200,0.00124395,0.00049547,0.006
 78317,0.00130863,-0.00092781,0.00024200,-0.00124395,0.00030893,-0.0002
 2093,-0.00043923,-0.01559520,0.01536925,-0.02091230,-0.00327734,-0.001
 81188,0.,-0.12979053,0.05790199,-0.09960607,-0.01559520,0.01536925,0.0
 2091230,-0.00042066,-0.00124180,0.,0.49125895,-0.00020706,-0.00014229,
 -0.00000531,-0.00020706,-0.00014229,0.00000531,0.00000553,-0.00015511,
 -0.00007171,-0.00007756,0.00027069,-0.00006584,-0.00007756,0.00027069,
 0.00006584,0.00000553,-0.00015511,0.00007171,0.00008633,0.00024326,0.0
 0017039,0.00008633,0.00024326,-0.00017039,-0.00003563,0.00001349,0.000
 00306,-0.00003563,0.00001349,-0.00000306,0.00056573,-0.00057787,-0.000
 71791,0.00018784,0.00033787,-0.00007641,0.00014622,0.00014944,-0.00010
 553,0.00056573,-0.00057787,0.00071791,0.00018784,0.00033787,0.00007641
 ,0.00014622,0.00014945,0.00010553,0.00441039,0.00154240,0.00204085,-0.
 00015426,-0.00006234,0.00017893,0.00010898,0.00002968,-0.00017055,0.00
 441039,0.00154240,-0.00204085,0.00010898,0.00002968,0.00017055,-0.0001
 5426,-0.00006234,-0.00017893,0.01695237,-0.00645600,0.01797604,-0.0013
 5780,-0.00526232,0.,0.05948661,-0.10585507,0.07364216,0.01695237,-0.00
 645600,-0.01797604,-0.00025561,0.00050629,0.,-0.29730671,0.37353280,-0
 .00015270,0.00062078,0.00001243,0.00015270,-0.00062078,0.00001243,0.00
 043013,-0.00018041,0.00020333,0.00045160,0.00041333,-0.00065299,-0.000
 45160,-0.00041333,-0.00065299,-0.00043013,0.00018041,0.00020333,0.0000
 4640,-0.00025144,-0.00009969,-0.00004640,0.00025144,-0.00009969,-0.000
 08176,-0.00003803,0.00002569,0.00008176,0.00003803,0.00002569,0.000173
 95,0.00086677,-0.00048302,-0.00013633,-0.00001512,-0.00012741,0.000271
 91,0.00022770,-0.00019819,-0.00017395,-0.00086677,-0.00048302,0.000136
 33,0.00001512,-0.00012741,-0.00027191,-0.00022770,-0.00019819,-0.00256
 221,0.00020072,0.00199210,-0.00004366,-0.00003545,-0.00057944,-0.00018
 401,0.00079539,0.00050803,0.00256221,-0.00020072,0.00199210,0.00018401
 ,-0.00079539,0.00050803,0.00004366,0.00003545,-0.00057944,-0.05713214,
 0.05284474,0.03351528,0.,0.,-0.06651382,-0.05166716,0.02629005,-0.2841
 6468,0.05713214,-0.05284475,0.03351528,0.,0.,-0.00107554,0.,0.,0.66560
 584,0.00005083,0.00021041,0.00002670,-0.00001992,-0.00002368,0.0000305
 7,0.00011711,-0.00000410,-0.00011713,-0.00000913,-0.00002348,-0.000074
 72,-0.00001388,0.00000614,0.00000459,0.00006524,-0.00002195,0.00002032
 ,-0.00002124,-0.00012509,-0.00000787,0.00000165,0.00000402,-0.00000033
 ,0.00001418,-0.00000799,-0.00001816,0.00001489,0.00000333,0.00001125,0
 .00006016,0.00005886,0.00015152,-0.00002927,-0.00003991,0.00001132,-0.
 00004531,-0.00003747,0.00001597,-0.00037490,0.00040350,-0.00008748,-0.
 00003416,-0.00020065,-0.00011320,-0.00020779,-0.00020568,-0.00016880,-
 0.00044869,-0.00048947,0.00007267,-0.00004203,0.00004575,0.00002941,0.
 00012009,-0.00010266,-0.00001905,-0.00056517,-0.00258734,0.00139505,0.
 00041209,-0.00010149,-0.00003844,0.00002996,0.00028600,-0.00041396,-0.
 00226492,0.00572475,0.02115866,-0.00074232,0.00627324,0.00014354,-0.08
 475427,0.04943052,0.08005134,-0.00157438,0.00072225,-0.00136268,-0.000
 09946,0.00069462,0.00122809,0.00758209,-0.00610707,-0.01090863,0.08068
 917,0.00004118,0.00010683,0.00004024,0.00000380,0.00002231,0.00004116,
 0.00009658,-0.00003866,-0.00004482,0.00001938,0.00006983,-0.00003130,-
 0.00003990,-0.00000265,0.00003456,0.00004352,0.00004627,-0.00012668,-0
 .00004472,-0.00005069,-0.00002475,0.00000362,0.00000392,0.00001747,-0.
 00001404,-0.00000026,0.00001374,-0.00000259,-0.00001386,-0.00000670,0.
 00002596,0.00006080,0.00013102,-0.00001383,-0.00002898,0.00001454,-0.0
 0001892,-0.00000979,0.00001021,-0.00014599,0.00020254,-0.00011727,-0.0
 0004382,-0.00010284,-0.00004713,-0.00004744,0.00001216,-0.00002633,-0.
 00068552,-0.00047260,0.00005305,-0.00002673,0.00010259,-0.00011943,0.0
 0007109,-0.00004402,0.00006648,-0.00228078,-0.00141393,-0.00099984,-0.
 00007928,0.00002047,0.00030466,-0.00009708,-0.00006682,0.00112274,0.00
 838669,-0.00631479,-0.01960727,0.00603204,0.00140827,0.00260322,0.0462
 2781,-0.08087205,-0.09029741,-0.00078304,-0.00001196,-0.00021815,0.000
 38487,-0.00030074,-0.00101991,-0.00364223,0.00553594,0.01033697,-0.055
 29751,0.08020394,0.00005359,-0.00014965,-0.00008054,-0.00001440,0.0000
 4515,0.00000605,-0.00004710,-0.00002133,0.00000518,0.00002682,0.000039
 63,0.00006838,0.00002809,0.00003013,-0.00002515,-0.00002336,0.00004578
 ,0.00005925,0.00002291,0.00008213,0.00002374,-0.00001090,-0.00003116,-
 0.00000628,-0.00000765,0.00000118,0.00000069,-0.00001559,-0.00000223,0
 .00000245,-0.00001314,-0.00001786,-0.00004621,0.00003702,0.00001300,-0
 .00000185,-0.00000783,-0.00000527,0.00001239,0.00011849,-0.00017275,0.
 00007270,0.00003839,0.00007946,0.00002410,0.00005401,0.00010247,0.0000
 9988,0.00006327,0.00000316,0.00008463,-0.00000075,0.00003790,0.0000233
 8,0.00005661,-0.00002827,-0.00001278,-0.00049623,0.00046637,0.00070379
 ,-0.00003107,-0.00005539,0.00008549,0.00043544,-0.00019364,0.00041993,
 -0.00116678,0.00111497,0.00202783,-0.00059335,0.00014556,0.00141975,0.
 08112176,-0.08874547,-0.26070500,-0.00048293,0.00041760,0.00030607,-0.
 00006790,0.00002847,0.00012465,0.01187444,-0.01205408,-0.01909013,-0.0
 8800585,0.09637954,0.27713880,0.00005617,0.00039675,-0.00001740,-0.000
 60314,-0.00065613,-0.00003983,0.00067784,-0.00001542,0.00043068,0.0002
 6429,0.00063914,-0.00067606,-0.00050566,-0.00025601,-0.00048379,-0.000
 31921,0.00025889,-0.00013405,0.00003867,-0.00007428,-0.00000223,-0.000
 18048,0.00013860,-0.00007955,-0.00008122,-0.00005637,0.00003589,0.0000
 6281,0.00002893,0.00001399,0.00076172,0.00100458,-0.00074763,-0.000073
 32,-0.00006908,-0.00009981,0.00021810,0.00016075,-0.00011049,0.0000874
 4,-0.00016314,-0.00010908,0.00001779,-0.00008579,-0.00005290,-0.000167
 72,-0.00016935,-0.00012086,-0.01173325,0.01084068,0.00470635,0.0006101
 8,-0.00045555,-0.00132978,-0.00019827,0.00018135,0.00118619,-0.0001018
 3,0.00043485,0.00050058,0.00009040,-0.00031244,0.00000226,0.00005014,0
 .00018704,-0.00032931,-0.03024842,0.02256970,0.02073606,-0.01171622,0.
 01467691,-0.05365947,0.03684443,-0.02775666,0.01916488,-0.21316285,0.1
 2779761,0.02463890,0.00336586,0.00256256,-0.00105965,-0.12979053,0.059
 48661,0.05166716,0.00251314,0.00415910,-0.00371176,0.44432921,0.000264
 85,-0.00025366,-0.00001515,-0.00023585,-0.00025291,-0.00004305,-0.0009
 0582,0.00014680,0.00033183,0.00021726,-0.00044830,0.00094353,0.0004863
 7,0.00036487,-0.00022935,-0.00008516,0.00015296,0.00005886,-0.00003588
 ,0.00001638,-0.00000445,-0.00019105,0.00016904,-0.00018214,-0.00001428
 ,0.00002109,-0.00000783,-0.00004488,0.00001794,-0.00003322,-0.00144960
 ,-0.00135482,0.00034439,-0.00009579,0.00011943,0.00009362,-0.00000493,
 0.00002193,0.00000102,-0.00038974,0.00033088,0.00008747,-0.00008372,0.
 00003957,-0.00000367,0.00021364,0.00017786,0.00008898,0.00812540,-0.00
 181099,-0.00457941,-0.00073474,0.00052113,0.00211416,0.00079058,0.0001
 0559,-0.00037642,-0.00030011,-0.00119492,-0.00000916,-0.00000919,0.000
 31165,0.00010855,0.00015837,-0.00021938,0.00039955,0.02085924,-0.02708
 654,-0.01968769,0.01961795,-0.00924581,0.05244273,-0.02775666,0.032003
 81,-0.01726096,0.12832363,-0.16957191,-0.01900291,0.00289664,0.0034920
 2,0.00194258,0.05790199,-0.10585507,-0.02629005,0.00385163,0.00359676,
 0.00235576,-0.26802543,0.36003700,0.00013430,-0.00014337,0.00008050,0.
 00035587,0.00032184,0.00017977,-0.00108463,0.00007651,-0.00033939,0.00
 023614,-0.00035850,0.00076703,0.00040576,-0.00000518,-0.00003206,0.000
 10432,0.00016285,-0.00053917,-0.00015017,-0.00001861,-0.00006407,0.000
 03965,-0.00019973,0.00020896,0.00002122,0.00007551,-0.00002413,0.00004
 271,-0.00005959,0.00003389,0.00040728,-0.00217875,-0.00055662,0.000541
 47,0.00067590,-0.00007818,-0.00012151,0.00030639,0.00003442,-0.0001335
 6,0.00073755,-0.00012634,-0.00028102,-0.00015989,0.00003822,0.00011569
 ,0.00005105,0.00009759,0.02283763,-0.01943605,0.00158325,0.00018758,-0
 .00032717,0.00170125,0.00379520,-0.00180702,-0.00459682,-0.00042342,-0
 .00087143,-0.00030630,0.00001108,0.00020286,-0.00013541,-0.00022130,-0
 .00008892,0.00026093,0.02439771,-0.02042592,-0.01726718,-0.02217413,0.
 01923232,0.03269366,-0.01916488,0.01726096,-0.05890705,-0.02228357,0.0
 2708071,-0.12478454,-0.00127291,0.00338234,-0.00491460,0.09960607,-0.0
 7364216,-0.28416469,-0.00275923,0.00130224,-0.00262903,-0.00098952,-0.
 04360814,0.71782362,-0.00003803,0.00006076,0.00008209,-0.00003803,0.00
 006076,-0.00008209,-0.00000013,-0.00001590,0.00006934,-0.00001263,-0.0
 0007639,-0.00002320,-0.00001263,-0.00007639,0.00002320,-0.00000013,-0.
 00001590,-0.00006934,-0.00000391,-0.00000590,-0.00005371,-0.00000391,-
 0.00000590,0.00005371,0.00002215,0.00000290,0.00000338,0.00002215,0.00
 000290,-0.00000338,-0.00002044,0.00011052,0.00003516,-0.00004440,-0.00
 003929,-0.00000223,-0.00000153,-0.00002549,0.00000593,-0.00002044,0.00
 011052,-0.00003516,-0.00004440,-0.00003929,0.00000223,-0.00000153,-0.0
 0002549,-0.00000593,-0.00003341,0.00046402,-0.00030033,-0.00002431,-0.
 00000983,0.00003073,-0.00018162,0.00001483,0.00018211,-0.00003341,0.00
 046402,0.00030033,-0.00018162,0.00001483,-0.00018211,-0.00002431,-0.00
 000983,-0.00003073,0.00339554,0.00273898,-0.00280375,0.00039831,-0.000
 80088,0.,-0.00635177,0.00722475,0.00212849,0.00339554,0.00273898,0.002
 80375,-0.00045721,-0.00038273,0.,-0.21237169,0.14818326,0.,-0.00108181
 ,-0.00229341,-0.00000513,-0.00635177,0.00722475,-0.00212849,0.22118324
 ,0.00001781,0.00001681,-0.00001135,0.00001781,0.00001681,0.00001135,-0
 .00003529,-0.00000992,-0.00003977,-0.00002051,-0.00002253,-0.00000996,
 -0.00002051,-0.00002253,0.00000996,-0.00003529,-0.00000992,0.00003977,
 -0.00000579,-0.00001356,-0.00000856,-0.00000579,-0.00001356,0.00000856
 ,0.00000262,0.00000025,-0.00000539,0.00000262,0.00000025,0.00000539,0.
 00000063,-0.00004957,-0.00003251,0.00003414,0.00002628,-0.00002413,-0.
 00000094,0.00001986,-0.00000069,0.00000063,-0.00004957,0.00003251,0.00
 003414,0.00002628,0.00002413,-0.00000094,0.00001986,0.00000069,0.00032
 015,-0.00024348,0.00049622,-0.00003771,0.00002887,-0.00003174,0.000075
 31,-0.00008252,-0.00012174,0.00032015,-0.00024348,-0.00049622,0.000075
 31,-0.00008252,0.00012174,-0.00003771,0.00002887,0.00003174,0.00353530
 ,0.00464563,0.00160789,-0.00043912,0.00001433,0.,0.00634379,-0.0034803
 3,-0.00216399,0.00353530,0.00464563,-0.00160789,-0.00046272,-0.0006186
 5,0.,0.14854489,-0.15852495,0.,-0.00240066,-0.00187079,0.00041878,0.00
 634379,-0.00348033,0.00216399,-0.16330073,0.16119926,-0.00003199,0.000
 02132,0.00003180,0.00003199,-0.00002132,0.00003180,-0.00003307,-0.0000
 1719,-0.00004109,0.00002588,0.00002084,-0.00000691,-0.00002588,-0.0000
 2084,-0.00000691,0.00003307,0.00001719,-0.00004109,-0.00001041,0.00000
 064,0.00000405,0.00001041,-0.00000064,0.00000405,-0.00000653,0.0000089
 0,0.00000198,0.00000653,-0.00000890,0.00000198,-0.00000489,-0.00008937
 ,-0.00006434,0.00003385,0.00005248,-0.00000199,0.00001871,0.00003205,-
 0.00000161,0.00000489,0.00008937,-0.00006434,-0.00003385,-0.00005248,-
 0.00000199,-0.00001871,-0.00003205,-0.00000161,0.00069441,-0.00101296,
 0.00057585,-0.00003160,0.00003473,-0.00000904,0.00027596,-0.00012204,-
 0.00033392,-0.00069441,0.00101296,0.00057585,-0.00027596,0.00012204,-0
 .00033392,0.00003160,-0.00003473,-0.00000904,-0.00206146,0.00050396,-0
 .00469699,0.,0.,-0.00132531,-0.02179204,0.01872490,0.00466749,0.002061
 46,-0.00050396,-0.00469699,0.,0.,0.00016505,0.,0.,-0.05973910,0.000515
 40,-0.00011479,0.00100104,0.02179204,-0.01872490,0.00466749,0.,0.,0.05
 864669,-0.00001992,-0.00002368,-0.00003057,0.00005083,0.00021041,-0.00
 002670,0.00006524,-0.00002195,-0.00002032,-0.00001388,0.00000614,-0.00
 000459,-0.00000913,-0.00002348,0.00007472,0.00011711,-0.00000410,0.000
 11713,0.00000165,0.00000402,0.00000033,-0.00002124,-0.00012509,0.00000
 787,0.00001489,0.00000333,-0.00001125,0.00001418,-0.00000799,0.0000181
 6,-0.00037490,0.00040350,0.00008748,-0.00003416,-0.00020065,0.00011320
 ,-0.00020779,-0.00020568,0.00016880,0.00006016,0.00005886,-0.00015152,
 -0.00002927,-0.00003991,-0.00001132,-0.00004531,-0.00003747,-0.0000159
 7,-0.00056517,-0.00258734,-0.00139505,0.00002996,0.00028600,0.00041396
 ,0.00041209,-0.00010149,0.00003844,-0.00044869,-0.00048947,-0.00007267
 ,0.00012009,-0.00010266,0.00001905,-0.00004203,0.00004575,-0.00002941,
 -0.00157438,0.00072225,0.00136268,-0.00074232,0.00627324,-0.00014354,0
 .00251314,0.00385163,0.00275923,-0.00226492,0.00572475,-0.02115866,-0.
 00009946,0.00069462,-0.00122809,0.00758209,-0.00610707,0.01090863,0.00
 065807,0.00006118,0.00077087,-0.08475427,0.04943052,-0.08005134,-0.001
 08181,-0.00240066,-0.00051540,0.08068917,0.00000380,0.00002231,-0.0000
 4116,0.00004118,0.00010683,-0.00004024,0.00004352,0.00004627,0.0001266
 8,-0.00003990,-0.00000265,-0.00003456,0.00001938,0.00006983,0.00003130
 ,0.00009658,-0.00003866,0.00004482,0.00000362,0.00000392,-0.00001747,-
 0.00004472,-0.00005069,0.00002475,-0.00000259,-0.00001386,0.00000670,-
 0.00001404,-0.00000026,-0.00001374,-0.00014599,0.00020254,0.00011727,-
 0.00004382,-0.00010284,0.00004713,-0.00004744,0.00001216,0.00002633,0.
 00002596,0.00006080,-0.00013102,-0.00001383,-0.00002898,-0.00001454,-0
 .00001892,-0.00000979,-0.00001021,-0.00228078,-0.00141393,0.00099984,-
 0.00009708,-0.00006682,-0.00112274,-0.00007928,0.00002047,-0.00030466,
 -0.00068552,-0.00047260,-0.00005305,0.00007109,-0.00004402,-0.00006648
 ,-0.00002673,0.00010259,0.00011943,-0.00078304,-0.00001196,0.00021815,
 0.00603204,0.00140827,-0.00260322,0.00415910,0.00359676,-0.00130224,0.
 00838669,-0.00631479,0.01960727,0.00038487,-0.00030074,0.00101991,-0.0
 0364223,0.00553594,-0.01033697,0.00006118,0.00022282,-0.00032993,0.046
 22781,-0.08087205,0.09029741,-0.00229341,-0.00187079,0.00011479,-0.055
 29751,0.08020394,0.00001440,-0.00004515,0.00000605,-0.00005359,0.00014
 965,-0.00008054,0.00002336,-0.00004578,0.00005925,-0.00002809,-0.00003
 013,-0.00002515,-0.00002682,-0.00003963,0.00006838,0.00004710,0.000021
 33,0.00000518,0.00001090,0.00003116,-0.00000628,-0.00002291,-0.0000821
 3,0.00002374,0.00001559,0.00000223,0.00000245,0.00000765,-0.00000118,0
 .00000069,-0.00011849,0.00017275,0.00007270,-0.00003839,-0.00007946,0.
 00002410,-0.00005401,-0.00010247,0.00009988,0.00001314,0.00001786,-0.0
 0004621,-0.00003702,-0.00001300,-0.00000185,0.00000783,0.00000527,0.00
 001239,0.00049623,-0.00046637,0.00070379,-0.00043544,0.00019364,0.0004
 1993,0.00003107,0.00005539,0.00008549,-0.00006327,-0.00000316,0.000084
 63,-0.00005661,0.00002827,-0.00001278,0.00000075,-0.00003790,0.0000233
 8,0.00048293,-0.00041760,0.00030607,0.00059335,-0.00014556,0.00141975,
 0.00371176,-0.00235576,-0.00262903,0.00116678,-0.00111497,0.00202783,0
 .00006790,-0.00002847,0.00012465,-0.01187444,0.01205408,-0.01909013,-0
 .00077087,0.00032993,-0.00111321,-0.08112176,0.08874547,-0.26070500,0.
 00000513,-0.00041878,0.00100104,0.08800585,-0.09637954,0.27713880\\-0.
 00000077,0.00000051,-0.00000002,-0.00000077,0.00000051,0.00000002,-0.0
 0000022,0.00000071,0.00000002,0.00000022,0.00000114,-0.00000003,0.0000
 0022,0.00000114,0.00000003,-0.00000022,0.00000071,-0.00000002,-0.00000
 117,0.00000021,0.,-0.00000117,0.00000021,0.,0.00000062,0.00000136,0.,0
 .00000062,0.00000136,0.,-0.00000008,0.00000044,0.,0.00000017,0.0000007
 8,0.00000001,-0.00000050,0.00000023,-0.00000001,-0.00000008,0.00000044
 ,0.,0.00000017,0.00000078,-0.00000001,-0.00000050,0.00000023,0.0000000
 1,0.00000046,-0.00000016,-0.00000003,0.00000043,-0.00000050,0.,0.00000
 093,0.00000003,0.,0.00000046,-0.00000016,0.00000003,0.00000093,0.00000
 003,0.,0.00000043,-0.00000050,0.,0.00000027,-0.00000059,-0.00000004,0.
 00000050,-0.00000038,0.,-0.00000016,-0.00000111,0.00000001,0.00000027,
 -0.00000059,0.00000004,0.00000092,0.00000004,0.,-0.00000038,-0.0000013
 7,0.,-0.00000036,-0.00000128,0.,-0.00000016,-0.00000111,-0.00000001,-0
 .00000071,-0.00000179,0.,-0.00000036,-0.00000128,0.\\\@
 The archive entry for this job was punched.


 ERWIN WITH HIS PSI CAN DO
 CALCULATIONS QUITE A FEW.
 BUT ONE THING HAS NOT BEEN SEEN
 JUST WHAT DOES PSI REALLY MEAN.
 -- WALTER HUCKEL, TRANS. BY FELIX BLOCH
 Job cpu time:       0 days  0 hours 54 minutes  9.6 seconds.
 Elapsed time:       0 days  0 hours  1 minutes 34.6 seconds.
 File lengths (MBytes):  RWF=    204 Int=      0 D2E=      0 Chk=     10 Scr=      1
 Normal termination of Gaussian 16 at Mon Jul 28 11:52:52 2025.
