 Entering Gaussian System, Link 0=g16
 Input=/bigdata/rhome/djo04747/Documents/Gaussian/metaparacyclophane/metapara_b3lyp631gdp_ts_vtight.gjf
 Output=/bigdata/rhome/djo04747/Documents/Gaussian/metaparacyclophane/metapara_b3lyp631gdp_ts_vtight.log
 Initial command:
 /opt/linux/rocky/8/software/gaussian/16c01_avx2/g16/l1.exe "/scratch/djo04747/21844/Gau-2959525.inp" -scrdir="/scratch/djo04747/21844/"
 Entering Link 1 = /opt/linux/rocky/8/software/gaussian/16c01_avx2/g16/l1.exe PID=   2959527.
  
 Copyright (c) 1988-2019, Gaussian, Inc.  All Rights Reserved.
  
 This is part of the Gaussian(R) 16 program.  It is based on
 the Gaussian(R) 09 system (copyright 2009, Gaussian, Inc.),
 the Gaussian(R) 03 system (copyright 2003, Gaussian, Inc.),
 the Gaussian(R) 98 system (copyright 1998, Gaussian, Inc.),
 the Gaussian(R) 94 system (copyright 1995, Gaussian, Inc.),
 the Gaussian 92(TM) system (copyright 1992, Gaussian, Inc.),
 the Gaussian 90(TM) system (copyright 1990, Gaussian, Inc.),
 the Gaussian 88(TM) system (copyright 1988, Gaussian, Inc.),
 the Gaussian 86(TM) system (copyright 1986, Carnegie Mellon
 University), and the Gaussian 82(TM) system (copyright 1983,
 Carnegie Mellon University). Gaussian is a federally registered
 trademark of Gaussian, Inc.
  
 This software contains proprietary and confidential information,
 including trade secrets, belonging to Gaussian, Inc.
  
 This software is provided under written license and may be
 used, copied, transmitted, or stored only in accord with that
 written license.
  
 The following legend is applicable only to US Government
 contracts under FAR:
  
                    RESTRICTED RIGHTS LEGEND
  
 Use, reproduction and disclosure by the US Government is
 subject to restrictions as set forth in subparagraphs (a)
 and (c) of the Commercial Computer Software - Restricted
 Rights clause in FAR 52.227-19.
  
 Gaussian, Inc.
 340 Quinnipiac St., Bldg. 40, Wallingford CT 06492
  
  
 ---------------------------------------------------------------
 Warning -- This program may not be used in any manner that
 competes with the business of Gaussian, Inc. or will provide
 assistance to any competitor of Gaussian, Inc.  The licensee
 of this program is prohibited from giving any competitor of
 Gaussian, Inc. access to this program.  By using this program,
 the user acknowledges that Gaussian, Inc. is engaged in the
 business of creating and licensing software in the field of
 computational chemistry and represents and warrants to the
 licensee that it is not a competitor of Gaussian, Inc. and that
 it will not use this program in any manner prohibited above.
 ---------------------------------------------------------------
  

 Cite this work as:
 Gaussian 16, Revision C.01,
 M. J. Frisch, G. W. Trucks, H. B. Schlegel, G. E. Scuseria, 
 M. A. Robb, J. R. Cheeseman, G. Scalmani, V. Barone, 
 G. A. Petersson, H. Nakatsuji, X. Li, M. Caricato, A. V. Marenich, 
 J. Bloino, B. G. Janesko, R. Gomperts, B. Mennucci, H. P. Hratchian, 
 J. V. Ortiz, A. F. Izmaylov, J. L. Sonnenberg, D. Williams-Young, 
 F. Ding, F. Lipparini, F. Egidi, J. Goings, B. Peng, A. Petrone, 
 T. Henderson, D. Ranasinghe, V. G. Zakrzewski, J. Gao, N. Rega, 
 G. Zheng, W. Liang, M. Hada, M. Ehara, K. Toyota, R. Fukuda, 
 J. Hasegawa, M. Ishida, T. Nakajima, Y. Honda, O. Kitao, H. Nakai, 
 T. Vreven, K. Throssell, J. A. Montgomery, Jr., J. E. Peralta, 
 F. Ogliaro, M. J. Bearpark, J. J. Heyd, E. N. Brothers, K. N. Kudin, 
 V. N. Staroverov, T. A. Keith, R. Kobayashi, J. Normand, 
 K. Raghavachari, A. P. Rendell, J. C. Burant, S. S. Iyengar, 
 J. Tomasi, M. Cossi, J. M. Millam, M. Klene, C. Adamo, R. Cammi, 
 J. W. Ochterski, R. L. Martin, K. Morokuma, O. Farkas, 
 J. B. Foresman, and D. J. Fox, Gaussian, Inc., Wallingford CT, 2019.
 
 ******************************************
 Gaussian 16:  ES64L-G16RevC.01  3-Jul-2019
                28-Jul-2025 
 ******************************************
 %nprocshared=36
 Will use up to   36 processors via shared memory.
 %mem=46GB
 %chk=metapara_b3lyp631gdp_ts_vtight.chk
 ----------------------------------------------------------------------
 #P opt=(calcfc,ts,vtight) freq rb3lyp/6-31g(d,p) integral=grid=ultrafi
 ne scf=conver=10
 ----------------------------------------------------------------------
 1/5=1,7=1,10=4,18=20,26=4,38=1/1,3;
 2/9=110,12=2,17=6,18=5,40=1/2;
 3/5=1,6=6,7=101,11=2,25=1,30=1,71=2,74=-5,75=-5,116=1,140=1/1,2,3;
 4//1;
 5/5=2,6=10,38=5/2;
 8/6=4,10=90,11=11/1;
 11/6=1,8=1,9=11,15=111,16=1/1,2,10;
 10/6=1,13=1/2;
 6/7=2,8=2,9=2,10=2,28=1/1;
 7/10=1,25=1/1,2,3,16;
 1/5=1,7=1,10=4,18=20,26=4/3(2);
 2/9=110/2;
 99//99;
 2/9=110/2;
 3/5=1,6=6,7=101,11=2,25=1,30=1,71=1,74=-5,75=-5,116=1/1,2,3;
 4/5=5,16=3,69=1/1;
 5/5=2,6=10,38=5/2;
 7//1,2,3,16;
 1/5=1,7=1,18=20,26=4/3(-5);
 2/9=110/2;
 6/7=2,8=2,9=2,10=2,19=2,28=1/1;
 99/9=1/99;
 Leave Link    1 at Mon Jul 28 11:54:25 2025, MaxMem=  6174015488 cpu:               1.7 elap:               0.1
 (Enter /opt/linux/rocky/8/software/gaussian/16c01_avx2/g16/l101.exe)
 -------------------
 Title Card Required
 -------------------
 Symbolic Z-matrix:
 Charge =  0 Multiplicity = 1
 C                    -2.0383   -0.53221  -1.27473 
 C                    -2.05392   0.85292  -1.09544 
 C                    -1.80476   1.38845   0.18152 
 C                    -2.0383    0.53221   1.27473 
 C                    -2.05392  -0.85292   1.09544 
 C                    -1.80476  -1.38845  -0.18152 
 H                    -1.98722  -0.92966  -2.28558 
 H                    -2.01835   1.49629  -1.97151 
 H                    -1.98722   0.92966   2.28558 
 H                    -2.01835  -1.49628   1.97151 
 C                    -0.9389    2.62905   0.3591 
 H                    -0.84549   2.84149   1.42982 
 H                    -1.3883    3.51858  -0.1008 
 C                    -0.9389   -2.62905  -0.3591 
 H                    -1.3883   -3.51858   0.1008 
 H                    -0.84549  -2.84149  -1.42982 
 C                     0.50946   2.50112  -0.27316 
 H                     0.38817   2.62306  -1.35871 
 H                     1.07637   3.38111   0.05487 
 C                     0.50946  -2.50112   0.27316 
 H                     0.38817  -2.62306   1.35871 
 H                     1.07637  -3.38111  -0.05487 
 C                     1.36145  -1.24105   0.06323 
 C                     0.73973   0.       0. 
 C                     2.76333  -1.22678   0.05097 
 C                     1.36146   1.24105  -0.06323 
 H                    -0.3104    0.       0. 
 C                     3.4412   0.         0. 
 H                     3.33298  -2.15257   0.09322 
 C                     2.76333   1.22678  -0.05097 
 H                     4.52808  0.         0. 
 H                     3.33299   2.15257  -0.09322 
 
 ITRead=  0  0  0  0  0  0  0  0  0  0  0  0  0  0  0  0  0  0  0  0
 ITRead=  0  0  0  0  0  0  0  0  0  0  0  0
 MicOpt= -1 -1 -1 -1 -1 -1 -1 -1 -1 -1 -1 -1 -1 -1 -1 -1 -1 -1 -1 -1
 MicOpt= -1 -1 -1 -1 -1 -1 -1 -1 -1 -1 -1 -1
 NAtoms=     32 NQM=       32 NQMF=       0 NMMI=      0 NMMIF=      0
                NMic=       0 NMicF=      0.
                    Isotopes and Nuclear Properties:
 (Nuclear quadrupole moments (NQMom) in fm**2, nuclear magnetic moments (NMagM)
  in nuclear magnetons)

  Atom         1           2           3           4           5           6           7           8           9          10
 IAtWgt=          12          12          12          12          12          12           1           1           1           1
 AtmWgt=  12.0000000  12.0000000  12.0000000  12.0000000  12.0000000  12.0000000   1.0078250   1.0078250   1.0078250   1.0078250
 NucSpn=           0           0           0           0           0           0           1           1           1           1
 AtZEff=  -0.0000000  -0.0000000  -0.0000000  -0.0000000  -0.0000000  -0.0000000  -0.0000000  -0.0000000  -0.0000000  -0.0000000
 NQMom=    0.0000000   0.0000000   0.0000000   0.0000000   0.0000000   0.0000000   0.0000000   0.0000000   0.0000000   0.0000000
 NMagM=    0.0000000   0.0000000   0.0000000   0.0000000   0.0000000   0.0000000   2.7928460   2.7928460   2.7928460   2.7928460
 AtZNuc=   6.0000000   6.0000000   6.0000000   6.0000000   6.0000000   6.0000000   1.0000000   1.0000000   1.0000000   1.0000000

  Atom        11          12          13          14          15          16          17          18          19          20
 IAtWgt=          12           1           1          12           1           1          12           1           1          12
 AtmWgt=  12.0000000   1.0078250   1.0078250  12.0000000   1.0078250   1.0078250  12.0000000   1.0078250   1.0078250  12.0000000
 NucSpn=           0           1           1           0           1           1           0           1           1           0
 AtZEff=  -0.0000000  -0.0000000  -0.0000000  -0.0000000  -0.0000000  -0.0000000  -0.0000000  -0.0000000  -0.0000000  -0.0000000
 NQMom=    0.0000000   0.0000000   0.0000000   0.0000000   0.0000000   0.0000000   0.0000000   0.0000000   0.0000000   0.0000000
 NMagM=    0.0000000   2.7928460   2.7928460   0.0000000   2.7928460   2.7928460   0.0000000   2.7928460   2.7928460   0.0000000
 AtZNuc=   6.0000000   1.0000000   1.0000000   6.0000000   1.0000000   1.0000000   6.0000000   1.0000000   1.0000000   6.0000000

  Atom        21          22          23          24          25          26          27          28          29          30
 IAtWgt=           1           1          12          12          12          12           1          12           1          12
 AtmWgt=   1.0078250   1.0078250  12.0000000  12.0000000  12.0000000  12.0000000   1.0078250  12.0000000   1.0078250  12.0000000
 NucSpn=           1           1           0           0           0           0           1           0           1           0
 AtZEff=  -0.0000000  -0.0000000  -0.0000000  -0.0000000  -0.0000000  -0.0000000  -0.0000000  -0.0000000  -0.0000000  -0.0000000
 NQMom=    0.0000000   0.0000000   0.0000000   0.0000000   0.0000000   0.0000000   0.0000000   0.0000000   0.0000000   0.0000000
 NMagM=    2.7928460   2.7928460   0.0000000   0.0000000   0.0000000   0.0000000   2.7928460   0.0000000   2.7928460   0.0000000
 AtZNuc=   1.0000000   1.0000000   6.0000000   6.0000000   6.0000000   6.0000000   1.0000000   6.0000000   1.0000000   6.0000000

  Atom        31          32
 IAtWgt=           1           1
 AtmWgt=   1.0078250   1.0078250
 NucSpn=           1           1
 AtZEff=  -0.0000000  -0.0000000
 NQMom=    0.0000000   0.0000000
 NMagM=    2.7928460   2.7928460
 AtZNuc=   1.0000000   1.0000000
 Leave Link  101 at Mon Jul 28 11:54:25 2025, MaxMem=  6174015488 cpu:               4.3 elap:               0.1
 (Enter /opt/linux/rocky/8/software/gaussian/16c01_avx2/g16/l103.exe)

 GradGradGradGradGradGradGradGradGradGradGradGradGradGradGradGradGradGrad
 Berny optimization.
 Initialization pass.
                           ----------------------------
                           !    Initial Parameters    !
                           ! (Angstroms and Degrees)  !
 --------------------------                            --------------------------
 ! Name  Definition              Value          Derivative Info.                !
 --------------------------------------------------------------------------------
 ! R1    R(1,2)                  1.3968         calculate D2E/DX2 analytically  !
 ! R2    R(1,6)                  1.4081         calculate D2E/DX2 analytically  !
 ! R3    R(1,7)                  1.0874         calculate D2E/DX2 analytically  !
 ! R4    R(2,3)                  1.4069         calculate D2E/DX2 analytically  !
 ! R5    R(2,8)                  1.0875         calculate D2E/DX2 analytically  !
 ! R6    R(3,4)                  1.4081         calculate D2E/DX2 analytically  !
 ! R7    R(3,11)                 1.5233         calculate D2E/DX2 analytically  !
 ! R8    R(4,5)                  1.3968         calculate D2E/DX2 analytically  !
 ! R9    R(4,9)                  1.0874         calculate D2E/DX2 analytically  !
 ! R10   R(5,6)                  1.4069         calculate D2E/DX2 analytically  !
 ! R11   R(5,10)                 1.0875         calculate D2E/DX2 analytically  !
 ! R12   R(6,14)                 1.5233         calculate D2E/DX2 analytically  !
 ! R13   R(11,12)                1.0956         calculate D2E/DX2 analytically  !
 ! R14   R(11,13)                1.0976         calculate D2E/DX2 analytically  !
 ! R15   R(11,17)                1.5855         calculate D2E/DX2 analytically  !
 ! R16   R(14,15)                1.0976         calculate D2E/DX2 analytically  !
 ! R17   R(14,16)                1.0956         calculate D2E/DX2 analytically  !
 ! R18   R(14,20)                1.5855         calculate D2E/DX2 analytically  !
 ! R19   R(17,18)                1.0991         calculate D2E/DX2 analytically  !
 ! R20   R(17,19)                1.097          calculate D2E/DX2 analytically  !
 ! R21   R(17,26)                1.5355         calculate D2E/DX2 analytically  !
 ! R22   R(20,21)                1.0991         calculate D2E/DX2 analytically  !
 ! R23   R(20,22)                1.097          calculate D2E/DX2 analytically  !
 ! R24   R(20,23)                1.5355         calculate D2E/DX2 analytically  !
 ! R25   R(23,24)                1.3895         calculate D2E/DX2 analytically  !
 ! R26   R(23,25)                1.402          calculate D2E/DX2 analytically  !
 ! R27   R(24,26)                1.3895         calculate D2E/DX2 analytically  !
 ! R28   R(24,27)                1.0501         calculate D2E/DX2 analytically  !
 ! R29   R(25,28)                1.4025         calculate D2E/DX2 analytically  !
 ! R30   R(25,29)                1.0878         calculate D2E/DX2 analytically  !
 ! R31   R(26,30)                1.402          calculate D2E/DX2 analytically  !
 ! R32   R(28,30)                1.4025         calculate D2E/DX2 analytically  !
 ! R33   R(28,31)                1.0869         calculate D2E/DX2 analytically  !
 ! R34   R(30,32)                1.0878         calculate D2E/DX2 analytically  !
 ! A1    A(2,1,6)              120.3447         calculate D2E/DX2 analytically  !
 ! A2    A(2,1,7)              118.8366         calculate D2E/DX2 analytically  !
 ! A3    A(6,1,7)              119.4513         calculate D2E/DX2 analytically  !
 ! A4    A(1,2,3)              119.4707         calculate D2E/DX2 analytically  !
 ! A5    A(1,2,8)              118.8747         calculate D2E/DX2 analytically  !
 ! A6    A(3,2,8)              120.0113         calculate D2E/DX2 analytically  !
 ! A7    A(2,3,4)              116.3477         calculate D2E/DX2 analytically  !
 ! A8    A(2,3,11)             121.0959         calculate D2E/DX2 analytically  !
 ! A9    A(4,3,11)             119.9339         calculate D2E/DX2 analytically  !
 ! A10   A(3,4,5)              120.3447         calculate D2E/DX2 analytically  !
 ! A11   A(3,4,9)              119.4513         calculate D2E/DX2 analytically  !
 ! A12   A(5,4,9)              118.8365         calculate D2E/DX2 analytically  !
 ! A13   A(4,5,6)              119.4707         calculate D2E/DX2 analytically  !
 ! A14   A(4,5,10)             118.8748         calculate D2E/DX2 analytically  !
 ! A15   A(6,5,10)             120.0113         calculate D2E/DX2 analytically  !
 ! A16   A(1,6,5)              116.3477         calculate D2E/DX2 analytically  !
 ! A17   A(1,6,14)             119.9339         calculate D2E/DX2 analytically  !
 ! A18   A(5,6,14)             121.0958         calculate D2E/DX2 analytically  !
 ! A19   A(3,11,12)            108.682          calculate D2E/DX2 analytically  !
 ! A20   A(3,11,13)            112.2386         calculate D2E/DX2 analytically  !
 ! A21   A(3,11,17)            114.0197         calculate D2E/DX2 analytically  !
 ! A22   A(12,11,13)           106.6936         calculate D2E/DX2 analytically  !
 ! A23   A(12,11,17)           109.1162         calculate D2E/DX2 analytically  !
 ! A24   A(13,11,17)           105.8027         calculate D2E/DX2 analytically  !
 ! A25   A(6,14,15)            112.2386         calculate D2E/DX2 analytically  !
 ! A26   A(6,14,16)            108.682          calculate D2E/DX2 analytically  !
 ! A27   A(6,14,20)            114.0197         calculate D2E/DX2 analytically  !
 ! A28   A(15,14,16)           106.6936         calculate D2E/DX2 analytically  !
 ! A29   A(15,14,20)           105.8027         calculate D2E/DX2 analytically  !
 ! A30   A(16,14,20)           109.1161         calculate D2E/DX2 analytically  !
 ! A31   A(11,17,18)           106.5048         calculate D2E/DX2 analytically  !
 ! A32   A(11,17,19)           106.7454         calculate D2E/DX2 analytically  !
 ! A33   A(11,17,26)           121.2356         calculate D2E/DX2 analytically  !
 ! A34   A(18,17,19)           105.2709         calculate D2E/DX2 analytically  !
 ! A35   A(18,17,26)           106.6968         calculate D2E/DX2 analytically  !
 ! A36   A(19,17,26)           109.3093         calculate D2E/DX2 analytically  !
 ! A37   A(14,20,21)           106.5048         calculate D2E/DX2 analytically  !
 ! A38   A(14,20,22)           106.7454         calculate D2E/DX2 analytically  !
 ! A39   A(14,20,23)           121.2356         calculate D2E/DX2 analytically  !
 ! A40   A(21,20,22)           105.2709         calculate D2E/DX2 analytically  !
 ! A41   A(21,20,23)           106.6968         calculate D2E/DX2 analytically  !
 ! A42   A(22,20,23)           109.3093         calculate D2E/DX2 analytically  !
 ! A43   A(20,23,24)           119.4            calculate D2E/DX2 analytically  !
 ! A44   A(20,23,25)           124.3579         calculate D2E/DX2 analytically  !
 ! A45   A(24,23,25)           115.9707         calculate D2E/DX2 analytically  !
 ! A46   A(23,24,26)           126.8408         calculate D2E/DX2 analytically  !
 ! A47   A(23,24,27)           116.5796         calculate D2E/DX2 analytically  !
 ! A48   A(26,24,27)           116.5796         calculate D2E/DX2 analytically  !
 ! A49   A(23,25,28)           119.5047         calculate D2E/DX2 analytically  !
 ! A50   A(23,25,29)           120.9714         calculate D2E/DX2 analytically  !
 ! A51   A(28,25,29)           119.5192         calculate D2E/DX2 analytically  !
 ! A52   A(17,26,24)           119.3999         calculate D2E/DX2 analytically  !
 ! A53   A(17,26,30)           124.358          calculate D2E/DX2 analytically  !
 ! A54   A(24,26,30)           115.9707         calculate D2E/DX2 analytically  !
 ! A55   A(25,28,30)           122.1953         calculate D2E/DX2 analytically  !
 ! A56   A(25,28,31)           118.9024         calculate D2E/DX2 analytically  !
 ! A57   A(30,28,31)           118.9024         calculate D2E/DX2 analytically  !
 ! A58   A(26,30,28)           119.5048         calculate D2E/DX2 analytically  !
 ! A59   A(26,30,32)           120.9714         calculate D2E/DX2 analytically  !
 ! A60   A(28,30,32)           119.5193         calculate D2E/DX2 analytically  !
 ! D1    D(6,1,2,3)              1.409          calculate D2E/DX2 analytically  !
 ! D2    D(6,1,2,8)            166.8068         calculate D2E/DX2 analytically  !
 ! D3    D(7,1,2,3)           -165.1715         calculate D2E/DX2 analytically  !
 ! D4    D(7,1,2,8)              0.2263         calculate D2E/DX2 analytically  !
 ! D5    D(2,1,6,5)             21.3747         calculate D2E/DX2 analytically  !
 ! D6    D(2,1,6,14)          -140.4749         calculate D2E/DX2 analytically  !
 ! D7    D(7,1,6,5)           -172.1268         calculate D2E/DX2 analytically  !
 ! D8    D(7,1,6,14)            26.0236         calculate D2E/DX2 analytically  !
 ! D9    D(1,2,3,4)            -22.6798         calculate D2E/DX2 analytically  !
 ! D10   D(1,2,3,11)           138.9438         calculate D2E/DX2 analytically  !
 ! D11   D(8,2,3,4)            172.0905         calculate D2E/DX2 analytically  !
 ! D12   D(8,2,3,11)           -26.2859         calculate D2E/DX2 analytically  !
 ! D13   D(2,3,4,5)             21.3747         calculate D2E/DX2 analytically  !
 ! D14   D(2,3,4,9)           -172.1268         calculate D2E/DX2 analytically  !
 ! D15   D(11,3,4,5)          -140.4749         calculate D2E/DX2 analytically  !
 ! D16   D(11,3,4,9)            26.0236         calculate D2E/DX2 analytically  !
 ! D17   D(2,3,11,12)         -177.6193         calculate D2E/DX2 analytically  !
 ! D18   D(2,3,11,13)           64.6153         calculate D2E/DX2 analytically  !
 ! D19   D(2,3,11,17)          -55.6707         calculate D2E/DX2 analytically  !
 ! D20   D(4,3,11,12)          -16.6452         calculate D2E/DX2 analytically  !
 ! D21   D(4,3,11,13)         -134.4106         calculate D2E/DX2 analytically  !
 ! D22   D(4,3,11,17)          105.3034         calculate D2E/DX2 analytically  !
 ! D23   D(3,4,5,6)              1.409          calculate D2E/DX2 analytically  !
 ! D24   D(3,4,5,10)           166.8068         calculate D2E/DX2 analytically  !
 ! D25   D(9,4,5,6)           -165.1716         calculate D2E/DX2 analytically  !
 ! D26   D(9,4,5,10)             0.2263         calculate D2E/DX2 analytically  !
 ! D27   D(4,5,6,1)            -22.6798         calculate D2E/DX2 analytically  !
 ! D28   D(4,5,6,14)           138.9437         calculate D2E/DX2 analytically  !
 ! D29   D(10,5,6,1)           172.0905         calculate D2E/DX2 analytically  !
 ! D30   D(10,5,6,14)          -26.2859         calculate D2E/DX2 analytically  !
 ! D31   D(1,6,14,15)         -134.4106         calculate D2E/DX2 analytically  !
 ! D32   D(1,6,14,16)          -16.6452         calculate D2E/DX2 analytically  !
 ! D33   D(1,6,14,20)          105.3034         calculate D2E/DX2 analytically  !
 ! D34   D(5,6,14,15)           64.6153         calculate D2E/DX2 analytically  !
 ! D35   D(5,6,14,16)         -177.6192         calculate D2E/DX2 analytically  !
 ! D36   D(5,6,14,20)          -55.6707         calculate D2E/DX2 analytically  !
 ! D37   D(3,11,17,18)          76.5864         calculate D2E/DX2 analytically  !
 ! D38   D(3,11,17,19)        -171.3263         calculate D2E/DX2 analytically  !
 ! D39   D(3,11,17,26)         -45.4296         calculate D2E/DX2 analytically  !
 ! D40   D(12,11,17,18)       -161.7045         calculate D2E/DX2 analytically  !
 ! D41   D(12,11,17,19)        -49.6172         calculate D2E/DX2 analytically  !
 ! D42   D(12,11,17,26)         76.2795         calculate D2E/DX2 analytically  !
 ! D43   D(13,11,17,18)        -47.2447         calculate D2E/DX2 analytically  !
 ! D44   D(13,11,17,19)         64.8426         calculate D2E/DX2 analytically  !
 ! D45   D(13,11,17,26)       -169.2607         calculate D2E/DX2 analytically  !
 ! D46   D(6,14,20,21)          76.5864         calculate D2E/DX2 analytically  !
 ! D47   D(6,14,20,22)        -171.3264         calculate D2E/DX2 analytically  !
 ! D48   D(6,14,20,23)         -45.4296         calculate D2E/DX2 analytically  !
 ! D49   D(15,14,20,21)        -47.2447         calculate D2E/DX2 analytically  !
 ! D50   D(15,14,20,22)         64.8425         calculate D2E/DX2 analytically  !
 ! D51   D(15,14,20,23)       -169.2607         calculate D2E/DX2 analytically  !
 ! D52   D(16,14,20,21)       -161.7045         calculate D2E/DX2 analytically  !
 ! D53   D(16,14,20,22)        -49.6173         calculate D2E/DX2 analytically  !
 ! D54   D(16,14,20,23)         76.2795         calculate D2E/DX2 analytically  !
 ! D55   D(11,17,26,24)         35.1111         calculate D2E/DX2 analytically  !
 ! D56   D(11,17,26,30)       -151.1228         calculate D2E/DX2 analytically  !
 ! D57   D(18,17,26,24)        -86.8132         calculate D2E/DX2 analytically  !
 ! D58   D(18,17,26,30)         86.9529         calculate D2E/DX2 analytically  !
 ! D59   D(19,17,26,24)        159.8294         calculate D2E/DX2 analytically  !
 ! D60   D(19,17,26,30)        -26.4045         calculate D2E/DX2 analytically  !
 ! D61   D(14,20,23,24)         35.111          calculate D2E/DX2 analytically  !
 ! D62   D(14,20,23,25)       -151.1229         calculate D2E/DX2 analytically  !
 ! D63   D(21,20,23,24)        -86.8133         calculate D2E/DX2 analytically  !
 ! D64   D(21,20,23,25)         86.9528         calculate D2E/DX2 analytically  !
 ! D65   D(22,20,23,24)        159.8294         calculate D2E/DX2 analytically  !
 ! D66   D(22,20,23,25)        -26.4045         calculate D2E/DX2 analytically  !
 ! D67   D(20,23,24,26)        173.7539         calculate D2E/DX2 analytically  !
 ! D68   D(20,23,24,27)         -6.2461         calculate D2E/DX2 analytically  !
 ! D69   D(25,23,24,26)         -0.5236         calculate D2E/DX2 analytically  !
 ! D70   D(25,23,24,27)        179.4764         calculate D2E/DX2 analytically  !
 ! D71   D(20,23,25,28)       -172.9234         calculate D2E/DX2 analytically  !
 ! D72   D(20,23,25,29)          6.2892         calculate D2E/DX2 analytically  !
 ! D73   D(24,23,25,28)          1.0362         calculate D2E/DX2 analytically  !
 ! D74   D(24,23,25,29)       -179.7512         calculate D2E/DX2 analytically  !
 ! D75   D(23,24,26,17)        173.7539         calculate D2E/DX2 analytically  !
 ! D76   D(23,24,26,30)         -0.5235         calculate D2E/DX2 analytically  !
 ! D77   D(27,24,26,17)         -6.246          calculate D2E/DX2 analytically  !
 ! D78   D(27,24,26,30)        179.4765         calculate D2E/DX2 analytically  !
 ! D79   D(23,25,28,30)         -0.5473         calculate D2E/DX2 analytically  !
 ! D80   D(23,25,28,31)        179.4526         calculate D2E/DX2 analytically  !
 ! D81   D(29,25,28,30)       -179.7714         calculate D2E/DX2 analytically  !
 ! D82   D(29,25,28,31)          0.2286         calculate D2E/DX2 analytically  !
 ! D83   D(17,26,30,28)       -172.9234         calculate D2E/DX2 analytically  !
 ! D84   D(17,26,30,32)          6.2891         calculate D2E/DX2 analytically  !
 ! D85   D(24,26,30,28)          1.0362         calculate D2E/DX2 analytically  !
 ! D86   D(24,26,30,32)       -179.7513         calculate D2E/DX2 analytically  !
 ! D87   D(25,28,30,26)         -0.5473         calculate D2E/DX2 analytically  !
 ! D88   D(25,28,30,32)       -179.7714         calculate D2E/DX2 analytically  !
 ! D89   D(31,28,30,26)        179.4527         calculate D2E/DX2 analytically  !
 ! D90   D(31,28,30,32)          0.2287         calculate D2E/DX2 analytically  !
 --------------------------------------------------------------------------------
 Trust Radius=3.00D-01 FncErr=1.00D-07 GrdErr=1.00D-06 EigMax=2.50D+02 EigMin=1.00D-04
 Number of steps in this run=    192 maximum allowed number of steps=    192.
 Search for a saddle point of order  1.
 GradGradGradGradGradGradGradGradGradGradGradGradGradGradGradGradGradGrad

 Leave Link  103 at Mon Jul 28 11:54:25 2025, MaxMem=  6174015488 cpu:               0.4 elap:               0.0
 (Enter /opt/linux/rocky/8/software/gaussian/16c01_avx2/g16/l202.exe)
                          Input orientation:                          
 ---------------------------------------------------------------------
 Center     Atomic      Atomic             Coordinates (Angstroms)
 Number     Number       Type             X           Y           Z
 ---------------------------------------------------------------------
      1          6           0       -2.038301   -0.532212   -1.274732
      2          6           0       -2.053924    0.852919   -1.095441
      3          6           0       -1.804760    1.388446    0.181517
      4          6           0       -2.038299    0.532214    1.274732
      5          6           0       -2.053924   -0.852917    1.095442
      6          6           0       -1.804762   -1.388445   -0.181517
      7          1           0       -1.987222   -0.929656   -2.285582
      8          1           0       -2.018353    1.496286   -1.971506
      9          1           0       -1.987219    0.929658    2.285582
     10          1           0       -2.018353   -1.496284    1.971507
     11          6           0       -0.938896    2.629052    0.359096
     12          1           0       -0.845489    2.841489    1.429823
     13          1           0       -1.388295    3.518581   -0.100795
     14          6           0       -0.938900   -2.629051   -0.359096
     15          1           0       -1.388299   -3.518580    0.100795
     16          1           0       -0.845493   -2.841488   -1.429823
     17          6           0        0.509464    2.501124   -0.273161
     18          1           0        0.388172    2.623055   -1.358707
     19          1           0        1.076374    3.381105    0.054867
     20          6           0        0.509461   -2.501124    0.273160
     21          1           0        0.388169   -2.623055    1.358706
     22          1           0        1.076370   -3.381106   -0.054867
     23          6           0        1.361453   -1.241049    0.063228
     24          6           0        0.739731    0.000000   -0.000001
     25          6           0        2.763331   -1.226781    0.050970
     26          6           0        1.361455    1.241048   -0.063229
     27          1           0       -0.310404    0.000001   -0.000002
     28          6           0        3.441201   -0.000002    0.000000
     29          1           0        3.332984   -2.152574    0.093215
     30          6           0        2.763333    1.226777   -0.050970
     31          1           0        4.528085   -0.000003    0.000001
     32          1           0        3.332987    2.152570   -0.093215
 ---------------------------------------------------------------------
                    Distance matrix (angstroms):
                    1          2          3          4          5
     1  C    0.000000
     2  C    1.396774   0.000000
     3  C    2.421597   1.406945   0.000000
     4  C    2.762747   2.391823   1.408117   0.000000
     5  C    2.391824   2.776661   2.433321   1.396774   0.000000
     6  C    1.408117   2.433321   2.800521   2.421597   1.406946
     7  H    1.087377   2.144402   3.390202   3.849092   3.382552
     8  H    2.144923   1.087509   2.166278   3.386428   3.863443
     9  H    3.849092   3.382552   2.161219   1.087377   2.144401
    10  H    3.386429   3.863443   3.401669   2.144924   1.087509
    11  C    3.724470   2.552178   1.523272   2.538465   3.729558
    12  H    4.485452   3.433902   2.142382   2.603766   3.901379
    13  H    4.267266   2.922009   2.188748   3.351562   4.580834
    14  C    2.538465   3.729557   4.145149   3.724469   2.552178
    15  H    3.351562   4.580834   4.925328   4.267266   2.922009
    16  H    2.603766   3.901379   4.626981   4.485451   3.433902
    17  C    4.085998   3.156530   2.607761   3.572629   4.437750
    18  H    3.981273   3.027627   2.950508   4.146610   4.906023
    19  H    5.175238   4.184937   3.505376   4.393795   5.367355
    20  C    3.572629   4.437749   4.526894   4.085996   3.156529
    21  H    4.146610   4.906022   4.720895   3.981271   3.027625
    22  H    4.393796   5.367355   5.577223   5.175236   4.184936
    23  C    3.721682   4.170374   4.117419   4.021258   3.588999
    24  C    3.102523   3.119610   2.904336   3.102523   3.119611
    25  C    5.029471   5.370787   5.265350   5.258071   4.943343
    26  C    4.021260   3.589000   3.179079   3.721681   4.170374
    27  H    2.212197   2.228748   2.047884   2.212198   2.228750
    28  C    5.650941   5.667792   5.429626   5.650939   5.667791
    29  H    5.774734   6.282091   6.240435   6.120029   5.631372
    30  C    5.258072   4.943344   4.576861   5.029470   5.370787
    31  H    6.710113   6.726835   6.485805   6.710111   6.726834
    32  H    6.120030   5.631373   5.201520   5.774733   6.282091
                    6          7          8          9         10
     6  C    0.000000
     7  H    2.161219   0.000000
     8  H    3.401669   2.446387   0.000000
     9  H    3.390202   4.934834   4.294745   0.000000
    10  H    2.166279   4.294746   4.950033   2.446387   0.000000
    11  C    4.145150   4.556063   2.807150   2.774576   4.558892
    12  H    4.626982   5.415655   3.841122   2.385575   4.526070
    13  H    4.925329   4.991875   2.825988   3.571558   5.462626
    14  C    1.523271   2.774576   4.558891   4.556062   2.807150
    15  H    2.188748   3.571559   5.462626   4.991875   2.825989
    16  H    2.142382   2.385575   4.526069   5.415655   3.841122
    17  C    4.526896   4.696119   3.206857   3.905137   5.235233
    18  H    4.720897   4.373025   2.726994   4.668074   5.818130
    19  H    5.577224   5.783250   4.151634   4.513456   6.086031
    20  C    2.607760   3.905137   5.235232   4.696117   3.206857
    21  H    2.950508   4.668074   5.818129   4.373024   2.726992
    22  H    3.505376   4.513457   6.086031   5.783249   4.151633
    23  C    3.179079   4.102133   4.801691   4.567760   3.889700
    24  C    2.904337   3.677555   3.705770   3.677555   3.705771
    25  C    4.576861   5.302406   5.862594   5.675513   5.160000
    26  C    4.117421   4.567762   3.889700   4.102133   4.801691
    27  H    2.047886   2.983263   3.007123   2.983264   3.007126
    28  C    5.429627   5.962878   5.994368   5.962877   5.994366
    29  H    5.201519   5.954729   6.798092   6.527724   5.709247
    30  C    5.265351   5.675515   5.160001   5.302405   5.862593
    31  H    6.485805   6.966877   6.998684   6.966874   6.998682
    32  H    6.240437   6.527727   5.709249   5.954728   6.798092
                   11         12         13         14         15
    11  C    0.000000
    12  H    1.095587   0.000000
    13  H    1.097598   1.759512   0.000000
    14  C    5.306924   5.756367   6.169445   0.000000
    15  H    6.169446   6.520079   7.040048   1.097598   0.000000
    16  H    5.756367   6.361902   6.520079   1.095587   1.759512
    17  C    1.585516   2.202703   2.160189   5.331401   6.322830
    18  H    2.170712   3.057046   2.353751   5.508626   6.557871
    19  H    2.172430   2.423891   2.473403   6.352533   7.326826
    20  C    5.331400   5.631809   6.322829   1.585516   2.160190
    21  H    5.508625   5.602518   6.557870   2.170712   2.353751
    22  H    6.352532   6.679711   7.326825   2.172431   2.473403
    23  C    4.511854   4.837902   5.499281   2.719656   3.570671
    24  C    3.139849   3.554065   4.113279   3.139850   4.113281
    25  C    5.354332   5.610315   6.306940   3.980079   4.742453
    26  C    2.719656   3.108250   3.570671   4.511855   5.499283
    27  H    2.726878   3.225643   3.681360   2.726879   3.681363
    28  C    5.121145   5.337994   5.976171   5.121146   5.976171
    29  H    6.417445   6.647317   7.381742   4.322107   4.914931
    30  C    3.980079   4.221805   4.742453   5.354333   6.306940
    31  H    6.076904   6.244499   6.884341   6.076905   6.884340
    32  H    4.322107   4.500435   4.914931   6.417446   7.381743
                   16         17         18         19         20
    16  H    0.000000
    17  C    5.631810   0.000000
    18  H    5.602519   1.099086   0.000000
    19  H    6.679711   1.096976   1.745409   0.000000
    20  C    2.202703   5.031993   5.379118   5.913515   0.000000
    21  H    3.057046   5.379118   5.908130   6.182520   1.099086
    22  H    2.423891   5.913515   6.182521   6.763101   1.096976
    23  C    3.108250   3.852649   4.230895   4.630945   1.535497
    24  C    3.554065   2.526512   2.974911   3.398266   2.526512
    25  C    4.221805   4.368324   4.738123   4.906980   2.598701
    26  C    4.837902   1.535497   2.129668   2.162189   3.852649
    27  H    3.225642   2.646208   3.035539   3.654864   2.646209
    28  C    5.337994   3.863331   4.248235   4.126415   3.863331
    29  H    4.500435   5.455584   5.795397   5.976233   2.850640
    30  C    5.610316   2.598702   3.049780   2.738277   4.368323
    31  H    6.244500   4.741262   5.085804   4.832102   4.741262
    32  H    6.647318   2.850641   3.239562   2.573622   5.455584
                   21         22         23         24         25
    21  H    0.000000
    22  H    1.745408   0.000000
    23  C    2.129668   2.162189   0.000000
    24  C    2.974911   3.398266   1.389510   0.000000
    25  C    3.049779   2.738276   1.402004   2.366970   0.000000
    26  C    4.230896   4.630945   2.485316   1.389510   2.840507
    27  H    3.035542   3.654865   2.083101   1.050135   3.309900
    28  C    4.248234   4.126415   2.422715   2.701470   1.402531
    29  H    3.239561   2.573621   2.172260   3.371532   1.087834
    30  C    4.738122   4.906979   2.840506   2.366970   2.455675
    31  H    5.085802   4.832101   3.401728   3.788354   2.149869
    32  H    5.795397   5.976233   3.927858   3.371531   3.430060
                   26         27         28         29         30
    26  C    0.000000
    27  H    2.083101   0.000000
    28  C    2.422715   3.751605   0.000000
    29  H    3.927858   4.232794   2.157305   0.000000
    30  C    1.402004   3.309900   1.402530   3.430059   0.000000
    31  H    3.401728   4.838489   1.086884   2.463842   2.149869
    32  H    2.172259   4.232793   2.157305   4.309179   1.087834
                   31         32
    31  H    0.000000
    32  H    2.463842   0.000000
 Stoichiometry    C16H16
 Framework group  C1[X(C16H16)]
 Deg. of freedom    90
 Full point group                 C1      NOp   1
 Largest Abelian subgroup         C1      NOp   1
 Largest concise Abelian subgroup C1      NOp   1
                         Standard orientation:                         
 ---------------------------------------------------------------------
 Center     Atomic      Atomic             Coordinates (Angstroms)
 Number     Number       Type             X           Y           Z
 ---------------------------------------------------------------------
      1          6           0       -2.038301   -0.532212   -1.274732
      2          6           0       -2.053924    0.852919   -1.095441
      3          6           0       -1.804760    1.388446    0.181517
      4          6           0       -2.038299    0.532214    1.274732
      5          6           0       -2.053924   -0.852917    1.095442
      6          6           0       -1.804762   -1.388445   -0.181517
      7          1           0       -1.987222   -0.929656   -2.285582
      8          1           0       -2.018353    1.496286   -1.971506
      9          1           0       -1.987219    0.929658    2.285582
     10          1           0       -2.018353   -1.496284    1.971507
     11          6           0       -0.938896    2.629052    0.359096
     12          1           0       -0.845489    2.841489    1.429823
     13          1           0       -1.388295    3.518581   -0.100795
     14          6           0       -0.938900   -2.629051   -0.359096
     15          1           0       -1.388299   -3.518580    0.100795
     16          1           0       -0.845493   -2.841488   -1.429823
     17          6           0        0.509464    2.501124   -0.273161
     18          1           0        0.388172    2.623055   -1.358707
     19          1           0        1.076374    3.381105    0.054867
     20          6           0        0.509461   -2.501124    0.273160
     21          1           0        0.388169   -2.623055    1.358706
     22          1           0        1.076370   -3.381106   -0.054867
     23          6           0        1.361453   -1.241049    0.063228
     24          6           0        0.739731    0.000000   -0.000001
     25          6           0        2.763331   -1.226781    0.050970
     26          6           0        1.361455    1.241048   -0.063229
     27          1           0       -0.310404    0.000001   -0.000002
     28          6           0        3.441201   -0.000002    0.000000
     29          1           0        3.332984   -2.152574    0.093215
     30          6           0        2.763333    1.226777   -0.050970
     31          1           0        4.528085   -0.000003    0.000001
     32          1           0        3.332987    2.152570   -0.093215
 ---------------------------------------------------------------------
 Rotational constants (GHZ):           0.7736415           0.5944982           0.3876846
 Leave Link  202 at Mon Jul 28 11:54:25 2025, MaxMem=  6174015488 cpu:               0.1 elap:               0.0
 (Enter /opt/linux/rocky/8/software/gaussian/16c01_avx2/g16/l301.exe)
 Standard basis: 6-31G(d,p) (6D, 7F)
 Ernie: Thresh=  0.10000D-02 Tol=  0.10000D-05 Strict=F.
 There are   320 symmetry adapted cartesian basis functions of A   symmetry.
 There are   320 symmetry adapted basis functions of A   symmetry.
   320 basis functions,   560 primitive gaussians,   320 cartesian basis functions
    56 alpha electrons       56 beta electrons
       nuclear repulsion energy      1060.7892686841 Hartrees.
 IExCor=  402 DFT=T Ex+Corr=B3LYP ExCW=0 ScaHFX=  0.200000
 ScaDFX=  0.800000  0.720000  1.000000  0.810000 ScalE2=  1.000000  1.000000
 IRadAn=      5 IRanWt=     -1 IRanGd=            0 ICorTp=0 IEmpDi=  4
 NAtoms=   32 NActive=   32 NUniq=   32 SFac= 1.00D+00 NAtFMM=   60 NAOKFM=F Big=F
 Integral buffers will be    131072 words long.
 Raffenetti 2 integral format.
 Two-electron integral symmetry is turned on.
 Leave Link  301 at Mon Jul 28 11:54:25 2025, MaxMem=  6174015488 cpu:               0.7 elap:               0.0
 (Enter /opt/linux/rocky/8/software/gaussian/16c01_avx2/g16/l302.exe)
 NPDir=0 NMtPBC=     1 NCelOv=     1 NCel=       1 NClECP=     1 NCelD=      1
         NCelK=      1 NCelE2=     1 NClLst=     1 CellRange=     0.0.
 One-electron integrals computed using PRISM.
 One-electron integral symmetry used in STVInt
 NBasis=   320 RedAO= T EigKep=  3.66D-04  NBF=   320
 NBsUse=   320 1.00D-06 EigRej= -1.00D+00 NBFU=   320
 Precomputing XC quadrature grid using
 IXCGrd= 4 IRadAn=           5 IRanWt=          -1 IRanGd=           0 AccXCQ= 0.00D+00.
 Generated NRdTot=       0 NPtTot=           0 NUsed=           0 NTot=          32
 NSgBfM=   320   320   320   320   320 MxSgAt=    32 MxSgA2=    32.
 Leave Link  302 at Mon Jul 28 11:54:26 2025, MaxMem=  6174015488 cpu:               6.5 elap:               0.2
 (Enter /opt/linux/rocky/8/software/gaussian/16c01_avx2/g16/l303.exe)
 DipDrv:  MaxL=1.
 Leave Link  303 at Mon Jul 28 11:54:26 2025, MaxMem=  6174015488 cpu:               0.7 elap:               0.0
 (Enter /opt/linux/rocky/8/software/gaussian/16c01_avx2/g16/l401.exe)
 ExpMin= 1.61D-01 ExpMax= 3.05D+03 ExpMxC= 4.57D+02 IAcc=3 IRadAn=         5 AccDes= 0.00D+00
 Harris functional with IExCor=  402 and IRadAn=       5 diagonalized for initial guess.
 HarFok:  IExCor=  402 AccDes= 0.00D+00 IRadAn=         5 IDoV= 1 UseB2=F ITyADJ=14
 ICtDFT=  3500011 ScaDFX=  1.000000  1.000000  1.000000  1.000000
 FoFCou: FMM=F IPFlag=           0 FMFlag=      100000 FMFlg1=           0
         NFxFlg=           0 DoJE=T BraDBF=F KetDBF=T FulRan=T
         wScrn=  0.000000 ICntrl=       500 IOpCl=  0 I1Cent=   200000004 NGrid=           0
         NMat0=    1 NMatS0=      1 NMatT0=    0 NMatD0=    1 NMtDS0=    0 NMtDT0=    0
 Petite list used in FoFCou.
 Harris En= -619.351708453789    
 JPrj=0 DoOrth=F DoCkMO=F.
 Leave Link  401 at Mon Jul 28 11:54:26 2025, MaxMem=  6174015488 cpu:              14.1 elap:               0.4
 (Enter /opt/linux/rocky/8/software/gaussian/16c01_avx2/g16/l502.exe)
 Integral symmetry usage will be decided dynamically.
 Closed shell SCF:
 Using DIIS extrapolation, IDIIS=  1040.
 NGot=  6174015488 LenX=  6173794922 LenY=  6173692081
 Requested convergence on RMS density matrix=1.00D-10 within 128 cycles.
 Requested convergence on MAX density matrix=1.00D-08.
 Requested convergence on             energy=1.00D-08.
 No special actions if energy rises.
 Fock matrices will be formed incrementally for  20 cycles.
 Integral accuracy reduced to 1.0D-05 until final iterations.

 Cycle   1  Pass 0  IDiag  1:
 FoFJK:  IHMeth= 1 ICntrl=       0 DoSepK=F KAlg= 0 I1Cent=           0 FoldK=F
 IRaf= 880000000 NMat=       1 IRICut=       1 DoRegI=T DoRafI=F ISym2E= 0 IDoP0=0 IntGTp=1.
 FoFCou: FMM=F IPFlag=           0 FMFlag=      100000 FMFlg1=           0
         NFxFlg=           0 DoJE=F BraDBF=F KetDBF=F FulRan=T
         wScrn=  0.000000 ICntrl=         0 IOpCl=  0 I1Cent=           0 NGrid=           0
         NMat0=    1 NMatS0=      1 NMatT0=    0 NMatD0=    1 NMtDS0=    0 NMtDT0=    0
 Symmetry not used in FoFCou.
 E= -618.934627526117    
 DIIS: error= 2.51D-02 at cycle   1 NSaved=   1.
 NSaved= 1 IEnMin= 1 EnMin= -618.934627526117     IErMin= 1 ErrMin= 2.51D-02
 ErrMax= 2.51D-02  0.00D+00 EMaxC= 1.00D-01 BMatC= 3.34D-01 BMatP= 3.34D-01
 IDIUse=3 WtCom= 7.49D-01 WtEn= 2.51D-01
 Coeff-Com:  0.100D+01
 Coeff-En:   0.100D+01
 Coeff:      0.100D+01
 Gap=     0.205 Goal=   None    Shift=    0.000
 GapD=    0.205 DampG=1.000 DampE=0.500 DampFc=0.5000 IDamp=-1.
 Damping current iteration by 5.00D-01
 RMSDP=4.61D-03 MaxDP=1.34D-01              OVMax= 1.69D-01

 Cycle   2  Pass 0  IDiag  1:
 RMSU=  2.26D-03    CP:  9.74D-01
 E= -619.111040653064     Delta-E=       -0.176413126948 Rises=F Damp=T
 DIIS: error= 7.33D-03 at cycle   2 NSaved=   2.
 NSaved= 2 IEnMin= 2 EnMin= -619.111040653064     IErMin= 2 ErrMin= 7.33D-03
 ErrMax= 7.33D-03  0.00D+00 EMaxC= 1.00D-01 BMatC= 2.04D-02 BMatP= 3.34D-01
 IDIUse=3 WtCom= 9.27D-01 WtEn= 7.33D-02
 Coeff-Com:  0.626D-02 0.994D+00
 Coeff-En:   0.134D-01 0.987D+00
 Coeff:      0.679D-02 0.993D+00
 Gap=     0.209 Goal=   None    Shift=    0.000
 RMSDP=1.46D-03 MaxDP=2.94D-02 DE=-1.76D-01 OVMax= 1.20D-01

 Cycle   3  Pass 0  IDiag  1:
 RMSU=  1.37D-03    CP:  9.62D-01  7.95D-01
 E= -619.299687946817     Delta-E=       -0.188647293752 Rises=F Damp=F
 DIIS: error= 5.38D-03 at cycle   3 NSaved=   3.
 NSaved= 3 IEnMin= 3 EnMin= -619.299687946817     IErMin= 3 ErrMin= 5.38D-03
 ErrMax= 5.38D-03  0.00D+00 EMaxC= 1.00D-01 BMatC= 1.06D-02 BMatP= 2.04D-02
 IDIUse=3 WtCom= 9.46D-01 WtEn= 5.38D-02
 Coeff-Com: -0.466D-01 0.415D+00 0.632D+00
 Coeff-En:   0.000D+00 0.000D+00 0.100D+01
 Coeff:     -0.441D-01 0.393D+00 0.651D+00
 Gap=     0.217 Goal=   None    Shift=    0.000
 RMSDP=7.63D-04 MaxDP=2.82D-02 DE=-1.89D-01 OVMax= 6.31D-02

 Cycle   4  Pass 0  IDiag  1:
 RMSU=  4.79D-04    CP:  9.62D-01  9.21D-01  6.18D-01
 E= -619.305595972800     Delta-E=       -0.005908025983 Rises=F Damp=F
 DIIS: error= 4.57D-03 at cycle   4 NSaved=   4.
 NSaved= 4 IEnMin= 4 EnMin= -619.305595972800     IErMin= 4 ErrMin= 4.57D-03
 ErrMax= 4.57D-03  0.00D+00 EMaxC= 1.00D-01 BMatC= 5.02D-03 BMatP= 1.06D-02
 IDIUse=3 WtCom= 9.54D-01 WtEn= 4.57D-02
 Coeff-Com: -0.286D-01 0.139D+00 0.424D+00 0.465D+00
 Coeff-En:   0.000D+00 0.000D+00 0.348D+00 0.652D+00
 Coeff:     -0.273D-01 0.133D+00 0.421D+00 0.474D+00
 Gap=     0.205 Goal=   None    Shift=    0.000
 RMSDP=2.93D-04 MaxDP=1.33D-02 DE=-5.91D-03 OVMax= 3.55D-02

 Cycle   5  Pass 0  IDiag  1:
 RMSU=  1.32D-04    CP:  9.62D-01  9.04D-01  7.28D-01  5.60D-01
 E= -619.311053130524     Delta-E=       -0.005457157724 Rises=F Damp=F
 DIIS: error= 7.72D-04 at cycle   5 NSaved=   5.
 NSaved= 5 IEnMin= 5 EnMin= -619.311053130524     IErMin= 5 ErrMin= 7.72D-04
 ErrMax= 7.72D-04  0.00D+00 EMaxC= 1.00D-01 BMatC= 1.89D-04 BMatP= 5.02D-03
 IDIUse=3 WtCom= 9.92D-01 WtEn= 7.72D-03
 Coeff-Com: -0.796D-02 0.216D-01 0.132D+00 0.227D+00 0.627D+00
 Coeff-En:   0.000D+00 0.000D+00 0.000D+00 0.000D+00 0.100D+01
 Coeff:     -0.790D-02 0.215D-01 0.131D+00 0.225D+00 0.630D+00
 Gap=     0.205 Goal=   None    Shift=    0.000
 RMSDP=5.86D-05 MaxDP=2.66D-03 DE=-5.46D-03 OVMax= 6.68D-03

 Cycle   6  Pass 0  IDiag  1:
 RMSU=  3.17D-05    CP:  9.62D-01  9.02D-01  7.32D-01  5.90D-01  6.47D-01
 E= -619.311241781402     Delta-E=       -0.000188650878 Rises=F Damp=F
 DIIS: error= 1.85D-04 at cycle   6 NSaved=   6.
 NSaved= 6 IEnMin= 6 EnMin= -619.311241781402     IErMin= 6 ErrMin= 1.85D-04
 ErrMax= 1.85D-04  0.00D+00 EMaxC= 1.00D-01 BMatC= 1.52D-05 BMatP= 1.89D-04
 IDIUse=3 WtCom= 9.98D-01 WtEn= 1.85D-03
 Coeff-Com: -0.299D-02 0.556D-02 0.514D-01 0.994D-01 0.342D+00 0.505D+00
 Coeff-En:   0.000D+00 0.000D+00 0.000D+00 0.000D+00 0.000D+00 0.100D+01
 Coeff:     -0.298D-02 0.555D-02 0.513D-01 0.992D-01 0.341D+00 0.505D+00
 Gap=     0.205 Goal=   None    Shift=    0.000
 RMSDP=1.49D-05 MaxDP=6.08D-04 DE=-1.89D-04 OVMax= 1.11D-03

 Cycle   7  Pass 0  IDiag  1:
 RMSU=  7.18D-06    CP:  9.62D-01  9.02D-01  7.34D-01  5.92D-01  6.87D-01
                    CP:  6.33D-01
 E= -619.311256995707     Delta-E=       -0.000015214305 Rises=F Damp=F
 DIIS: error= 3.35D-05 at cycle   7 NSaved=   7.
 NSaved= 7 IEnMin= 7 EnMin= -619.311256995707     IErMin= 7 ErrMin= 3.35D-05
 ErrMax= 3.35D-05  0.00D+00 EMaxC= 1.00D-01 BMatC= 5.10D-07 BMatP= 1.52D-05
 IDIUse=1 WtCom= 1.00D+00 WtEn= 0.00D+00
 Coeff-Com: -0.641D-03 0.628D-03 0.119D-01 0.251D-01 0.994D-01 0.215D+00
 Coeff-Com:  0.648D+00
 Coeff:     -0.641D-03 0.628D-03 0.119D-01 0.251D-01 0.994D-01 0.215D+00
 Coeff:      0.648D+00
 Gap=     0.205 Goal=   None    Shift=    0.000
 RMSDP=3.09D-06 MaxDP=1.21D-04 DE=-1.52D-05 OVMax= 1.56D-04

 Initial convergence to 1.0D-05 achieved.  Increase integral accuracy.
 Cycle   8  Pass 1  IDiag  1:
 E= -619.311271085910     Delta-E=       -0.000014090203 Rises=F Damp=F
 DIIS: error= 8.95D-05 at cycle   1 NSaved=   1.
 NSaved= 1 IEnMin= 1 EnMin= -619.311271085910     IErMin= 1 ErrMin= 8.95D-05
 ErrMax= 8.95D-05  0.00D+00 EMaxC= 1.00D-01 BMatC= 2.53D-07 BMatP= 2.53D-07
 IDIUse=1 WtCom= 1.00D+00 WtEn= 0.00D+00
 Coeff-Com:  0.100D+01
 Coeff:      0.100D+01
 Gap=     0.205 Goal=   None    Shift=    0.000
 RMSDP=3.09D-06 MaxDP=1.21D-04 DE=-1.41D-05 OVMax= 6.94D-05

 Cycle   9  Pass 1  IDiag  1:
 RMSU=  1.32D-05    CP:  1.00D+00
 E= -619.311271201350     Delta-E=       -0.000000115440 Rises=F Damp=F
 DIIS: error= 8.44D-06 at cycle   2 NSaved=   2.
 NSaved= 2 IEnMin= 2 EnMin= -619.311271201350     IErMin= 2 ErrMin= 8.44D-06
 ErrMax= 8.44D-06  0.00D+00 EMaxC= 1.00D-01 BMatC= 3.71D-08 BMatP= 2.53D-07
 IDIUse=1 WtCom= 1.00D+00 WtEn= 0.00D+00
 Coeff-Com:  0.186D+00 0.814D+00
 Coeff:      0.186D+00 0.814D+00
 Gap=     0.205 Goal=   None    Shift=    0.000
 RMSDP=1.22D-06 MaxDP=6.98D-05 DE=-1.15D-07 OVMax= 6.79D-05

 Cycle  10  Pass 1  IDiag  1:
 RMSU=  1.22D-06    CP:  1.00D+00  9.95D-01
 E= -619.311271203982     Delta-E=       -0.000000002632 Rises=F Damp=F
 DIIS: error= 7.46D-06 at cycle   3 NSaved=   3.
 NSaved= 3 IEnMin= 3 EnMin= -619.311271203982     IErMin= 3 ErrMin= 7.46D-06
 ErrMax= 7.46D-06  0.00D+00 EMaxC= 1.00D-01 BMatC= 3.43D-08 BMatP= 3.71D-08
 IDIUse=1 WtCom= 1.00D+00 WtEn= 0.00D+00
 Coeff-Com:  0.275D-02 0.490D+00 0.508D+00
 Coeff:      0.275D-02 0.490D+00 0.508D+00
 Gap=     0.205 Goal=   None    Shift=    0.000
 RMSDP=6.00D-07 MaxDP=2.28D-05 DE=-2.63D-09 OVMax= 3.42D-05

 Cycle  11  Pass 1  IDiag  1:
 RMSU=  2.03D-07    CP:  1.00D+00  1.00D+00  5.45D-01
 E= -619.311271236802     Delta-E=       -0.000000032820 Rises=F Damp=F
 DIIS: error= 1.20D-06 at cycle   4 NSaved=   4.
 NSaved= 4 IEnMin= 4 EnMin= -619.311271236802     IErMin= 4 ErrMin= 1.20D-06
 ErrMax= 1.20D-06  0.00D+00 EMaxC= 1.00D-01 BMatC= 4.72D-10 BMatP= 3.43D-08
 IDIUse=1 WtCom= 1.00D+00 WtEn= 0.00D+00
 Coeff-Com: -0.238D-02 0.232D+00 0.257D+00 0.514D+00
 Coeff:     -0.238D-02 0.232D+00 0.257D+00 0.514D+00
 Gap=     0.205 Goal=   None    Shift=    0.000
 RMSDP=9.85D-08 MaxDP=5.50D-06 DE=-3.28D-08 OVMax= 5.08D-06

 Cycle  12  Pass 1  IDiag  1:
 RMSU=  4.80D-08    CP:  1.00D+00  1.00D+00  5.37D-01  5.87D-01
 E= -619.311271237261     Delta-E=       -0.000000000459 Rises=F Damp=F
 DIIS: error= 1.71D-07 at cycle   5 NSaved=   5.
 NSaved= 5 IEnMin= 5 EnMin= -619.311271237261     IErMin= 5 ErrMin= 1.71D-07
 ErrMax= 1.71D-07  0.00D+00 EMaxC= 1.00D-01 BMatC= 1.61D-11 BMatP= 4.72D-10
 IDIUse=1 WtCom= 1.00D+00 WtEn= 0.00D+00
 Coeff-Com: -0.126D-02 0.949D-01 0.107D+00 0.249D+00 0.550D+00
 Coeff:     -0.126D-02 0.949D-01 0.107D+00 0.249D+00 0.550D+00
 Gap=     0.205 Goal=   None    Shift=    0.000
 RMSDP=2.04D-08 MaxDP=1.16D-06 DE=-4.59D-10 OVMax= 1.62D-06

 Cycle  13  Pass 1  IDiag  1:
 RMSU=  1.72D-08    CP:  1.00D+00  1.00D+00  5.38D-01  6.00D-01  7.87D-01
 E= -619.311271237265     Delta-E=       -0.000000000004 Rises=F Damp=F
 DIIS: error= 7.76D-08 at cycle   6 NSaved=   6.
 NSaved= 6 IEnMin= 6 EnMin= -619.311271237265     IErMin= 6 ErrMin= 7.76D-08
 ErrMax= 7.76D-08  0.00D+00 EMaxC= 1.00D-01 BMatC= 1.45D-12 BMatP= 1.61D-11
 IDIUse=1 WtCom= 1.00D+00 WtEn= 0.00D+00
 Coeff-Com: -0.322D-03 0.188D-01 0.215D-01 0.586D-01 0.257D+00 0.644D+00
 Coeff:     -0.322D-03 0.188D-01 0.215D-01 0.586D-01 0.257D+00 0.644D+00
 Gap=     0.205 Goal=   None    Shift=    0.000
 RMSDP=7.37D-09 MaxDP=3.11D-07 DE=-3.64D-12 OVMax= 6.93D-07

 Cycle  14  Pass 1  IDiag  1:
 RMSU=  5.48D-09    CP:  1.00D+00  1.00D+00  5.39D-01  6.07D-01  8.07D-01
                    CP:  7.42D-01
 E= -619.311271237267     Delta-E=       -0.000000000003 Rises=F Damp=F
 DIIS: error= 4.68D-08 at cycle   7 NSaved=   7.
 NSaved= 7 IEnMin= 7 EnMin= -619.311271237267     IErMin= 7 ErrMin= 4.68D-08
 ErrMax= 4.68D-08  0.00D+00 EMaxC= 1.00D-01 BMatC= 5.43D-13 BMatP= 1.45D-12
 IDIUse=1 WtCom= 1.00D+00 WtEn= 0.00D+00
 Coeff-Com: -0.935D-05-0.243D-02-0.251D-02-0.105D-02 0.834D-01 0.430D+00
 Coeff-Com:  0.492D+00
 Coeff:     -0.935D-05-0.243D-02-0.251D-02-0.105D-02 0.834D-01 0.430D+00
 Coeff:      0.492D+00
 Gap=     0.205 Goal=   None    Shift=    0.000
 RMSDP=3.21D-09 MaxDP=1.04D-07 DE=-2.50D-12 OVMax= 3.33D-07

 Cycle  15  Pass 1  IDiag  1:
 RMSU=  1.12D-09    CP:  1.00D+00  1.00D+00  5.39D-01  6.07D-01  8.25D-01
                    CP:  8.09D-01  5.34D-01
 E= -619.311271237272     Delta-E=       -0.000000000005 Rises=F Damp=F
 DIIS: error= 3.36D-09 at cycle   8 NSaved=   8.
 NSaved= 8 IEnMin= 8 EnMin= -619.311271237272     IErMin= 8 ErrMin= 3.36D-09
 ErrMax= 3.36D-09  0.00D+00 EMaxC= 1.00D-01 BMatC= 8.92D-15 BMatP= 5.43D-13
 IDIUse=1 WtCom= 1.00D+00 WtEn= 0.00D+00
 Coeff-Com:  0.180D-04-0.236D-02-0.260D-02-0.479D-02 0.152D-01 0.129D+00
 Coeff-Com:  0.199D+00 0.667D+00
 Coeff:      0.180D-04-0.236D-02-0.260D-02-0.479D-02 0.152D-01 0.129D+00
 Coeff:      0.199D+00 0.667D+00
 Gap=     0.205 Goal=   None    Shift=    0.000
 RMSDP=4.45D-10 MaxDP=1.29D-08 DE=-4.77D-12 OVMax= 2.36D-08

 Cycle  16  Pass 1  IDiag  1:
 RMSU=  2.94D-10    CP:  1.00D+00  1.00D+00  5.39D-01  6.07D-01  8.28D-01
                    CP:  8.15D-01  5.45D-01  7.48D-01
 E= -619.311271237269     Delta-E=        0.000000000003 Rises=F Damp=F
 DIIS: error= 1.09D-09 at cycle   9 NSaved=   9.
 NSaved= 9 IEnMin= 8 EnMin= -619.311271237272     IErMin= 9 ErrMin= 1.09D-09
 ErrMax= 1.09D-09  0.00D+00 EMaxC= 1.00D-01 BMatC= 7.42D-16 BMatP= 8.92D-15
 IDIUse=1 WtCom= 1.00D+00 WtEn= 0.00D+00
 Coeff-Com:  0.872D-05-0.991D-03-0.109D-02-0.216D-02 0.437D-02 0.451D-01
 Coeff-Com:  0.766D-01 0.308D+00 0.570D+00
 Coeff:      0.872D-05-0.991D-03-0.109D-02-0.216D-02 0.437D-02 0.451D-01
 Coeff:      0.766D-01 0.308D+00 0.570D+00
 Gap=     0.205 Goal=   None    Shift=    0.000
 RMSDP=1.28D-10 MaxDP=5.28D-09 DE= 3.41D-12 OVMax= 1.12D-08

 Cycle  17  Pass 1  IDiag  1:
 RMSU=  1.01D-10    CP:  1.00D+00  1.00D+00  5.39D-01  6.07D-01  8.27D-01
                    CP:  8.16D-01  5.51D-01  7.75D-01  8.02D-01
 E= -619.311271237270     Delta-E=       -0.000000000002 Rises=F Damp=F
 DIIS: error= 4.27D-10 at cycle  10 NSaved=  10.
 NSaved=10 IEnMin= 8 EnMin= -619.311271237272     IErMin=10 ErrMin= 4.27D-10
 ErrMax= 4.27D-10  0.00D+00 EMaxC= 1.00D-01 BMatC= 1.50D-16 BMatP= 7.42D-16
 IDIUse=1 WtCom= 1.00D+00 WtEn= 0.00D+00
 Coeff-Com:  0.133D-05-0.100D-03-0.114D-03-0.308D-03-0.603D-03-0.174D-03
 Coeff-Com:  0.397D-02 0.367D-01 0.317D+00 0.644D+00
 Coeff:      0.133D-05-0.100D-03-0.114D-03-0.308D-03-0.603D-03-0.174D-03
 Coeff:      0.397D-02 0.367D-01 0.317D+00 0.644D+00
 Gap=     0.205 Goal=   None    Shift=    0.000
 RMSDP=6.10D-11 MaxDP=2.17D-09 DE=-1.59D-12 OVMax= 6.23D-09

 SCF Done:  E(RB3LYP) =  -619.311271237     A.U. after   17 cycles
            NFock= 17  Conv=0.61D-10     -V/T= 2.0099
 KE= 6.132511481400D+02 PE=-3.554830893616D+03 EE= 1.261479205554D+03
 Leave Link  502 at Mon Jul 28 11:54:36 2025, MaxMem=  6174015488 cpu:             343.8 elap:               9.6
 (Enter /opt/linux/rocky/8/software/gaussian/16c01_avx2/g16/l801.exe)
 DoSCS=F DFT=T ScalE2(SS,OS)=  1.000000  1.000000
 Range of M.O.s used for correlation:     1   320
 NBasis=   320 NAE=    56 NBE=    56 NFC=     0 NFV=     0
 NROrb=    320 NOA=    56 NOB=    56 NVA=   264 NVB=   264
 Leave Link  801 at Mon Jul 28 11:54:36 2025, MaxMem=  6174015488 cpu:               0.4 elap:               0.0
 (Enter /opt/linux/rocky/8/software/gaussian/16c01_avx2/g16/l1101.exe)
 Using compressed storage, NAtomX=    32.
 Will process     33 centers per pass.
 Leave Link 1101 at Mon Jul 28 11:54:36 2025, MaxMem=  6174015488 cpu:               9.2 elap:               0.3
 (Enter /opt/linux/rocky/8/software/gaussian/16c01_avx2/g16/l1102.exe)
 Symmetrizing basis deriv contribution to polar:
 IMax=3 JMax=2 DiffMx= 0.00D+00
 Leave Link 1102 at Mon Jul 28 11:54:36 2025, MaxMem=  6174015488 cpu:               0.7 elap:               0.0
 (Enter /opt/linux/rocky/8/software/gaussian/16c01_avx2/g16/l1110.exe)
 Forming Gx(P) for the SCF density, NAtomX=    32.
 Integral derivatives from FoFJK, PRISM(SPDF).
 Do as many integral derivatives as possible in FoFJK.
 G2DrvN: MDV=    6174012056.
 G2DrvN: will do    33 centers at a time, making    1 passes.
 Calling FoFCou, ICntrl=  3107 FMM=F I1Cent=   0 AccDes= 0.00D+00.
 FoFJK:  IHMeth= 1 ICntrl=    3107 DoSepK=F KAlg= 0 I1Cent=           0 FoldK=F
 IRaf=         0 NMat=       1 IRICut=       1 DoRegI=T DoRafI=F ISym2E= 0 IDoP0=0 IntGTp=1.
 FoFCou: FMM=F IPFlag=           0 FMFlag=      100000 FMFlg1=           0
         NFxFlg=           0 DoJE=F BraDBF=F KetDBF=F FulRan=T
         wScrn=  0.000000 ICntrl=      3107 IOpCl=  0 I1Cent=           0 NGrid=           0
         NMat0=    1 NMatS0=      1 NMatT0=    0 NMatD0=    1 NMtDS0=    0 NMtDT0=    0
 Symmetry not used in FoFCou.
 End of G2Drv F.D. properties file   721 does not exist.
 End of G2Drv F.D. properties file   722 does not exist.
 End of G2Drv F.D. properties file   788 does not exist.
 Leave Link 1110 at Mon Jul 28 11:54:53 2025, MaxMem=  6174015488 cpu:             576.0 elap:              16.1
 (Enter /opt/linux/rocky/8/software/gaussian/16c01_avx2/g16/l1002.exe)
 Minotr:  Closed shell wavefunction.
          IDoAtm=11111111111111111111111111111111
          Direct CPHF calculation.
          Differentiating once with respect to nuclear coordinates.
          Requested convergence is 1.0D-08 RMS, and 1.0D-07 maximum.
          Secondary convergence is 1.0D-12 RMS, and 1.0D-12 maximum.
          NewPWx=T KeepS1=F KeepF1=F KeepIn=T MapXYZ=F SortEE=F KeepMc=T.
         9509 words used for storage of precomputed grid.
 Keep R1 ints in memory in canonical form, NReq=1360445927.
 FoFCou: FMM=F IPFlag=           0 FMFlag=           0 FMFlg1=           0
         NFxFlg=           0 DoJE=F BraDBF=F KetDBF=F FulRan=T
         wScrn=  0.000000 ICntrl=       600 IOpCl=  0 I1Cent=           0 NGrid=           0
         NMat0=    1 NMatS0=  51360 NMatT0=    0 NMatD0=    1 NMtDS0=    0 NMtDT0=    0
 Symmetry not used in FoFCou.
 Two-electron integral symmetry not used.
          MDV=    6174015488 using IRadAn=       1.
          Solving linear equations simultaneously, MaxMat=       0.
          There are    99 degrees of freedom in the 1st order CPHF.  IDoFFX=6 NUNeed=     0.
     93 vectors produced by pass  0 Test12= 1.49D-14 1.01D-09 XBig12= 1.37D-01 1.79D-01.
 AX will form    93 AO Fock derivatives at one time.
     93 vectors produced by pass  1 Test12= 1.49D-14 1.01D-09 XBig12= 2.18D-02 3.03D-02.
     93 vectors produced by pass  2 Test12= 1.49D-14 1.01D-09 XBig12= 2.74D-04 3.11D-03.
     93 vectors produced by pass  3 Test12= 1.49D-14 1.01D-09 XBig12= 7.72D-07 1.14D-04.
     93 vectors produced by pass  4 Test12= 1.49D-14 1.01D-09 XBig12= 1.17D-09 6.30D-06.
     84 vectors produced by pass  5 Test12= 1.49D-14 1.01D-09 XBig12= 1.07D-12 1.45D-07.
      7 vectors produced by pass  6 Test12= 1.49D-14 1.01D-09 XBig12= 8.33D-16 2.05D-09.
 InvSVY:  IOpt=1 It=  1 EMax= 4.72D-16
 Solved reduced A of dimension   556 with    99 vectors.
 End of Minotr F.D. properties file   721 does not exist.
 End of Minotr F.D. properties file   722 does not exist.
 End of Minotr F.D. properties file   788 does not exist.
 Leave Link 1002 at Mon Jul 28 11:55:14 2025, MaxMem=  6174015488 cpu:             760.2 elap:              21.3
 (Enter /opt/linux/rocky/8/software/gaussian/16c01_avx2/g16/l601.exe)
 Copying SCF densities to generalized density rwf, IOpCl= 0 IROHF=0.

 **********************************************************************

            Population analysis using the SCF Density.

 **********************************************************************

 Orbital symmetries:
       Occupied  (A) (A) (A) (A) (A) (A) (A) (A) (A) (A) (A) (A)
                 (A) (A) (A) (A) (A) (A) (A) (A) (A) (A) (A) (A)
                 (A) (A) (A) (A) (A) (A) (A) (A) (A) (A) (A) (A)
                 (A) (A) (A) (A) (A) (A) (A) (A) (A) (A) (A) (A)
                 (A) (A) (A) (A) (A) (A) (A) (A)
       Virtual   (A) (A) (A) (A) (A) (A) (A) (A) (A) (A) (A) (A)
                 (A) (A) (A) (A) (A) (A) (A) (A) (A) (A) (A) (A)
                 (A) (A) (A) (A) (A) (A) (A) (A) (A) (A) (A) (A)
                 (A) (A) (A) (A) (A) (A) (A) (A) (A) (A) (A) (A)
                 (A) (A) (A) (A) (A) (A) (A) (A) (A) (A) (A) (A)
                 (A) (A) (A) (A) (A) (A) (A) (A) (A) (A) (A) (A)
                 (A) (A) (A) (A) (A) (A) (A) (A) (A) (A) (A) (A)
                 (A) (A) (A) (A) (A) (A) (A) (A) (A) (A) (A) (A)
                 (A) (A) (A) (A) (A) (A) (A) (A) (A) (A) (A) (A)
                 (A) (A) (A) (A) (A) (A) (A) (A) (A) (A) (A) (A)
                 (A) (A) (A) (A) (A) (A) (A) (A) (A) (A) (A) (A)
                 (A) (A) (A) (A) (A) (A) (A) (A) (A) (A) (A) (A)
                 (A) (A) (A) (A) (A) (A) (A) (A) (A) (A) (A) (A)
                 (A) (A) (A) (A) (A) (A) (A) (A) (A) (A) (A) (A)
                 (A) (A) (A) (A) (A) (A) (A) (A) (A) (A) (A) (A)
                 (A) (A) (A) (A) (A) (A) (A) (A) (A) (A) (A) (A)
                 (A) (A) (A) (A) (A) (A) (A) (A) (A) (A) (A) (A)
                 (A) (A) (A) (A) (A) (A) (A) (A) (A) (A) (A) (A)
                 (A) (A) (A) (A) (A) (A) (A) (A) (A) (A) (A) (A)
                 (A) (A) (A) (A) (A) (A) (A) (A) (A) (A) (A) (A)
                 (A) (A) (A) (A) (A) (A) (A) (A) (A) (A) (A) (A)
                 (A) (A) (A) (A) (A) (A) (A) (A) (A) (A) (A) (A)
 The electronic state is 1-A.
 Alpha  occ. eigenvalues --  -10.19604 -10.19604 -10.19454 -10.19453 -10.19241
 Alpha  occ. eigenvalues --  -10.19241 -10.18837 -10.18836 -10.18749 -10.18748
 Alpha  occ. eigenvalues --  -10.18342 -10.18342 -10.17763 -10.17642 -10.17631
 Alpha  occ. eigenvalues --  -10.15064  -0.86664  -0.84003  -0.80349  -0.76144
 Alpha  occ. eigenvalues --   -0.75346  -0.74261  -0.71939  -0.68996  -0.64942
 Alpha  occ. eigenvalues --   -0.61849  -0.60205  -0.57894  -0.56819  -0.55504
 Alpha  occ. eigenvalues --   -0.49689  -0.48514  -0.47235  -0.45610  -0.44539
 Alpha  occ. eigenvalues --   -0.44168  -0.42993  -0.42201  -0.41467  -0.41079
 Alpha  occ. eigenvalues --   -0.40896  -0.38154  -0.37544  -0.36790  -0.36333
 Alpha  occ. eigenvalues --   -0.35844  -0.35615  -0.32827  -0.32508  -0.32435
 Alpha  occ. eigenvalues --   -0.31746  -0.28338  -0.25441  -0.22722  -0.22387
 Alpha  occ. eigenvalues --   -0.22276
 Alpha virt. eigenvalues --   -0.01770  -0.00557   0.01140   0.01593   0.09316
 Alpha virt. eigenvalues --    0.09736   0.10495   0.11447   0.11924   0.12514
 Alpha virt. eigenvalues --    0.14233   0.14833   0.15966   0.16384   0.17149
 Alpha virt. eigenvalues --    0.18088   0.18473   0.18752   0.19587   0.20061
 Alpha virt. eigenvalues --    0.21116   0.21922   0.22915   0.23538   0.25119
 Alpha virt. eigenvalues --    0.26333   0.29572   0.30366   0.32890   0.33004
 Alpha virt. eigenvalues --    0.33867   0.34837   0.35127   0.35778   0.36312
 Alpha virt. eigenvalues --    0.39400   0.45403   0.47763   0.49385   0.50769
 Alpha virt. eigenvalues --    0.50884   0.51442   0.52265   0.53518   0.54499
 Alpha virt. eigenvalues --    0.55072   0.55909   0.56610   0.57807   0.57941
 Alpha virt. eigenvalues --    0.58979   0.59395   0.60039   0.60915   0.61197
 Alpha virt. eigenvalues --    0.61872   0.62682   0.63287   0.63910   0.65454
 Alpha virt. eigenvalues --    0.66202   0.67262   0.68714   0.69082   0.71200
 Alpha virt. eigenvalues --    0.72915   0.73683   0.74144   0.75128   0.75932
 Alpha virt. eigenvalues --    0.79545   0.79584   0.80599   0.81005   0.81815
 Alpha virt. eigenvalues --    0.82373   0.82998   0.83267   0.83900   0.85718
 Alpha virt. eigenvalues --    0.86097   0.86734   0.88883   0.89797   0.90631
 Alpha virt. eigenvalues --    0.90953   0.92079   0.92602   0.94043   0.94954
 Alpha virt. eigenvalues --    0.96190   0.96571   0.97659   0.97999   1.00017
 Alpha virt. eigenvalues --    1.03124   1.04732   1.04744   1.06173   1.07684
 Alpha virt. eigenvalues --    1.08174   1.11338   1.15175   1.15555   1.16032
 Alpha virt. eigenvalues --    1.18728   1.20713   1.25630   1.27782   1.28979
 Alpha virt. eigenvalues --    1.29291   1.31675   1.33314   1.36958   1.38780
 Alpha virt. eigenvalues --    1.39031   1.39986   1.40361   1.43866   1.44349
 Alpha virt. eigenvalues --    1.45154   1.45355   1.47538   1.51434   1.52254
 Alpha virt. eigenvalues --    1.54585   1.57466   1.61739   1.67243   1.67429
 Alpha virt. eigenvalues --    1.67527   1.70705   1.75709   1.76755   1.76934
 Alpha virt. eigenvalues --    1.78380   1.78502   1.79346   1.81080   1.81683
 Alpha virt. eigenvalues --    1.81906   1.83238   1.83683   1.84860   1.88692
 Alpha virt. eigenvalues --    1.90058   1.90225   1.91926   1.92884   1.93751
 Alpha virt. eigenvalues --    1.96918   1.97722   1.98802   1.99571   2.00195
 Alpha virt. eigenvalues --    2.03729   2.04201   2.05657   2.05752   2.07040
 Alpha virt. eigenvalues --    2.09871   2.10465   2.13404   2.13691   2.15444
 Alpha virt. eigenvalues --    2.16020   2.18702   2.19357   2.20283   2.21950
 Alpha virt. eigenvalues --    2.23059   2.25082   2.25534   2.27157   2.27736
 Alpha virt. eigenvalues --    2.28779   2.30655   2.32765   2.32859   2.33972
 Alpha virt. eigenvalues --    2.34235   2.37423   2.39659   2.40684   2.41937
 Alpha virt. eigenvalues --    2.42198   2.43050   2.43501   2.44628   2.46796
 Alpha virt. eigenvalues --    2.49027   2.49444   2.50957   2.52416   2.52638
 Alpha virt. eigenvalues --    2.54055   2.56366   2.58470   2.58913   2.61408
 Alpha virt. eigenvalues --    2.61414   2.62082   2.63236   2.63954   2.65247
 Alpha virt. eigenvalues --    2.67104   2.67176   2.67835   2.69088   2.72235
 Alpha virt. eigenvalues --    2.72390   2.73467   2.75768   2.77258   2.80900
 Alpha virt. eigenvalues --    2.81511   2.81733   2.83974   2.84059   2.88585
 Alpha virt. eigenvalues --    2.89447   2.89451   2.93179   2.93415   2.98691
 Alpha virt. eigenvalues --    3.05372   3.07026   3.10054   3.17416   3.22467
 Alpha virt. eigenvalues --    3.25358   3.26176   3.26499   3.26718   3.27445
 Alpha virt. eigenvalues --    3.28797   3.34750   3.35666   3.38383   3.43360
 Alpha virt. eigenvalues --    3.46521   3.47963   3.49457   3.50606   3.53154
 Alpha virt. eigenvalues --    3.66581   3.76704   3.85958   4.13986   4.16778
 Alpha virt. eigenvalues --    4.17228   4.24785   4.31624   4.34302   4.38302
 Alpha virt. eigenvalues --    4.43566   4.43637   4.48393   4.57129   4.59044
 Alpha virt. eigenvalues --    4.67090   4.70377   4.79531   4.86240
          Condensed to atoms (all electrons):
               1          2          3          4          5          6
     1  C    4.919484   0.502007  -0.038311  -0.043761  -0.043564   0.545229
     2  C    0.502007   4.939751   0.536845  -0.043564  -0.043280  -0.044500
     3  C   -0.038311   0.536845   4.823528   0.545229  -0.044500  -0.041017
     4  C   -0.043761  -0.043564   0.545229   4.919483   0.502007  -0.038311
     5  C   -0.043564  -0.043280  -0.044500   0.502007   4.939751   0.536844
     6  C    0.545229  -0.044500  -0.041017  -0.038311   0.536844   4.823528
     7  H    0.366895  -0.039421   0.004048   0.000436   0.005674  -0.040948
     8  H   -0.038387   0.370130  -0.046937   0.005277   0.000349   0.004412
     9  H    0.000436   0.005674  -0.040948   0.366895  -0.039422   0.004048
    10  H    0.005276   0.000349   0.004412  -0.038387   0.370130  -0.046937
    11  C    0.004940  -0.064775   0.370083  -0.048021   0.006959   0.000821
    12  H   -0.000207   0.005500  -0.033024  -0.007296  -0.000052  -0.000007
    13  H   -0.000226  -0.002973  -0.029881   0.003557  -0.000217  -0.000048
    14  C   -0.048021   0.006959   0.000821   0.004940  -0.064775   0.370083
    15  H    0.003557  -0.000217  -0.000048  -0.000226  -0.002973  -0.029881
    16  H   -0.007296  -0.000052  -0.000007  -0.000207   0.005500  -0.033024
    17  C    0.001475  -0.005018  -0.044946  -0.004256   0.000110   0.000415
    18  H   -0.000061   0.004294  -0.006372  -0.000057   0.000005  -0.000015
    19  H   -0.000001   0.000190   0.005014   0.000001  -0.000010  -0.000006
    20  C   -0.004256   0.000110   0.000415   0.001475  -0.005018  -0.044946
    21  H   -0.000057   0.000005  -0.000015  -0.000061   0.004294  -0.006372
    22  H    0.000001  -0.000010  -0.000006  -0.000001   0.000190   0.005014
    23  C    0.002680   0.000968   0.000780  -0.000584  -0.003414  -0.003929
    24  C   -0.010324  -0.007720  -0.009919  -0.010324  -0.007719  -0.009919
    25  C    0.000010  -0.000017  -0.000024  -0.000062  -0.000076   0.000025
    26  C   -0.000584  -0.003414  -0.003929   0.002680   0.000968   0.000780
    27  H   -0.014182  -0.018512  -0.003795  -0.014182  -0.018512  -0.003794
    28  C   -0.000002  -0.000002  -0.000006  -0.000002  -0.000002  -0.000006
    29  H    0.000002   0.000000   0.000000   0.000001   0.000001   0.000006
    30  C   -0.000062  -0.000076   0.000025   0.000010  -0.000017  -0.000024
    31  H   -0.000000  -0.000000   0.000000  -0.000000  -0.000000   0.000000
    32  H    0.000001   0.000001   0.000006   0.000002   0.000000   0.000000
               7          8          9         10         11         12
     1  C    0.366895  -0.038387   0.000436   0.005276   0.004940  -0.000207
     2  C   -0.039421   0.370130   0.005674   0.000349  -0.064775   0.005500
     3  C    0.004048  -0.046937  -0.040948   0.004412   0.370083  -0.033024
     4  C    0.000436   0.005277   0.366895  -0.038387  -0.048021  -0.007296
     5  C    0.005674   0.000349  -0.039422   0.370130   0.006959  -0.000052
     6  C   -0.040948   0.004412   0.004048  -0.046937   0.000821  -0.000007
     7  H    0.625752  -0.007293   0.000015  -0.000199  -0.000191   0.000004
     8  H   -0.007293   0.629233  -0.000199   0.000016  -0.006271  -0.000005
     9  H    0.000015  -0.000199   0.625752  -0.007293  -0.009294   0.006821
    10  H   -0.000199   0.000016  -0.007293   0.629233  -0.000153  -0.000020
    11  C   -0.000191  -0.006271  -0.009294  -0.000153   4.997106   0.370817
    12  H    0.000004  -0.000005   0.006821  -0.000020   0.370817   0.627489
    13  H   -0.000003   0.002424   0.000103   0.000002   0.356904  -0.033639
    14  C   -0.009294  -0.000153  -0.000191  -0.006271  -0.000003  -0.000001
    15  H    0.000103   0.000002  -0.000003   0.002424   0.000000  -0.000000
    16  H    0.006821  -0.000020   0.000004  -0.000005  -0.000001   0.000000
    17  C    0.000023  -0.000261   0.000021   0.000003   0.346840  -0.037833
    18  H    0.000007   0.001335   0.000001  -0.000000  -0.037375   0.005547
    19  H   -0.000000  -0.000035  -0.000003  -0.000000  -0.031238  -0.005945
    20  C    0.000021   0.000003   0.000023  -0.000261   0.000007   0.000001
    21  H    0.000001  -0.000000   0.000007   0.001335  -0.000002   0.000000
    22  H   -0.000003  -0.000000  -0.000000  -0.000035   0.000000  -0.000000
    23  C    0.000022  -0.000020  -0.000013   0.000266   0.000059  -0.000021
    24  C    0.000213  -0.000186   0.000213  -0.000186  -0.003921   0.000135
    25  C   -0.000001   0.000000  -0.000001   0.000003  -0.000008  -0.000004
    26  C   -0.000013   0.000266   0.000022  -0.000020  -0.028009  -0.001293
    27  H   -0.000309   0.000302  -0.000309   0.000302  -0.001927  -0.000480
    28  C    0.000000  -0.000000   0.000000  -0.000000  -0.000098   0.000002
    29  H   -0.000000   0.000000  -0.000000  -0.000000  -0.000000  -0.000000
    30  C   -0.000001   0.000003  -0.000001   0.000000   0.002509   0.000096
    31  H    0.000000   0.000000   0.000000   0.000000   0.000001   0.000000
    32  H   -0.000000  -0.000000  -0.000000   0.000000  -0.000000  -0.000009
              13         14         15         16         17         18
     1  C   -0.000226  -0.048021   0.003557  -0.007296   0.001475  -0.000061
     2  C   -0.002973   0.006959  -0.000217  -0.000052  -0.005018   0.004294
     3  C   -0.029881   0.000821  -0.000048  -0.000007  -0.044946  -0.006372
     4  C    0.003557   0.004940  -0.000226  -0.000207  -0.004256  -0.000057
     5  C   -0.000217  -0.064775  -0.002973   0.005500   0.000110   0.000005
     6  C   -0.000048   0.370083  -0.029881  -0.033024   0.000415  -0.000015
     7  H   -0.000003  -0.009294   0.000103   0.006821   0.000023   0.000007
     8  H    0.002424  -0.000153   0.000002  -0.000020  -0.000261   0.001335
     9  H    0.000103  -0.000191  -0.000003   0.000004   0.000021   0.000001
    10  H    0.000002  -0.006271   0.002424  -0.000005   0.000003  -0.000000
    11  C    0.356904  -0.000003   0.000000  -0.000001   0.346840  -0.037375
    12  H   -0.033639  -0.000001  -0.000000   0.000000  -0.037833   0.005547
    13  H    0.638182   0.000000  -0.000000  -0.000000  -0.034740  -0.006234
    14  C    0.000000   4.997106   0.356904   0.370817   0.000007  -0.000002
    15  H   -0.000000   0.356904   0.638182  -0.033639   0.000000   0.000000
    16  H   -0.000000   0.370817  -0.033639   0.627489   0.000001   0.000000
    17  C   -0.034740   0.000007   0.000000   0.000001   5.086375   0.369825
    18  H   -0.006234  -0.000002   0.000000   0.000000   0.369825   0.625888
    19  H   -0.000659   0.000000  -0.000000  -0.000000   0.359798  -0.035987
    20  C    0.000000   0.346840  -0.034740  -0.037833  -0.000149   0.000004
    21  H    0.000000  -0.037375  -0.006234   0.005547   0.000004   0.000000
    22  H   -0.000000  -0.031238  -0.000659  -0.005945   0.000002  -0.000000
    23  C    0.000003  -0.028009   0.003965  -0.001293   0.008350  -0.000328
    24  C    0.000113  -0.003921   0.000113   0.000135  -0.047133  -0.005502
    25  C    0.000000   0.002509  -0.000087   0.000096  -0.000012   0.000052
    26  C    0.003965   0.000059   0.000003  -0.000021   0.344619  -0.032696
    27  H    0.000166  -0.001927   0.000166  -0.000480  -0.028138   0.000802
    28  C    0.000001  -0.000098   0.000001   0.000002   0.005767  -0.000140
    29  H    0.000000  -0.000000  -0.000001  -0.000009   0.000012  -0.000000
    30  C   -0.000087  -0.000008   0.000000  -0.000004  -0.065791  -0.000910
    31  H   -0.000000   0.000001  -0.000000   0.000000  -0.000160   0.000003
    32  H   -0.000001  -0.000000   0.000000  -0.000000  -0.007246   0.000392
              19         20         21         22         23         24
     1  C   -0.000001  -0.004256  -0.000057   0.000001   0.002680  -0.010324
     2  C    0.000190   0.000110   0.000005  -0.000010   0.000968  -0.007720
     3  C    0.005014   0.000415  -0.000015  -0.000006   0.000780  -0.009919
     4  C    0.000001   0.001475  -0.000061  -0.000001  -0.000584  -0.010324
     5  C   -0.000010  -0.005018   0.004294   0.000190  -0.003414  -0.007719
     6  C   -0.000006  -0.044946  -0.006372   0.005014  -0.003929  -0.009919
     7  H   -0.000000   0.000021   0.000001  -0.000003   0.000022   0.000213
     8  H   -0.000035   0.000003  -0.000000  -0.000000  -0.000020  -0.000186
     9  H   -0.000003   0.000023   0.000007  -0.000000  -0.000013   0.000213
    10  H   -0.000000  -0.000261   0.001335  -0.000035   0.000266  -0.000186
    11  C   -0.031238   0.000007  -0.000002   0.000000   0.000059  -0.003921
    12  H   -0.005945   0.000001   0.000000  -0.000000  -0.000021   0.000135
    13  H   -0.000659   0.000000   0.000000  -0.000000   0.000003   0.000113
    14  C    0.000000   0.346840  -0.037375  -0.031238  -0.028009  -0.003921
    15  H   -0.000000  -0.034740  -0.006234  -0.000659   0.003965   0.000113
    16  H   -0.000000  -0.037833   0.005547  -0.005945  -0.001293   0.000135
    17  C    0.359798  -0.000149   0.000004   0.000002   0.008350  -0.047133
    18  H   -0.035987   0.000004   0.000000  -0.000000  -0.000328  -0.005502
    19  H    0.634184   0.000002  -0.000000  -0.000000  -0.000150   0.004150
    20  C    0.000002   5.086375   0.369825   0.359798   0.344619  -0.047133
    21  H   -0.000000   0.369825   0.625889  -0.035988  -0.032696  -0.005502
    22  H   -0.000000   0.359798  -0.035988   0.634184  -0.030977   0.004150
    23  C   -0.000150   0.344619  -0.032696  -0.030977   4.768665   0.531576
    24  C    0.004150  -0.047133  -0.005502   0.004150   0.531576   4.876345
    25  C    0.000013  -0.065791  -0.000910  -0.003325   0.501729  -0.025883
    26  C   -0.030977   0.008350  -0.000328  -0.000150  -0.009314   0.531576
    27  H    0.000336  -0.028137   0.000802   0.000336  -0.075247   0.332225
    28  C    0.000017   0.005767  -0.000140   0.000017  -0.019136  -0.055035
    29  H   -0.000000  -0.007246   0.000392   0.005114  -0.042067   0.005291
    30  C   -0.003325  -0.000012   0.000052   0.000013  -0.052755  -0.025883
    31  H   -0.000004  -0.000160   0.000003  -0.000004   0.003425   0.001260
    32  H    0.005114   0.000012  -0.000000  -0.000000   0.001015   0.005291
              25         26         27         28         29         30
     1  C    0.000010  -0.000584  -0.014182  -0.000002   0.000002  -0.000062
     2  C   -0.000017  -0.003414  -0.018512  -0.000002   0.000000  -0.000076
     3  C   -0.000024  -0.003929  -0.003795  -0.000006   0.000000   0.000025
     4  C   -0.000062   0.002680  -0.014182  -0.000002   0.000001   0.000010
     5  C   -0.000076   0.000968  -0.018512  -0.000002   0.000001  -0.000017
     6  C    0.000025   0.000780  -0.003794  -0.000006   0.000006  -0.000024
     7  H   -0.000001  -0.000013  -0.000309   0.000000  -0.000000  -0.000001
     8  H    0.000000   0.000266   0.000302  -0.000000   0.000000   0.000003
     9  H   -0.000001   0.000022  -0.000309   0.000000  -0.000000  -0.000001
    10  H    0.000003  -0.000020   0.000302  -0.000000  -0.000000   0.000000
    11  C   -0.000008  -0.028009  -0.001927  -0.000098  -0.000000   0.002509
    12  H   -0.000004  -0.001293  -0.000480   0.000002  -0.000000   0.000096
    13  H    0.000000   0.003965   0.000166   0.000001   0.000000  -0.000087
    14  C    0.002509   0.000059  -0.001927  -0.000098  -0.000000  -0.000008
    15  H   -0.000087   0.000003   0.000166   0.000001  -0.000001   0.000000
    16  H    0.000096  -0.000021  -0.000480   0.000002  -0.000009  -0.000004
    17  C   -0.000012   0.344619  -0.028138   0.005767   0.000012  -0.065791
    18  H    0.000052  -0.032696   0.000802  -0.000140  -0.000000  -0.000910
    19  H    0.000013  -0.030977   0.000336   0.000017  -0.000000  -0.003325
    20  C   -0.065791   0.008350  -0.028137   0.005767  -0.007246  -0.000012
    21  H   -0.000910  -0.000328   0.000802  -0.000140   0.000392   0.000052
    22  H   -0.003325  -0.000150   0.000336   0.000017   0.005114   0.000013
    23  C    0.501729  -0.009314  -0.075247  -0.019136  -0.042067  -0.052755
    24  C   -0.025883   0.531576   0.332225  -0.055035   0.005291  -0.025883
    25  C    4.969834  -0.052755   0.014427   0.514967   0.358150  -0.027821
    26  C   -0.052755   4.768665  -0.075247  -0.019136   0.001015   0.501729
    27  H    0.014427  -0.075247   0.955461  -0.000247  -0.000348   0.014427
    28  C    0.514967  -0.019136  -0.000247   4.849016  -0.042666   0.514967
    29  H    0.358150   0.001015  -0.000348  -0.042666   0.654468   0.004300
    30  C   -0.027821   0.501729   0.014427   0.514967   0.004300   4.969833
    31  H   -0.038344   0.003425   0.000015   0.363559  -0.006091  -0.038344
    32  H    0.004300  -0.042067  -0.000348  -0.042666  -0.000178   0.358150
              31         32
     1  C   -0.000000   0.000001
     2  C   -0.000000   0.000001
     3  C    0.000000   0.000006
     4  C   -0.000000   0.000002
     5  C   -0.000000   0.000000
     6  C    0.000000   0.000000
     7  H    0.000000  -0.000000
     8  H    0.000000  -0.000000
     9  H    0.000000  -0.000000
    10  H    0.000000   0.000000
    11  C    0.000001  -0.000000
    12  H    0.000000  -0.000009
    13  H   -0.000000  -0.000001
    14  C    0.000001  -0.000000
    15  H   -0.000000   0.000000
    16  H    0.000000  -0.000000
    17  C   -0.000160  -0.007246
    18  H    0.000003   0.000392
    19  H   -0.000004   0.005114
    20  C   -0.000160   0.000012
    21  H    0.000003  -0.000000
    22  H   -0.000004  -0.000000
    23  C    0.003425   0.001015
    24  C    0.001260   0.005291
    25  C   -0.038344   0.004300
    26  C    0.003425  -0.042067
    27  H    0.000015  -0.000348
    28  C    0.363559  -0.042666
    29  H   -0.006091  -0.000178
    30  C   -0.038344   0.358150
    31  H    0.642453  -0.006091
    32  H   -0.006091   0.654468
 Mulliken charges:
               1
     1  C   -0.102691
     2  C   -0.099232
     3  C    0.052479
     4  C   -0.102691
     5  C   -0.099232
     6  C    0.052479
     7  H    0.087641
     8  H    0.086016
     9  H    0.087641
    10  H    0.086016
    11  C   -0.225759
    12  H    0.103422
    13  H    0.103287
    14  C   -0.225759
    15  H    0.103287
    16  H    0.103422
    17  C   -0.247964
    18  H    0.117524
    19  H    0.099522
    20  C   -0.247965
    21  H    0.117524
    22  H    0.099522
    23  C    0.131829
    24  C   -0.016574
    25  C   -0.150993
    26  C    0.131829
    27  H   -0.033645
    28  C   -0.074703
    29  H    0.069855
    30  C   -0.150993
    31  H    0.075052
    32  H    0.069854
 Sum of Mulliken charges =  -0.00000
 Mulliken charges with hydrogens summed into heavy atoms:
               1
     1  C   -0.015050
     2  C   -0.013216
     3  C    0.052479
     4  C   -0.015050
     5  C   -0.013216
     6  C    0.052479
    11  C   -0.019050
    14  C   -0.019050
    17  C   -0.030919
    20  C   -0.030919
    23  C    0.131829
    24  C   -0.050219
    25  C   -0.081138
    26  C    0.131829
    28  C    0.000350
    30  C   -0.081138
 APT charges:
               1
     1  C   -0.435277
     2  C   -0.404475
     3  C   -0.161393
     4  C   -0.435278
     5  C   -0.404475
     6  C   -0.161392
     7  H    0.477723
     8  H    0.485751
     9  H    0.477722
    10  H    0.485751
    11  C   -1.007107
    12  H    0.398326
    13  H    0.596974
    14  C   -1.007106
    15  H    0.596974
    16  H    0.398325
    17  C   -0.911979
    18  H    0.374702
    19  H    0.567711
    20  C   -0.911980
    21  H    0.374703
    22  H    0.567711
    23  C   -0.216707
    24  C   -0.453404
    25  C   -0.430669
    26  C   -0.216705
    27  H    0.216148
    28  C   -0.498378
    29  H    0.637151
    30  C   -0.430670
    31  H    0.794172
    32  H    0.637150
 Sum of APT charges =  -0.00000
 APT charges with hydrogens summed into heavy atoms:
               1
     1  C    0.042445
     2  C    0.081276
     3  C   -0.161393
     4  C    0.042444
     5  C    0.081276
     6  C   -0.161392
    11  C   -0.011807
    14  C   -0.011807
    17  C    0.030434
    20  C    0.030434
    23  C   -0.216707
    24  C   -0.237256
    25  C    0.206482
    26  C   -0.216705
    28  C    0.295795
    30  C    0.206480
 Electronic spatial extent (au):  <R**2>=           3040.3473
 Charge=             -0.0000 electrons
 Dipole moment (field-independent basis, Debye):
    X=             -0.0343    Y=              0.0000    Z=              0.0000  Tot=              0.0343
 Quadrupole moment (field-independent basis, Debye-Ang):
   XX=            -98.0291   YY=            -85.8790   ZZ=            -92.1148
   XY=              0.0000   XZ=              0.0000   YZ=             -0.8367
 Traceless Quadrupole moment (field-independent basis, Debye-Ang):
   XX=             -6.0215   YY=              6.1286   ZZ=             -0.1071
   XY=              0.0000   XZ=              0.0000   YZ=             -0.8367
 Octapole moment (field-independent basis, Debye-Ang**2):
  XXX=             36.8355  YYY=             -0.0000  ZZZ=              0.0000  XYY=              3.9334
  XXY=             -0.0000  XXZ=              0.0000  XZZ=            -14.2283  YZZ=              0.0000
  YYZ=              0.0000  XYZ=              0.7207
 Hexadecapole moment (field-independent basis, Debye-Ang**3):
 XXXX=          -2155.5029 YYYY=          -1628.5414 ZZZZ=           -374.2112 XXXY=             -0.0001
 XXXZ=              0.0001 YYYX=             -0.0000 YYYZ=             -5.6180 ZZZX=              0.0000
 ZZZY=              0.2152 XXYY=           -621.9743 XXZZ=           -436.6721 YYZZ=           -338.3929
 XXYZ=             -4.9387 YYXZ=              0.0000 ZZXY=              0.0000
 N-N= 1.060789268684D+03 E-N=-3.554830893628D+03  KE= 6.132511481400D+02
  Exact polarizability:       0.000       0.000       0.000       0.000       0.000       0.000
 Approx polarizability:     229.976       0.000     329.207       0.000      -4.616     205.709
 No NMR shielding tensors so no spin-rotation constants.
 Leave Link  601 at Mon Jul 28 11:55:14 2025, MaxMem=  6174015488 cpu:               4.0 elap:               0.1
 (Enter /opt/linux/rocky/8/software/gaussian/16c01_avx2/g16/l701.exe)
 ... and contract with generalized density number  0.
 Compute integral second derivatives.
 Leave Link  701 at Mon Jul 28 11:55:15 2025, MaxMem=  6174015488 cpu:               5.8 elap:               0.2
 (Enter /opt/linux/rocky/8/software/gaussian/16c01_avx2/g16/l702.exe)
 L702 exits ... SP integral derivatives will be done elsewhere.
 Leave Link  702 at Mon Jul 28 11:55:15 2025, MaxMem=  6174015488 cpu:               0.2 elap:               0.0
 (Enter /opt/linux/rocky/8/software/gaussian/16c01_avx2/g16/l703.exe)
 Integral derivatives from FoFJK, PRISM(SPDF).
 Compute integral second derivatives, UseDBF=F ICtDFT=           0.
 Calling FoFJK, ICntrl=    100127 FMM=F ISym2X=0 I1Cent= 0 IOpClX= 0 NMat=1 NMatS=1 NMatT=0.
 FoFJK:  IHMeth= 1 ICntrl=  100127 DoSepK=F KAlg= 0 I1Cent=           0 FoldK=F
 IRaf=         0 NMat=       1 IRICut=       1 DoRegI=T DoRafI=F ISym2E= 0 IDoP0=0 IntGTp=1.
 FoFCou: FMM=F IPFlag=           0 FMFlag=      100000 FMFlg1=         800
         NFxFlg=           0 DoJE=F BraDBF=F KetDBF=F FulRan=T
         wScrn=  0.000000 ICntrl=    100127 IOpCl=  0 I1Cent=           0 NGrid=           0
         NMat0=    1 NMatS0=      1 NMatT0=    0 NMatD0=    1 NMtDS0=    0 NMtDT0=    0
 Symmetry not used in FoFCou.
 Leave Link  703 at Mon Jul 28 11:55:43 2025, MaxMem=  6174015488 cpu:            1017.9 elap:              28.5
 (Enter /opt/linux/rocky/8/software/gaussian/16c01_avx2/g16/l716.exe)
 Dipole        =-1.35085288D-02 4.38273388D-08 3.06202571D-07
 Polarizability= 0.00000000D+00 0.00000000D+00 0.00000000D+00
                 0.00000000D+00 0.00000000D+00 0.00000000D+00
 ***** Axes restored to original set *****
 -------------------------------------------------------------------
 Center     Atomic                   Forces (Hartrees/Bohr)
 Number     Number              X              Y              Z
 -------------------------------------------------------------------
      1        6           0.000017670   -0.000018831    0.000004762
      2        6           0.000041012    0.000113900   -0.000035688
      3        6           0.000087470   -0.000061216   -0.000025545
      4        6           0.000017596    0.000018459   -0.000004207
      5        6           0.000041102   -0.000114136    0.000034945
      6        6           0.000087112    0.000062201    0.000025917
      7        1          -0.000002798   -0.000013848    0.000012413
      8        1          -0.000016048   -0.000022807    0.000004226
      9        1          -0.000002772    0.000013881   -0.000012448
     10        1          -0.000016063    0.000022834   -0.000004229
     11        6          -0.000146953   -0.000114621    0.000068486
     12        1           0.000024526   -0.000013313   -0.000024295
     13        1          -0.000002156   -0.000005291   -0.000016254
     14        6          -0.000146459    0.000114269   -0.000068688
     15        1          -0.000002170    0.000005310    0.000016276
     16        1           0.000024473    0.000013274    0.000024271
     17        6          -0.000007629    0.000135637    0.000012645
     18        1           0.000026111    0.000005854   -0.000002650
     19        1           0.000003756   -0.000004377    0.000004156
     20        6          -0.000007931   -0.000135772   -0.000012474
     21        1           0.000026110   -0.000005787    0.000002689
     22        1           0.000003759    0.000004414   -0.000004277
     23        6           0.000058412    0.000001424    0.000049964
     24        6          -0.000064660    0.000000014    0.000000001
     25        6           0.000027360   -0.000025856    0.000025557
     26        6           0.000058197   -0.000001683   -0.000050011
     27        1          -0.000120830   -0.000000048    0.000000004
     28        6           0.000003809   -0.000000587    0.000000095
     29        1          -0.000018112    0.000001809    0.000006730
     30        6           0.000027290    0.000026995   -0.000025656
     31        1          -0.000002988    0.000000022   -0.000000038
     32        1          -0.000018198   -0.000002124   -0.000006680
 -------------------------------------------------------------------
 Cartesian Forces:  Max     0.000146953 RMS     0.000047441
 FormGI is forming the generalized inverse of G from B-inverse, IUseBI=4.
 Leave Link  716 at Mon Jul 28 11:55:43 2025, MaxMem=  6174015488 cpu:               0.8 elap:               0.0
 (Enter /opt/linux/rocky/8/software/gaussian/16c01_avx2/g16/l103.exe)

 GradGradGradGradGradGradGradGradGradGradGradGradGradGradGradGradGradGrad
 Berny optimization.
 Red2BG is reusing G-inverse.
 Internal  Forces:  Max     0.000120830 RMS     0.000030669
 Search for a saddle point.
 Step number   1 out of a maximum of  192
 All quantities printed in internal units (Hartrees-Bohrs-Radians)
 Swapping is turned off.
 Second derivative matrix not updated -- analytic derivatives used.
 ITU=  0
     Eigenvalues ---   -0.00895   0.00304   0.00330   0.01268   0.01565
     Eigenvalues ---    0.01574   0.01748   0.01828   0.01864   0.01904
     Eigenvalues ---    0.01987   0.02041   0.02121   0.02243   0.02418
     Eigenvalues ---    0.02488   0.02512   0.02819   0.02828   0.03231
     Eigenvalues ---    0.03412   0.03687   0.04165   0.04397   0.04412
     Eigenvalues ---    0.04784   0.04790   0.04953   0.07333   0.07486
     Eigenvalues ---    0.08023   0.08480   0.08712   0.08812   0.09560
     Eigenvalues ---    0.11064   0.11084   0.11125   0.11127   0.11249
     Eigenvalues ---    0.11709   0.11892   0.12239   0.12249   0.12568
     Eigenvalues ---    0.13455   0.17216   0.17306   0.17972   0.18852
     Eigenvalues ---    0.18869   0.19348   0.19481   0.20355   0.21142
     Eigenvalues ---    0.21365   0.22717   0.24032   0.25697   0.26769
     Eigenvalues ---    0.28317   0.29611   0.31362   0.31839   0.32502
     Eigenvalues ---    0.32522   0.32911   0.32989   0.33431   0.33452
     Eigenvalues ---    0.33759   0.34024   0.35093   0.35497   0.35543
     Eigenvalues ---    0.35628   0.35679   0.35789   0.35845   0.38035
     Eigenvalues ---    0.39122   0.39720   0.41758   0.41803   0.44388
     Eigenvalues ---    0.45515   0.48150   0.48503   0.50236   0.53079
 Eigenvectors required to have negative eigenvalues:
                          D56       D62       D58       D64       D55
   1                   -0.28138   0.28138  -0.24004   0.24004  -0.23122
                          D61       D60       D66       D57       D63
   1                    0.23122  -0.22045   0.22045  -0.18988   0.18988
 RFO step:  Lambda0=4.628155498D-14 Lambda=-1.51816906D-06.
 Linear search not attempted -- option 19 set.
 Iteration  1 RMS(Cart)=  0.00087468 RMS(Int)=  0.00000053
 Iteration  2 RMS(Cart)=  0.00000068 RMS(Int)=  0.00000013
 ITry= 1 IFail=0 DXMaxC= 4.28D-03 DCOld= 1.00D+10 DXMaxT= 3.00D-01 DXLimC= 3.00D+00 Rises=F
 Variable       Old X    -DE/DX   Delta X   Delta X   Delta X     New X
                                 (Linear)    (Quad)   (Total)
    R1        2.63952  -0.00000   0.00000  -0.00002  -0.00002   2.63950
    R2        2.66096  -0.00001   0.00000  -0.00003  -0.00003   2.66092
    R3        2.05484  -0.00001   0.00000  -0.00002  -0.00002   2.05482
    R4        2.65874  -0.00004   0.00000  -0.00010  -0.00010   2.65864
    R5        2.05509  -0.00002   0.00000  -0.00008  -0.00008   2.05502
    R6        2.66095  -0.00001   0.00000  -0.00003  -0.00003   2.66092
    R7        2.87857  -0.00012   0.00000  -0.00058  -0.00058   2.87799
    R8        2.63952  -0.00000   0.00000  -0.00002  -0.00002   2.63950
    R9        2.05484  -0.00001   0.00000  -0.00002  -0.00002   2.05482
   R10        2.65874  -0.00004   0.00000  -0.00010  -0.00010   2.65864
   R11        2.05509  -0.00002   0.00000  -0.00008  -0.00008   2.05502
   R12        2.87857  -0.00012   0.00000  -0.00058  -0.00058   2.87799
   R13        2.07036  -0.00003   0.00000  -0.00009  -0.00009   2.07027
   R14        2.07416   0.00000   0.00000   0.00002   0.00002   2.07418
   R15        2.99619  -0.00000   0.00000   0.00029   0.00029   2.99649
   R16        2.07416   0.00000   0.00000   0.00002   0.00002   2.07418
   R17        2.07036  -0.00003   0.00000  -0.00009  -0.00009   2.07027
   R18        2.99619  -0.00000   0.00000   0.00029   0.00029   2.99649
   R19        2.07697   0.00000   0.00000  -0.00000  -0.00000   2.07697
   R20        2.07298  -0.00000   0.00000  -0.00002  -0.00002   2.07296
   R21        2.90167   0.00003   0.00000   0.00041   0.00041   2.90208
   R22        2.07697   0.00000   0.00000  -0.00000  -0.00000   2.07697
   R23        2.07298  -0.00000   0.00000  -0.00002  -0.00002   2.07296
   R24        2.90167   0.00003   0.00000   0.00041   0.00041   2.90208
   R25        2.62579   0.00010   0.00000   0.00023   0.00023   2.62603
   R26        2.64940   0.00001   0.00000   0.00001   0.00001   2.64942
   R27        2.62579   0.00010   0.00000   0.00023   0.00023   2.62603
   R28        1.98447   0.00012   0.00000   0.00014   0.00014   1.98461
   R29        2.65040   0.00002   0.00000   0.00001   0.00001   2.65041
   R30        2.05571  -0.00001   0.00000  -0.00003  -0.00003   2.05568
   R31        2.64940   0.00001   0.00000   0.00001   0.00001   2.64942
   R32        2.65040   0.00002   0.00000   0.00001   0.00001   2.65041
   R33        2.05391  -0.00000   0.00000  -0.00001  -0.00001   2.05391
   R34        2.05571  -0.00001   0.00000  -0.00003  -0.00003   2.05568
    A1        2.10041   0.00003   0.00000   0.00002   0.00002   2.10043
    A2        2.07409   0.00001   0.00000   0.00026   0.00026   2.07435
    A3        2.08482  -0.00003   0.00000  -0.00026  -0.00026   2.08456
    A4        2.08516  -0.00006   0.00000  -0.00047  -0.00047   2.08469
    A5        2.07476   0.00002   0.00000   0.00017   0.00017   2.07492
    A6        2.09459   0.00005   0.00000   0.00038   0.00038   2.09498
    A7        2.03065   0.00005   0.00000   0.00040   0.00040   2.03105
    A8        2.11352  -0.00002   0.00000   0.00009   0.00009   2.11361
    A9        2.09324  -0.00001   0.00000  -0.00024  -0.00024   2.09300
   A10        2.10041   0.00003   0.00000   0.00002   0.00002   2.10043
   A11        2.08482  -0.00003   0.00000  -0.00026  -0.00026   2.08456
   A12        2.07409   0.00001   0.00000   0.00026   0.00026   2.07435
   A13        2.08516  -0.00006   0.00000  -0.00047  -0.00047   2.08469
   A14        2.07476   0.00002   0.00000   0.00017   0.00017   2.07492
   A15        2.09459   0.00005   0.00000   0.00038   0.00038   2.09498
   A16        2.03065   0.00005   0.00000   0.00040   0.00040   2.03105
   A17        2.09324  -0.00001   0.00000  -0.00024  -0.00024   2.09300
   A18        2.11352  -0.00002   0.00000   0.00009   0.00009   2.11361
   A19        1.89686   0.00001   0.00000   0.00016   0.00016   1.89702
   A20        1.95893  -0.00001   0.00000   0.00002   0.00002   1.95895
   A21        1.99002   0.00001   0.00000   0.00014   0.00014   1.99016
   A22        1.86215   0.00001   0.00000   0.00018   0.00018   1.86233
   A23        1.90444  -0.00001   0.00000  -0.00043  -0.00043   1.90401
   A24        1.84661  -0.00002   0.00000  -0.00010  -0.00010   1.84651
   A25        1.95893  -0.00001   0.00000   0.00002   0.00002   1.95895
   A26        1.89686   0.00001   0.00000   0.00016   0.00016   1.89702
   A27        1.99002   0.00001   0.00000   0.00014   0.00014   1.99016
   A28        1.86215   0.00001   0.00000   0.00018   0.00018   1.86233
   A29        1.84661  -0.00002   0.00000  -0.00010  -0.00010   1.84651
   A30        1.90444  -0.00001   0.00000  -0.00043  -0.00043   1.90401
   A31        1.85886   0.00003   0.00000   0.00035   0.00035   1.85921
   A32        1.86306   0.00004   0.00000   0.00004   0.00004   1.86310
   A33        2.11596  -0.00010   0.00000  -0.00023  -0.00023   2.11573
   A34        1.83732  -0.00002   0.00000  -0.00001  -0.00001   1.83731
   A35        1.86221   0.00001   0.00000   0.00004   0.00004   1.86225
   A36        1.90781   0.00003   0.00000  -0.00016  -0.00016   1.90765
   A37        1.85886   0.00003   0.00000   0.00035   0.00035   1.85921
   A38        1.86306   0.00004   0.00000   0.00004   0.00004   1.86310
   A39        2.11596  -0.00010   0.00000  -0.00023  -0.00023   2.11573
   A40        1.83732  -0.00002   0.00000  -0.00001  -0.00001   1.83731
   A41        1.86221   0.00001   0.00000   0.00004   0.00004   1.86225
   A42        1.90781   0.00003   0.00000  -0.00016  -0.00016   1.90765
   A43        2.08392  -0.00000   0.00000   0.00036   0.00036   2.08428
   A44        2.17046  -0.00002   0.00000  -0.00035  -0.00035   2.17011
   A45        2.02407   0.00002   0.00000   0.00007   0.00006   2.02414
   A46        2.21379  -0.00007   0.00000  -0.00019  -0.00019   2.21360
   A47        2.03470   0.00003   0.00000   0.00010   0.00010   2.03479
   A48        2.03470   0.00003   0.00000   0.00010   0.00010   2.03479
   A49        2.08575   0.00000   0.00000   0.00005   0.00005   2.08580
   A50        2.11135  -0.00002   0.00000  -0.00015  -0.00015   2.11120
   A51        2.08600   0.00001   0.00000   0.00011   0.00011   2.08611
   A52        2.08392  -0.00000   0.00000   0.00036   0.00036   2.08428
   A53        2.17046  -0.00002   0.00000  -0.00035  -0.00035   2.17011
   A54        2.02407   0.00002   0.00000   0.00007   0.00007   2.02414
   A55        2.13271   0.00001   0.00000  -0.00001  -0.00001   2.13270
   A56        2.07524  -0.00001   0.00000   0.00001   0.00001   2.07524
   A57        2.07524  -0.00001   0.00000   0.00001   0.00001   2.07524
   A58        2.08575   0.00000   0.00000   0.00004   0.00004   2.08580
   A59        2.11135  -0.00002   0.00000  -0.00015  -0.00015   2.11120
   A60        2.08600   0.00001   0.00000   0.00011   0.00011   2.08611
    D1        0.02459   0.00001   0.00000  -0.00017  -0.00017   0.02442
    D2        2.91133   0.00004   0.00000   0.00024   0.00024   2.91157
    D3       -2.88279  -0.00002   0.00000  -0.00021  -0.00021  -2.88300
    D4        0.00395   0.00001   0.00000   0.00020   0.00020   0.00415
    D5        0.37306  -0.00003   0.00000   0.00032   0.00032   0.37338
    D6       -2.45175  -0.00005   0.00000  -0.00055  -0.00055  -2.45230
    D7       -3.00418   0.00001   0.00000   0.00043   0.00043  -3.00375
    D8        0.45420  -0.00001   0.00000  -0.00045  -0.00045   0.45375
    D9       -0.39584   0.00003   0.00000  -0.00008  -0.00008  -0.39592
   D10        2.42503   0.00006   0.00000   0.00073   0.00073   2.42576
   D11        3.00355   0.00000   0.00000  -0.00047  -0.00047   3.00308
   D12       -0.45878   0.00003   0.00000   0.00035   0.00035  -0.45843
   D13        0.37306  -0.00003   0.00000   0.00032   0.00032   0.37338
   D14       -3.00418   0.00001   0.00000   0.00043   0.00043  -3.00375
   D15       -2.45175  -0.00005   0.00000  -0.00055  -0.00055  -2.45230
   D16        0.45420  -0.00001   0.00000  -0.00045  -0.00045   0.45375
   D17       -3.10004   0.00000   0.00000  -0.00040  -0.00040  -3.10044
   D18        1.12775  -0.00001   0.00000  -0.00074  -0.00074   1.12701
   D19       -0.97164   0.00001   0.00000  -0.00073  -0.00073  -0.97237
   D20       -0.29051   0.00004   0.00000   0.00056   0.00056  -0.28995
   D21       -2.34591   0.00002   0.00000   0.00023   0.00023  -2.34568
   D22        1.83789   0.00005   0.00000   0.00023   0.00023   1.83812
   D23        0.02459   0.00001   0.00000  -0.00017  -0.00017   0.02442
   D24        2.91133   0.00004   0.00000   0.00024   0.00024   2.91157
   D25       -2.88279  -0.00002   0.00000  -0.00021  -0.00021  -2.88300
   D26        0.00395   0.00001   0.00000   0.00020   0.00020   0.00415
   D27       -0.39584   0.00003   0.00000  -0.00008  -0.00009  -0.39592
   D28        2.42503   0.00006   0.00000   0.00073   0.00073   2.42576
   D29        3.00355   0.00000   0.00000  -0.00047  -0.00047   3.00308
   D30       -0.45878   0.00003   0.00000   0.00035   0.00035  -0.45843
   D31       -2.34591   0.00002   0.00000   0.00023   0.00023  -2.34568
   D32       -0.29051   0.00004   0.00000   0.00056   0.00056  -0.28995
   D33        1.83789   0.00005   0.00000   0.00023   0.00023   1.83812
   D34        1.12775  -0.00001   0.00000  -0.00074  -0.00074   1.12701
   D35       -3.10004   0.00000   0.00000  -0.00040  -0.00040  -3.10044
   D36       -0.97164   0.00001   0.00000  -0.00073  -0.00073  -0.97237
   D37        1.33668  -0.00002   0.00000   0.00172   0.00172   1.33841
   D38       -2.99021  -0.00000   0.00000   0.00189   0.00189  -2.98832
   D39       -0.79290   0.00000   0.00000   0.00151   0.00151  -0.79138
   D40       -2.82228  -0.00001   0.00000   0.00172   0.00172  -2.82056
   D41       -0.86598   0.00001   0.00000   0.00188   0.00188  -0.86410
   D42        1.33133   0.00002   0.00000   0.00151   0.00151   1.33283
   D43       -0.82458  -0.00000   0.00000   0.00168   0.00168  -0.82290
   D44        1.13172   0.00001   0.00000   0.00184   0.00184   1.13356
   D45       -2.95416   0.00002   0.00000   0.00147   0.00147  -2.95269
   D46        1.33668  -0.00002   0.00000   0.00172   0.00172   1.33841
   D47       -2.99021  -0.00000   0.00000   0.00189   0.00189  -2.98832
   D48       -0.79290   0.00000   0.00000   0.00151   0.00151  -0.79138
   D49       -0.82458  -0.00000   0.00000   0.00168   0.00168  -0.82290
   D50        1.13172   0.00001   0.00000   0.00184   0.00184   1.13356
   D51       -2.95416   0.00002   0.00000   0.00147   0.00147  -2.95269
   D52       -2.82228  -0.00001   0.00000   0.00172   0.00172  -2.82056
   D53       -0.86598   0.00001   0.00000   0.00188   0.00188  -0.86410
   D54        1.33133   0.00002   0.00000   0.00151   0.00151   1.33283
   D55        0.61280  -0.00003   0.00000  -0.00202  -0.00202   0.61078
   D56       -2.63759  -0.00002   0.00000  -0.00110  -0.00110  -2.63869
   D57       -1.51518  -0.00002   0.00000  -0.00238  -0.00238  -1.51755
   D58        1.51761  -0.00001   0.00000  -0.00146  -0.00146   1.51615
   D59        2.78955  -0.00002   0.00000  -0.00231  -0.00231   2.78724
   D60       -0.46085  -0.00001   0.00000  -0.00139  -0.00139  -0.46223
   D61        0.61280  -0.00003   0.00000  -0.00202  -0.00202   0.61078
   D62       -2.63759  -0.00002   0.00000  -0.00110  -0.00110  -2.63869
   D63       -1.51518  -0.00002   0.00000  -0.00238  -0.00238  -1.51755
   D64        1.51761  -0.00001   0.00000  -0.00146  -0.00146   1.51615
   D65        2.78955  -0.00002   0.00000  -0.00231  -0.00231   2.78724
   D66       -0.46085  -0.00001   0.00000  -0.00139  -0.00139  -0.46223
   D67        3.03258   0.00001   0.00000   0.00115   0.00115   3.03373
   D68       -0.10902   0.00001   0.00000   0.00115   0.00116  -0.10786
   D69       -0.00914   0.00000   0.00000   0.00034   0.00034  -0.00880
   D70        3.13245   0.00000   0.00000   0.00034   0.00034   3.13279
   D71       -3.01808  -0.00002   0.00000  -0.00158  -0.00158  -3.01966
   D72        0.10977  -0.00001   0.00000  -0.00127  -0.00127   0.10849
   D73        0.01809  -0.00001   0.00000  -0.00067  -0.00067   0.01742
   D74       -3.13725  -0.00000   0.00000  -0.00036  -0.00036  -3.13762
   D75        3.03258   0.00001   0.00000   0.00115   0.00115   3.03373
   D76       -0.00914   0.00000   0.00000   0.00034   0.00034  -0.00880
   D77       -0.10901   0.00001   0.00000   0.00115   0.00115  -0.10786
   D78        3.13246   0.00000   0.00000   0.00034   0.00034   3.13279
   D79       -0.00955   0.00000   0.00000   0.00035   0.00035  -0.00920
   D80        3.13204   0.00000   0.00000   0.00035   0.00035   3.13239
   D81       -3.13760  -0.00000   0.00000   0.00005   0.00005  -3.13755
   D82        0.00399  -0.00000   0.00000   0.00006   0.00006   0.00404
   D83       -3.01808  -0.00002   0.00000  -0.00158  -0.00158  -3.01966
   D84        0.10977  -0.00001   0.00000  -0.00127  -0.00127   0.10849
   D85        0.01809  -0.00001   0.00000  -0.00067  -0.00067   0.01742
   D86       -3.13725  -0.00000   0.00000  -0.00036  -0.00036  -3.13762
   D87       -0.00955   0.00000   0.00000   0.00035   0.00035  -0.00920
   D88       -3.13760  -0.00000   0.00000   0.00005   0.00005  -3.13755
   D89        3.13204   0.00000   0.00000   0.00035   0.00035   3.13239
   D90        0.00399  -0.00000   0.00000   0.00005   0.00005   0.00404
         Item               Value     Threshold  Converged?
 Maximum Force            0.000121     0.000002     NO 
 RMS     Force            0.000031     0.000001     NO 
 Maximum Displacement     0.004282     0.000006     NO 
 RMS     Displacement     0.000875     0.000004     NO 
 Predicted change in Energy=-7.590845D-07
 Lowest energy point so far.  Saving SCF results.
 GradGradGradGradGradGradGradGradGradGradGradGradGradGradGradGradGradGrad

 Leave Link  103 at Mon Jul 28 11:55:44 2025, MaxMem=  6174015488 cpu:               2.0 elap:               0.1
 (Enter /opt/linux/rocky/8/software/gaussian/16c01_avx2/g16/l202.exe)
                          Input orientation:                          
 ---------------------------------------------------------------------
 Center     Atomic      Atomic             Coordinates (Angstroms)
 Number     Number       Type             X           Y           Z
 ---------------------------------------------------------------------
      1          6           0       -2.037995   -0.532333   -1.274616
      2          6           0       -2.053549    0.852851   -1.095822
      3          6           0       -1.804350    1.388191    0.181149
      4          6           0       -2.037994    0.532336    1.274616
      5          6           0       -2.053549   -0.852849    1.095822
      6          6           0       -1.804352   -1.388189   -0.181148
      7          1           0       -1.987097   -0.930399   -2.285217
      8          1           0       -2.018300    1.496024   -1.971992
      9          1           0       -1.987096    0.930401    2.285217
     10          1           0       -2.018301   -1.496022    1.971992
     11          6           0       -0.939272    2.628945    0.358900
     12          1           0       -0.846007    2.841474    1.429572
     13          1           0       -1.388858    3.518246   -0.101273
     14          6           0       -0.939275   -2.628944   -0.358900
     15          1           0       -1.388862   -3.518244    0.101273
     16          1           0       -0.846011   -2.841473   -1.429572
     17          6           0        0.509588    2.501777   -0.272755
     18          1           0        0.389336    2.625320   -1.358235
     19          1           0        1.076500    3.381078    0.057049
     20          6           0        0.509585   -2.501778    0.272755
     21          1           0        0.389333   -2.625321    1.358235
     22          1           0        1.076496   -3.381079   -0.057049
     23          6           0        1.361265   -1.241071    0.063777
     24          6           0        0.739368   -0.000000   -0.000000
     25          6           0        2.763154   -1.226741    0.051937
     26          6           0        1.361267    1.241070   -0.063778
     27          1           0       -0.310842    0.000000   -0.000000
     28          6           0        3.441033   -0.000002   -0.000000
     29          1           0        3.332694   -2.152548    0.094965
     30          6           0        2.763155    1.226737   -0.051937
     31          1           0        4.527914   -0.000003   -0.000001
     32          1           0        3.332697    2.152544   -0.094965
 ---------------------------------------------------------------------
                    Distance matrix (angstroms):
                    1          2          3          4          5
     1  C    0.000000
     2  C    1.396762   0.000000
     3  C    2.421209   1.406891   0.000000
     4  C    2.762626   2.392059   1.408101   0.000000
     5  C    2.392059   2.777178   2.433308   1.396762   0.000000
     6  C    1.408101   2.433308   2.799919   2.421209   1.406891
     7  H    1.087364   2.144541   3.390017   3.848972   3.382581
     8  H    2.144984   1.087469   2.166430   3.386672   3.863927
     9  H    3.848972   3.382581   2.161034   1.087364   2.144541
    10  H    3.386672   3.863927   3.401703   2.144984   1.087469
    11  C    3.724143   2.551928   1.522966   2.538010   3.729283
    12  H    4.485091   3.433714   2.142198   2.603260   3.900970
    13  H    4.266767   2.921518   2.188500   3.351135   4.580537
    14  C    2.538010   3.729283   4.144560   3.724143   2.551928
    15  H    3.351135   4.580537   4.924644   4.266767   2.921518
    16  H    2.603260   3.900970   4.626326   4.485091   3.433714
    17  C    4.086530   3.156907   2.607760   3.572566   4.438039
    18  H    3.983680   3.029553   2.951686   4.147821   4.907927
    19  H    5.175732   4.185481   3.505182   4.392935   5.366787
    20  C    3.572566   4.438039   4.527090   4.086530   3.156907
    21  H    4.147821   4.907927   4.722929   3.983680   3.029553
    22  H    4.392935   5.366787   5.576913   5.175732   4.185481
    23  C    3.721367   4.170148   4.116785   4.020705   3.588425
    24  C    3.101897   3.119065   2.903514   3.101897   3.119065
    25  C    5.029212   5.370538   5.264661   5.257406   4.942684
    26  C    4.020705   3.588425   3.178485   3.721367   4.170148
    27  H    2.211579   2.228274   2.047060   2.211579   2.228274
    28  C    5.650466   5.667328   5.428991   5.650466   5.667328
    29  H    5.774525   6.281879   6.239670   6.119188   5.630502
    30  C    5.257406   4.942684   4.576298   5.029212   5.370538
    31  H    6.709633   6.726353   6.485173   6.709633   6.726353
    32  H    6.119188   5.630502   5.200935   5.774525   6.281879
                    6          7          8          9         10
     6  C    0.000000
     7  H    2.161034   0.000000
     8  H    3.401703   2.446756   0.000000
     9  H    3.390017   4.934718   4.294733   0.000000
    10  H    2.166430   4.294733   4.950490   2.446756   0.000000
    11  C    4.144560   4.556118   2.807288   2.773749   4.558697
    12  H    4.626326   5.415604   3.841242   2.384619   4.525745
    13  H    4.924644   4.991787   2.825804   3.570737   5.462372
    14  C    1.522966   2.773749   4.558697   4.556118   2.807288
    15  H    2.188500   3.570737   5.462372   4.991787   2.825804
    16  H    2.142198   2.384619   4.525745   5.415604   3.841242
    17  C    4.527090   4.697156   3.207672   3.904596   5.235601
    18  H    4.722929   4.376057   2.729234   4.668503   5.820017
    19  H    5.576913   5.784520   4.153098   4.511781   6.085303
    20  C    2.607760   3.904596   5.235601   4.697156   3.207672
    21  H    2.951686   4.668503   5.820017   4.376057   2.729234
    22  H    3.505182   4.511781   6.085303   5.784520   4.153098
    23  C    3.178485   4.101929   4.801824   4.567451   3.889441
    24  C    2.903514   3.677155   3.705614   3.677155   3.705614
    25  C    4.576298   5.302357   5.862767   5.675004   5.159597
    26  C    4.116785   4.567451   3.889441   4.101929   4.801824
    27  H    2.047060   2.982899   3.007034   2.982899   3.007034
    28  C    5.428991   5.962587   5.994261   5.962587   5.994261
    29  H    5.200935   5.954754   6.798347   6.527016   5.708538
    30  C    5.264661   5.675004   5.159597   5.302357   5.862767
    31  H    6.485173   6.966579   6.998554   6.966579   6.998554
    32  H    6.239670   6.527016   5.708538   5.954754   6.798347
                   11         12         13         14         15
    11  C    0.000000
    12  H    1.095539   0.000000
    13  H    1.097608   1.759600   0.000000
    14  C    5.306658   5.756110   6.168990   0.000000
    15  H    6.168990   6.519593   7.039405   1.097608   0.000000
    16  H    5.756110   6.361650   6.519593   1.095539   1.759600
    17  C    1.585672   2.202487   2.160257   5.332065   6.323343
    18  H    2.171120   3.056904   2.353560   5.511004   6.560148
    19  H    2.172592   2.423020   2.474242   6.352694   7.326706
    20  C    5.332065   5.632601   6.323343   1.585672   2.160257
    21  H    5.511004   5.605087   6.560148   2.171120   2.353560
    22  H    6.352694   6.680287   7.326706   2.172592   2.474242
    23  C    4.511828   4.837833   5.499229   2.719804   3.570732
    24  C    3.139744   3.554022   4.113108   3.139744   4.113108
    25  C    5.354297   5.610196   6.306946   3.980319   4.742643
    26  C    2.719804   3.108608   3.570732   4.511828   5.499229
    27  H    2.726735   3.225531   3.681091   2.726735   3.681091
    28  C    5.121254   5.338200   5.976301   5.121254   5.976301
    29  H    6.417322   6.647028   7.381698   4.322345   4.915105
    30  C    3.980319   4.222357   4.742643   5.354297   6.306946
    31  H    6.077030   6.244733   6.884513   6.077030   6.884513
    32  H    4.322345   4.501156   4.915105   6.417322   7.381698
                   16         17         18         19         20
    16  H    0.000000
    17  C    5.632601   0.000000
    18  H    5.605087   1.099085   0.000000
    19  H    6.680287   1.096964   1.745392   0.000000
    20  C    2.202487   5.033204   5.381610   5.914044   0.000000
    21  H    3.056904   5.381610   5.911721   6.184021   1.099085
    22  H    2.423020   5.914044   6.184021   6.763120   1.096964
    23  C    3.108608   3.853249   4.232700   4.630918   1.535712
    24  C    3.554022   2.527071   2.976514   3.398324   2.527071
    25  C    4.222357   4.368733   4.739406   4.906814   2.598664
    26  C    4.837833   1.535712   2.129887   2.162250   3.853249
    27  H    3.225531   2.646959   3.037657   3.655087   2.646959
    28  C    5.338200   3.863504   4.248526   4.126254   3.863504
    29  H    4.501156   5.455996   5.796824   5.976024   2.850178
    30  C    5.610196   2.598664   3.049174   2.738223   4.368733
    31  H    6.244733   4.741333   5.085759   4.831896   4.741333
    32  H    6.647028   2.850178   3.237705   2.573485   5.455996
                   21         22         23         24         25
    21  H    0.000000
    22  H    1.745392   0.000000
    23  C    2.129887   2.162250   0.000000
    24  C    2.976514   3.398324   1.389633   0.000000
    25  C    3.049174   2.738223   1.402012   2.367128   0.000000
    26  C    4.232700   4.630918   2.485416   1.389633   2.840557
    27  H    3.037657   3.655087   2.083331   1.050210   3.310142
    28  C    4.248526   4.126254   2.422757   2.701664   1.402535
    29  H    3.237705   2.573485   2.172163   3.371619   1.087817
    30  C    4.739406   4.906814   2.840557   2.367128   2.455676
    31  H    5.085759   4.831896   3.401761   3.788545   2.149875
    32  H    5.796824   5.976024   3.927896   3.371619   3.430091
                   26         27         28         29         30
    26  C    0.000000
    27  H    2.083331   0.000000
    28  C    2.422757   3.751875   0.000000
    29  H    3.927896   4.232947   2.157362   0.000000
    30  C    1.402012   3.310142   1.402535   3.430091   0.000000
    31  H    3.401761   4.838756   1.086881   2.463944   2.149875
    32  H    2.172163   4.232947   2.157362   4.309280   1.087817
                   31         32
    31  H    0.000000
    32  H    2.463944   0.000000
 Stoichiometry    C16H16
 Framework group  C1[X(C16H16)]
 Deg. of freedom    90
 Full point group                 C1      NOp   1
 RotChk:  IX=3 Diff= 7.91D-07
 Largest Abelian subgroup         C1      NOp   1
 Largest concise Abelian subgroup C1      NOp   1
                         Standard orientation:                         
 ---------------------------------------------------------------------
 Center     Atomic      Atomic             Coordinates (Angstroms)
 Number     Number       Type             X           Y           Z
 ---------------------------------------------------------------------
      1          6           0       -2.038013   -0.532335   -1.274615
      2          6           0       -2.053568    0.852850   -1.095822
      3          6           0       -1.804370    1.388190    0.181149
      4          6           0       -2.038013    0.532335    1.274616
      5          6           0       -2.053567   -0.852850    1.095822
      6          6           0       -1.804370   -1.388190   -0.181148
      7          1           0       -1.987115   -0.930400   -2.285216
      8          1           0       -2.018319    1.496023   -1.971992
      9          1           0       -1.987115    0.930400    2.285217
     10          1           0       -2.018319   -1.496023    1.971992
     11          6           0       -0.939292    2.628944    0.358900
     12          1           0       -0.846028    2.841474    1.429572
     13          1           0       -1.388878    3.518245   -0.101273
     14          6           0       -0.939292   -2.628944   -0.358899
     15          1           0       -1.388878   -3.518245    0.101273
     16          1           0       -0.846028   -2.841474   -1.429572
     17          6           0        0.509568    2.501778   -0.272755
     18          1           0        0.389316    2.625321   -1.358235
     19          1           0        1.076480    3.381079    0.057049
     20          6           0        0.509568   -2.501778    0.272755
     21          1           0        0.389316   -2.625321    1.358235
     22          1           0        1.076480   -3.381079   -0.057049
     23          6           0        1.361248   -1.241070    0.063777
     24          6           0        0.739350    0.000000   -0.000000
     25          6           0        2.763136   -1.226739    0.051937
     26          6           0        1.361248    1.241070   -0.063778
     27          1           0       -0.310860    0.000000    0.000000
     28          6           0        3.441014    0.000000   -0.000000
     29          1           0        3.332677   -2.152546    0.094965
     30          6           0        2.763136    1.226739   -0.051937
     31          1           0        4.527895    0.000000   -0.000000
     32          1           0        3.332677    2.152546   -0.094965
 ---------------------------------------------------------------------
 Rotational constants (GHZ):           0.7735590           0.5945923           0.3877058
 Leave Link  202 at Mon Jul 28 11:55:44 2025, MaxMem=  6174015488 cpu:               0.1 elap:               0.0
 (Enter /opt/linux/rocky/8/software/gaussian/16c01_avx2/g16/l301.exe)
 Standard basis: 6-31G(d,p) (6D, 7F)
 Ernie: Thresh=  0.10000D-02 Tol=  0.10000D-05 Strict=F.
 There are   320 symmetry adapted cartesian basis functions of A   symmetry.
 There are   320 symmetry adapted basis functions of A   symmetry.
   320 basis functions,   560 primitive gaussians,   320 cartesian basis functions
    56 alpha electrons       56 beta electrons
       nuclear repulsion energy      1060.8010488379 Hartrees.
 IExCor=  402 DFT=T Ex+Corr=B3LYP ExCW=0 ScaHFX=  0.200000
 ScaDFX=  0.800000  0.720000  1.000000  0.810000 ScalE2=  1.000000  1.000000
 IRadAn=      5 IRanWt=     -1 IRanGd=            0 ICorTp=0 IEmpDi=  4
 NAtoms=   32 NActive=   32 NUniq=   32 SFac= 1.00D+00 NAtFMM=   60 NAOKFM=F Big=F
 Integral buffers will be    131072 words long.
 Raffenetti 2 integral format.
 Two-electron integral symmetry is turned on.
 Leave Link  301 at Mon Jul 28 11:55:44 2025, MaxMem=  6174015488 cpu:               0.7 elap:               0.0
 (Enter /opt/linux/rocky/8/software/gaussian/16c01_avx2/g16/l302.exe)
 NPDir=0 NMtPBC=     1 NCelOv=     1 NCel=       1 NClECP=     1 NCelD=      1
         NCelK=      1 NCelE2=     1 NClLst=     1 CellRange=     0.0.
 One-electron integrals computed using PRISM.
 One-electron integral symmetry used in STVInt
 NBasis=   320 RedAO= T EigKep=  3.66D-04  NBF=   320
 NBsUse=   320 1.00D-06 EigRej= -1.00D+00 NBFU=   320
 Precomputing XC quadrature grid using
 IXCGrd= 4 IRadAn=           5 IRanWt=          -1 IRanGd=           0 AccXCQ= 0.00D+00.
 Generated NRdTot=       0 NPtTot=           0 NUsed=           0 NTot=          32
 NSgBfM=   320   320   320   320   320 MxSgAt=    32 MxSgA2=    32.
 Leave Link  302 at Mon Jul 28 11:55:44 2025, MaxMem=  6174015488 cpu:               6.5 elap:               0.2
 (Enter /opt/linux/rocky/8/software/gaussian/16c01_avx2/g16/l303.exe)
 DipDrv:  MaxL=1.
 Leave Link  303 at Mon Jul 28 11:55:44 2025, MaxMem=  6174015488 cpu:               0.7 elap:               0.0
 (Enter /opt/linux/rocky/8/software/gaussian/16c01_avx2/g16/l401.exe)
 Initial guess from the checkpoint file:  "metapara_b3lyp631gdp_ts_vtight.chk"
 B after Tr=     0.000000   -0.000000   -0.000000
         Rot=    1.000000    0.000029    0.000000   -0.000000 Ang=   0.00 deg.
 Guess basis will be translated and rotated to current coordinates.
 JPrj=2 DoOrth=T DoCkMO=T.
 Leave Link  401 at Mon Jul 28 11:55:44 2025, MaxMem=  6174015488 cpu:               3.2 elap:               0.1
 (Enter /opt/linux/rocky/8/software/gaussian/16c01_avx2/g16/l502.exe)
 Integral symmetry usage will be decided dynamically.
 Closed shell SCF:
 Using DIIS extrapolation, IDIIS=  1040.
 NGot=  6174015488 LenX=  6173794922 LenY=  6173692081
 Requested convergence on RMS density matrix=1.00D-10 within 128 cycles.
 Requested convergence on MAX density matrix=1.00D-08.
 Requested convergence on             energy=1.00D-08.
 No special actions if energy rises.
 Fock matrices will be formed incrementally for  20 cycles.

 Cycle   1  Pass 1  IDiag  1:
 FoFJK:  IHMeth= 1 ICntrl=       0 DoSepK=F KAlg= 0 I1Cent=           0 FoldK=F
 IRaf= 880000000 NMat=       1 IRICut=       1 DoRegI=T DoRafI=F ISym2E= 0 IDoP0=0 IntGTp=1.
 FoFCou: FMM=F IPFlag=           0 FMFlag=      100000 FMFlg1=           0
         NFxFlg=           0 DoJE=F BraDBF=F KetDBF=F FulRan=T
         wScrn=  0.000000 ICntrl=         0 IOpCl=  0 I1Cent=           0 NGrid=           0
         NMat0=    1 NMatS0=      1 NMatT0=    0 NMatD0=    1 NMtDS0=    0 NMtDT0=    0
 Symmetry not used in FoFCou.
 E= -619.311269437664    
 DIIS: error= 6.14D-05 at cycle   1 NSaved=   1.
 NSaved= 1 IEnMin= 1 EnMin= -619.311269437664     IErMin= 1 ErrMin= 6.14D-05
 ErrMax= 6.14D-05  0.00D+00 EMaxC= 1.00D-01 BMatC= 1.26D-06 BMatP= 1.26D-06
 IDIUse=1 WtCom= 1.00D+00 WtEn= 0.00D+00
 Coeff-Com:  0.100D+01
 Coeff:      0.100D+01
 Gap=     1.603 Goal=   None    Shift=    0.000
 RMSDP=6.51D-06 MaxDP=2.29D-04              OVMax= 3.67D-04

 Cycle   2  Pass 1  IDiag  1:
 RMSU=  6.51D-06    CP:  1.00D+00
 E= -619.311271949780     Delta-E=       -0.000002512116 Rises=F Damp=F
 DIIS: error= 8.45D-06 at cycle   2 NSaved=   2.
 NSaved= 2 IEnMin= 2 EnMin= -619.311271949780     IErMin= 2 ErrMin= 8.45D-06
 ErrMax= 8.45D-06  0.00D+00 EMaxC= 1.00D-01 BMatC= 2.79D-08 BMatP= 1.26D-06
 IDIUse=1 WtCom= 1.00D+00 WtEn= 0.00D+00
 Coeff-Com: -0.528D-01 0.105D+01
 Coeff:     -0.528D-01 0.105D+01
 Gap=     0.205 Goal=   None    Shift=    0.000
 RMSDP=1.44D-06 MaxDP=6.41D-05 DE=-2.51D-06 OVMax= 1.26D-04

 Cycle   3  Pass 1  IDiag  1:
 RMSU=  1.38D-06    CP:  1.00D+00  1.06D+00
 E= -619.311271947454     Delta-E=        0.000000002326 Rises=F Damp=F
 DIIS: error= 1.06D-05 at cycle   3 NSaved=   3.
 NSaved= 3 IEnMin= 2 EnMin= -619.311271949780     IErMin= 2 ErrMin= 8.45D-06
 ErrMax= 1.06D-05  0.00D+00 EMaxC= 1.00D-01 BMatC= 4.47D-08 BMatP= 2.79D-08
 IDIUse=1 WtCom= 1.00D+00 WtEn= 0.00D+00
 Coeff-Com: -0.499D-01 0.621D+00 0.429D+00
 Coeff:     -0.499D-01 0.621D+00 0.429D+00
 Gap=     0.205 Goal=   None    Shift=    0.000
 RMSDP=8.95D-07 MaxDP=4.78D-05 DE= 2.33D-09 OVMax= 9.99D-05

 Cycle   4  Pass 1  IDiag  1:
 RMSU=  4.40D-07    CP:  1.00D+00  1.08D+00  4.46D-01
 E= -619.311271994281     Delta-E=       -0.000000046827 Rises=F Damp=F
 DIIS: error= 2.49D-06 at cycle   4 NSaved=   4.
 NSaved= 4 IEnMin= 4 EnMin= -619.311271994281     IErMin= 4 ErrMin= 2.49D-06
 ErrMax= 2.49D-06  0.00D+00 EMaxC= 1.00D-01 BMatC= 1.81D-09 BMatP= 2.79D-08
 IDIUse=1 WtCom= 1.00D+00 WtEn= 0.00D+00
 Coeff-Com: -0.212D-01 0.241D+00 0.225D+00 0.555D+00
 Coeff:     -0.212D-01 0.241D+00 0.225D+00 0.555D+00
 Gap=     0.205 Goal=   None    Shift=    0.000
 RMSDP=2.26D-07 MaxDP=9.03D-06 DE=-4.68D-08 OVMax= 2.38D-05

 Cycle   5  Pass 1  IDiag  1:
 RMSU=  1.75D-07    CP:  1.00D+00  1.09D+00  4.91D-01  7.08D-01
 E= -619.311271996073     Delta-E=       -0.000000001792 Rises=F Damp=F
 DIIS: error= 8.62D-07 at cycle   5 NSaved=   5.
 NSaved= 5 IEnMin= 5 EnMin= -619.311271996073     IErMin= 5 ErrMin= 8.62D-07
 ErrMax= 8.62D-07  0.00D+00 EMaxC= 1.00D-01 BMatC= 2.76D-10 BMatP= 1.81D-09
 IDIUse=1 WtCom= 1.00D+00 WtEn= 0.00D+00
 Coeff-Com: -0.328D-02 0.284D-01 0.549D-01 0.314D+00 0.606D+00
 Coeff:     -0.328D-02 0.284D-01 0.549D-01 0.314D+00 0.606D+00
 Gap=     0.205 Goal=   None    Shift=    0.000
 RMSDP=7.73D-08 MaxDP=2.67D-06 DE=-1.79D-09 OVMax= 5.14D-06

 Cycle   6  Pass 1  IDiag  1:
 RMSU=  4.28D-08    CP:  1.00D+00  1.09D+00  5.01D-01  7.81D-01  6.92D-01
 E= -619.311271996369     Delta-E=       -0.000000000296 Rises=F Damp=F
 DIIS: error= 1.61D-07 at cycle   6 NSaved=   6.
 NSaved= 6 IEnMin= 6 EnMin= -619.311271996369     IErMin= 6 ErrMin= 1.61D-07
 ErrMax= 1.61D-07  0.00D+00 EMaxC= 1.00D-01 BMatC= 1.50D-11 BMatP= 2.76D-10
 IDIUse=1 WtCom= 1.00D+00 WtEn= 0.00D+00
 Coeff-Com:  0.141D-03-0.636D-02 0.679D-02 0.989D-01 0.274D+00 0.627D+00
 Coeff:      0.141D-03-0.636D-02 0.679D-02 0.989D-01 0.274D+00 0.627D+00
 Gap=     0.205 Goal=   None    Shift=    0.000
 RMSDP=1.78D-08 MaxDP=6.87D-07 DE=-2.96D-10 OVMax= 1.19D-06

 Cycle   7  Pass 1  IDiag  1:
 RMSU=  1.04D-08    CP:  1.00D+00  1.09D+00  5.03D-01  7.89D-01  7.24D-01
                    CP:  7.10D-01
 E= -619.311271996378     Delta-E=       -0.000000000009 Rises=F Damp=F
 DIIS: error= 6.56D-08 at cycle   7 NSaved=   7.
 NSaved= 7 IEnMin= 7 EnMin= -619.311271996378     IErMin= 7 ErrMin= 6.56D-08
 ErrMax= 6.56D-08  0.00D+00 EMaxC= 1.00D-01 BMatC= 2.25D-12 BMatP= 1.50D-11
 IDIUse=1 WtCom= 1.00D+00 WtEn= 0.00D+00
 Coeff-Com:  0.380D-03-0.604D-02-0.196D-02 0.215D-01 0.834D-01 0.334D+00
 Coeff-Com:  0.569D+00
 Coeff:      0.380D-03-0.604D-02-0.196D-02 0.215D-01 0.834D-01 0.334D+00
 Coeff:      0.569D+00
 Gap=     0.205 Goal=   None    Shift=    0.000
 RMSDP=5.45D-09 MaxDP=3.12D-07 DE=-9.09D-12 OVMax= 3.87D-07

 Cycle   8  Pass 1  IDiag  1:
 RMSU=  2.95D-09    CP:  1.00D+00  1.09D+00  5.02D-01  7.91D-01  7.29D-01
                    CP:  7.29D-01  6.12D-01
 E= -619.311271996385     Delta-E=       -0.000000000007 Rises=F Damp=F
 DIIS: error= 1.25D-08 at cycle   8 NSaved=   8.
 NSaved= 8 IEnMin= 8 EnMin= -619.311271996385     IErMin= 8 ErrMin= 1.25D-08
 ErrMax= 1.25D-08  0.00D+00 EMaxC= 1.00D-01 BMatC= 5.22D-14 BMatP= 2.25D-12
 IDIUse=1 WtCom= 1.00D+00 WtEn= 0.00D+00
 Coeff-Com:  0.120D-03-0.168D-02-0.118D-02 0.133D-02 0.112D-01 0.769D-01
 Coeff-Com:  0.196D+00 0.717D+00
 Coeff:      0.120D-03-0.168D-02-0.118D-02 0.133D-02 0.112D-01 0.769D-01
 Coeff:      0.196D+00 0.717D+00
 Gap=     0.205 Goal=   None    Shift=    0.000
 RMSDP=1.26D-09 MaxDP=2.92D-08 DE=-6.82D-12 OVMax= 5.49D-08

 Cycle   9  Pass 1  IDiag  1:
 RMSU=  9.43D-10    CP:  1.00D+00  1.09D+00  5.02D-01  7.91D-01  7.29D-01
                    CP:  7.39D-01  6.49D-01  8.09D-01
 E= -619.311271996385     Delta-E=       -0.000000000000 Rises=F Damp=F
 DIIS: error= 3.25D-09 at cycle   9 NSaved=   9.
 NSaved= 9 IEnMin= 9 EnMin= -619.311271996385     IErMin= 9 ErrMin= 3.25D-09
 ErrMax= 3.25D-09  0.00D+00 EMaxC= 1.00D-01 BMatC= 6.72D-15 BMatP= 5.22D-14
 IDIUse=1 WtCom= 1.00D+00 WtEn= 0.00D+00
 Coeff-Com:  0.281D-04-0.334D-03-0.397D-03-0.909D-03-0.626D-03 0.118D-01
 Coeff-Com:  0.502D-01 0.324D+00 0.616D+00
 Coeff:      0.281D-04-0.334D-03-0.397D-03-0.909D-03-0.626D-03 0.118D-01
 Coeff:      0.502D-01 0.324D+00 0.616D+00
 Gap=     0.205 Goal=   None    Shift=    0.000
 RMSDP=4.21D-10 MaxDP=1.16D-08 DE=-4.55D-13 OVMax= 3.42D-08

 Cycle  10  Pass 1  IDiag  1:
 RMSU=  3.07D-10    CP:  1.00D+00  1.09D+00  5.02D-01  7.91D-01  7.29D-01
                    CP:  7.40D-01  6.50D-01  8.55D-01  7.37D-01
 E= -619.311271996386     Delta-E=       -0.000000000001 Rises=F Damp=F
 DIIS: error= 1.75D-09 at cycle  10 NSaved=  10.
 NSaved=10 IEnMin=10 EnMin= -619.311271996386     IErMin=10 ErrMin= 1.75D-09
 ErrMax= 1.75D-09  0.00D+00 EMaxC= 1.00D-01 BMatC= 1.84D-15 BMatP= 6.72D-15
 IDIUse=1 WtCom= 1.00D+00 WtEn= 0.00D+00
 Coeff-Com:  0.221D-05 0.776D-05-0.950D-04-0.752D-03-0.182D-02-0.251D-02
 Coeff-Com:  0.657D-02 0.112D+00 0.382D+00 0.504D+00
 Coeff:      0.221D-05 0.776D-05-0.950D-04-0.752D-03-0.182D-02-0.251D-02
 Coeff:      0.657D-02 0.112D+00 0.382D+00 0.504D+00
 Gap=     0.205 Goal=   None    Shift=    0.000
 RMSDP=2.02D-10 MaxDP=6.65D-09 DE=-9.09D-13 OVMax= 2.10D-08

 Cycle  11  Pass 1  IDiag  1:
 RMSU=  1.15D-10    CP:  1.00D+00  1.09D+00  5.02D-01  7.91D-01  7.29D-01
                    CP:  7.40D-01  6.51D-01  8.63D-01  7.75D-01  4.84D-01
 E= -619.311271996389     Delta-E=       -0.000000000003 Rises=F Damp=F
 DIIS: error= 7.11D-10 at cycle  11 NSaved=  11.
 NSaved=11 IEnMin=11 EnMin= -619.311271996389     IErMin=11 ErrMin= 7.11D-10
 ErrMax= 7.11D-10  0.00D+00 EMaxC= 1.00D-01 BMatC= 2.65D-16 BMatP= 1.84D-15
 IDIUse=1 WtCom= 1.00D+00 WtEn= 0.00D+00
 Coeff-Com: -0.193D-05 0.452D-04-0.115D-04-0.373D-03-0.109D-02-0.307D-02
 Coeff-Com: -0.184D-02 0.322D-01 0.172D+00 0.326D+00 0.477D+00
 Coeff:     -0.193D-05 0.452D-04-0.115D-04-0.373D-03-0.109D-02-0.307D-02
 Coeff:     -0.184D-02 0.322D-01 0.172D+00 0.326D+00 0.477D+00
 Gap=     0.205 Goal=   None    Shift=    0.000
 RMSDP=7.02D-11 MaxDP=2.31D-09 DE=-2.50D-12 OVMax= 7.09D-09

 SCF Done:  E(RB3LYP) =  -619.311271996     A.U. after   11 cycles
            NFock= 11  Conv=0.70D-10     -V/T= 2.0099
 KE= 6.132512605977D+02 PE=-3.554855257136D+03 EE= 1.261491675703D+03
 Leave Link  502 at Mon Jul 28 11:55:53 2025, MaxMem=  6174015488 cpu:             297.2 elap:               8.3
 (Enter /opt/linux/rocky/8/software/gaussian/16c01_avx2/g16/l701.exe)
 ... and contract with generalized density number  0.
 Compute integral first derivatives.
 Leave Link  701 at Mon Jul 28 11:55:53 2025, MaxMem=  6174015488 cpu:               4.9 elap:               0.2
 (Enter /opt/linux/rocky/8/software/gaussian/16c01_avx2/g16/l702.exe)
 L702 exits ... SP integral derivatives will be done elsewhere.
 Leave Link  702 at Mon Jul 28 11:55:53 2025, MaxMem=  6174015488 cpu:               0.2 elap:               0.0
 (Enter /opt/linux/rocky/8/software/gaussian/16c01_avx2/g16/l703.exe)
 Integral derivatives from FoFJK, PRISM(SPDF).
 Compute integral first derivatives, UseDBF=F ICtDFT=           0.
 Calling FoFJK, ICntrl=      2127 FMM=F ISym2X=0 I1Cent= 0 IOpClX= 0 NMat=1 NMatS=1 NMatT=0.
 FoFJK:  IHMeth= 1 ICntrl=    2127 DoSepK=F KAlg= 0 I1Cent=           0 FoldK=F
 IRaf=         0 NMat=       1 IRICut=       1 DoRegI=T DoRafI=F ISym2E= 0 IDoP0=0 IntGTp=1.
 FoFCou: FMM=F IPFlag=           0 FMFlag=      100000 FMFlg1=         800
         NFxFlg=           0 DoJE=F BraDBF=F KetDBF=F FulRan=T
         wScrn=  0.000000 ICntrl=      2127 IOpCl=  0 I1Cent=           0 NGrid=           0
         NMat0=    1 NMatS0=      1 NMatT0=    0 NMatD0=    1 NMtDS0=    0 NMtDT0=    0
 Symmetry not used in FoFCou.
 Leave Link  703 at Mon Jul 28 11:55:55 2025, MaxMem=  6174015488 cpu:              60.4 elap:               1.7
 (Enter /opt/linux/rocky/8/software/gaussian/16c01_avx2/g16/l716.exe)
 Dipole        =-1.41769881D-02 2.32752395D-08 2.56634222D-09
 ***** Axes restored to original set *****
 -------------------------------------------------------------------
 Center     Atomic                   Forces (Hartrees/Bohr)
 Number     Number              X              Y              Z
 -------------------------------------------------------------------
      1        6          -0.000000027    0.000000942   -0.000000378
      2        6          -0.000000064    0.000000719    0.000000549
      3        6          -0.000000030   -0.000000103    0.000000931
      4        6          -0.000000027   -0.000000943    0.000000379
      5        6          -0.000000064   -0.000000720   -0.000000550
      6        6          -0.000000030    0.000000104   -0.000000932
      7        1          -0.000000012    0.000001484   -0.000000601
      8        1          -0.000000007    0.000001285    0.000000963
      9        1          -0.000000012   -0.000001483    0.000000601
     10        1          -0.000000007   -0.000001284   -0.000000963
     11        6           0.000000009    0.000000009    0.000001612
     12        1          -0.000000021   -0.000000925    0.000001834
     13        1          -0.000000010    0.000000054    0.000002264
     14        6           0.000000008   -0.000000008   -0.000001612
     15        1          -0.000000010   -0.000000053   -0.000002265
     16        1          -0.000000021    0.000000925   -0.000001834
     17        6          -0.000000039    0.000000190    0.000001686
     18        1           0.000000022    0.000000875    0.000001727
     19        1           0.000000010   -0.000000064    0.000002221
     20        6          -0.000000040   -0.000000189   -0.000001686
     21        1           0.000000022   -0.000000875   -0.000001727
     22        1           0.000000010    0.000000065   -0.000002221
     23        6           0.000000068   -0.000000056   -0.000000659
     24        6           0.000000117    0.000000000   -0.000000000
     25        6           0.000000024   -0.000000025   -0.000000767
     26        6           0.000000067    0.000000056    0.000000659
     27        1           0.000000043   -0.000000000    0.000000000
     28        6          -0.000000011   -0.000000001    0.000000000
     29        1           0.000000004   -0.000000060   -0.000001392
     30        6           0.000000024    0.000000025    0.000000767
     31        1          -0.000000000    0.000000000   -0.000000000
     32        1           0.000000004    0.000000061    0.000001392
 -------------------------------------------------------------------
 Cartesian Forces:  Max     0.000002265 RMS     0.000000846
 Leave Link  716 at Mon Jul 28 11:55:55 2025, MaxMem=  6174015488 cpu:               0.3 elap:               0.0
 (Enter /opt/linux/rocky/8/software/gaussian/16c01_avx2/g16/l103.exe)

 GradGradGradGradGradGradGradGradGradGradGradGradGradGradGradGradGradGrad
 Berny optimization.
 FormGI is forming the generalized inverse of G from B-inverse, IUseBI=4.
 Internal  Forces:  Max     0.000000182 RMS     0.000000046
 Search for a saddle point.
 Step number   2 out of a maximum of  192
 All quantities printed in internal units (Hartrees-Bohrs-Radians)
 Swapping is turned off.
 Update second derivatives using D2CorX and points    1    2
 ITU=  0  0
     Eigenvalues ---   -0.00895   0.00303   0.00330   0.01268   0.01565
     Eigenvalues ---    0.01574   0.01748   0.01828   0.01864   0.01904
     Eigenvalues ---    0.01987   0.02041   0.02121   0.02243   0.02418
     Eigenvalues ---    0.02488   0.02512   0.02819   0.02828   0.03231
     Eigenvalues ---    0.03412   0.03687   0.04165   0.04397   0.04412
     Eigenvalues ---    0.04784   0.04790   0.04953   0.07333   0.07486
     Eigenvalues ---    0.08023   0.08480   0.08712   0.08812   0.09560
     Eigenvalues ---    0.11064   0.11084   0.11125   0.11127   0.11249
     Eigenvalues ---    0.11709   0.11892   0.12239   0.12249   0.12568
     Eigenvalues ---    0.13455   0.17216   0.17306   0.17972   0.18852
     Eigenvalues ---    0.18869   0.19348   0.19481   0.20355   0.21142
     Eigenvalues ---    0.21365   0.22717   0.24032   0.25697   0.26769
     Eigenvalues ---    0.28317   0.29611   0.31362   0.31839   0.32502
     Eigenvalues ---    0.32522   0.32911   0.32989   0.33431   0.33452
     Eigenvalues ---    0.33759   0.34024   0.35093   0.35497   0.35543
     Eigenvalues ---    0.35628   0.35679   0.35789   0.35845   0.38035
     Eigenvalues ---    0.39122   0.39720   0.41758   0.41803   0.44388
     Eigenvalues ---    0.45515   0.48150   0.48503   0.50236   0.53079
 Eigenvectors required to have negative eigenvalues:
                          D56       D62       D58       D64       D55
   1                   -0.28138   0.28138  -0.24003   0.24003  -0.23122
                          D61       D60       D66       D57       D63
   1                    0.23122  -0.22046   0.22046  -0.18987   0.18987
 RFO step:  Lambda0=8.673617380D-18 Lambda= 0.00000000D+00.
 Linear search not attempted -- option 19 set.
 Iteration  1 RMS(Cart)=  0.00000235 RMS(Int)=  0.00000000
 Iteration  2 RMS(Cart)=  0.00000000 RMS(Int)=  0.00000000
 ITry= 1 IFail=0 DXMaxC= 1.14D-05 DCOld= 1.00D+10 DXMaxT= 3.00D-01 DXLimC= 3.00D+00 Rises=F
 Variable       Old X    -DE/DX   Delta X   Delta X   Delta X     New X
                                 (Linear)    (Quad)   (Total)
    R1        2.63950   0.00000   0.00000   0.00000   0.00000   2.63950
    R2        2.66092   0.00000   0.00000   0.00000   0.00000   2.66093
    R3        2.05482  -0.00000   0.00000   0.00000   0.00000   2.05482
    R4        2.65864   0.00000   0.00000   0.00000   0.00000   2.65864
    R5        2.05502   0.00000   0.00000   0.00000   0.00000   2.05502
    R6        2.66092   0.00000   0.00000   0.00000   0.00000   2.66093
    R7        2.87799   0.00000   0.00000   0.00000   0.00000   2.87799
    R8        2.63950   0.00000   0.00000   0.00000   0.00000   2.63950
    R9        2.05482  -0.00000   0.00000   0.00000   0.00000   2.05482
   R10        2.65864   0.00000   0.00000   0.00000   0.00000   2.65864
   R11        2.05502   0.00000   0.00000   0.00000   0.00000   2.05502
   R12        2.87799   0.00000   0.00000   0.00000   0.00000   2.87799
   R13        2.07027  -0.00000   0.00000  -0.00000  -0.00000   2.07027
   R14        2.07418  -0.00000   0.00000  -0.00000  -0.00000   2.07418
   R15        2.99649   0.00000   0.00000   0.00000   0.00000   2.99649
   R16        2.07418  -0.00000   0.00000  -0.00000  -0.00000   2.07418
   R17        2.07027  -0.00000   0.00000  -0.00000  -0.00000   2.07027
   R18        2.99649   0.00000   0.00000   0.00000   0.00000   2.99649
   R19        2.07697  -0.00000   0.00000  -0.00000  -0.00000   2.07697
   R20        2.07296  -0.00000   0.00000  -0.00000  -0.00000   2.07296
   R21        2.90208   0.00000   0.00000   0.00000   0.00000   2.90208
   R22        2.07697  -0.00000   0.00000  -0.00000  -0.00000   2.07697
   R23        2.07296  -0.00000   0.00000  -0.00000  -0.00000   2.07296
   R24        2.90208   0.00000   0.00000   0.00000   0.00000   2.90208
   R25        2.62603   0.00000   0.00000   0.00000   0.00000   2.62603
   R26        2.64942   0.00000   0.00000   0.00000   0.00000   2.64942
   R27        2.62603   0.00000   0.00000   0.00000   0.00000   2.62603
   R28        1.98461  -0.00000   0.00000   0.00000   0.00000   1.98461
   R29        2.65041   0.00000   0.00000  -0.00000  -0.00000   2.65041
   R30        2.05568   0.00000   0.00000   0.00000   0.00000   2.05568
   R31        2.64942   0.00000   0.00000   0.00000   0.00000   2.64942
   R32        2.65041   0.00000   0.00000  -0.00000  -0.00000   2.65041
   R33        2.05391  -0.00000   0.00000   0.00000   0.00000   2.05391
   R34        2.05568   0.00000   0.00000   0.00000   0.00000   2.05568
    A1        2.10043   0.00000   0.00000   0.00000   0.00000   2.10043
    A2        2.07435  -0.00000   0.00000   0.00000   0.00000   2.07435
    A3        2.08456  -0.00000   0.00000   0.00000   0.00000   2.08456
    A4        2.08469   0.00000   0.00000   0.00000   0.00000   2.08469
    A5        2.07492  -0.00000   0.00000   0.00000   0.00000   2.07492
    A6        2.09498  -0.00000   0.00000  -0.00000  -0.00000   2.09498
    A7        2.03105  -0.00000   0.00000  -0.00000  -0.00000   2.03105
    A8        2.11361  -0.00000   0.00000  -0.00000  -0.00000   2.11361
    A9        2.09300   0.00000   0.00000   0.00000   0.00000   2.09301
   A10        2.10043   0.00000   0.00000   0.00000   0.00000   2.10043
   A11        2.08456  -0.00000   0.00000   0.00000   0.00000   2.08456
   A12        2.07435  -0.00000   0.00000   0.00000   0.00000   2.07435
   A13        2.08469   0.00000   0.00000   0.00000   0.00000   2.08469
   A14        2.07492  -0.00000   0.00000   0.00000   0.00000   2.07492
   A15        2.09498  -0.00000   0.00000  -0.00000  -0.00000   2.09498
   A16        2.03105  -0.00000   0.00000  -0.00000  -0.00000   2.03105
   A17        2.09300   0.00000   0.00000   0.00000   0.00000   2.09301
   A18        2.11361  -0.00000   0.00000  -0.00000  -0.00000   2.11361
   A19        1.89702  -0.00000   0.00000  -0.00000  -0.00000   1.89702
   A20        1.95895  -0.00000   0.00000  -0.00000  -0.00000   1.95895
   A21        1.99016   0.00000   0.00000   0.00000   0.00000   1.99016
   A22        1.86233   0.00000   0.00000   0.00000   0.00000   1.86233
   A23        1.90401  -0.00000   0.00000   0.00000   0.00000   1.90401
   A24        1.84651   0.00000   0.00000  -0.00000  -0.00000   1.84651
   A25        1.95895  -0.00000   0.00000  -0.00000  -0.00000   1.95895
   A26        1.89702  -0.00000   0.00000  -0.00000  -0.00000   1.89702
   A27        1.99016   0.00000   0.00000   0.00000   0.00000   1.99016
   A28        1.86233   0.00000   0.00000   0.00000   0.00000   1.86233
   A29        1.84651   0.00000   0.00000  -0.00000  -0.00000   1.84651
   A30        1.90401  -0.00000   0.00000   0.00000   0.00000   1.90401
   A31        1.85921  -0.00000   0.00000  -0.00000  -0.00000   1.85921
   A32        1.86310  -0.00000   0.00000  -0.00000  -0.00000   1.86310
   A33        2.11573   0.00000   0.00000   0.00000   0.00000   2.11573
   A34        1.83731   0.00000   0.00000  -0.00000  -0.00000   1.83731
   A35        1.86225  -0.00000   0.00000  -0.00000  -0.00000   1.86225
   A36        1.90765  -0.00000   0.00000  -0.00000  -0.00000   1.90764
   A37        1.85921  -0.00000   0.00000  -0.00000  -0.00000   1.85921
   A38        1.86310  -0.00000   0.00000  -0.00000  -0.00000   1.86310
   A39        2.11573   0.00000   0.00000   0.00000   0.00000   2.11573
   A40        1.83731   0.00000   0.00000  -0.00000  -0.00000   1.83731
   A41        1.86225  -0.00000   0.00000  -0.00000  -0.00000   1.86225
   A42        1.90765  -0.00000   0.00000  -0.00000  -0.00000   1.90764
   A43        2.08428  -0.00000   0.00000   0.00000   0.00000   2.08428
   A44        2.17011   0.00000   0.00000  -0.00000  -0.00000   2.17011
   A45        2.02414  -0.00000   0.00000  -0.00000  -0.00000   2.02414
   A46        2.21360   0.00000   0.00000   0.00000   0.00000   2.21360
   A47        2.03479  -0.00000   0.00000  -0.00000  -0.00000   2.03479
   A48        2.03479  -0.00000   0.00000  -0.00000  -0.00000   2.03479
   A49        2.08580  -0.00000   0.00000  -0.00000  -0.00000   2.08580
   A50        2.11120   0.00000   0.00000   0.00000   0.00000   2.11120
   A51        2.08611   0.00000   0.00000  -0.00000  -0.00000   2.08611
   A52        2.08428  -0.00000   0.00000   0.00000   0.00000   2.08428
   A53        2.17011   0.00000   0.00000  -0.00000  -0.00000   2.17011
   A54        2.02414  -0.00000   0.00000  -0.00000  -0.00000   2.02414
   A55        2.13270   0.00000   0.00000   0.00000   0.00000   2.13270
   A56        2.07524  -0.00000   0.00000  -0.00000  -0.00000   2.07524
   A57        2.07524  -0.00000   0.00000  -0.00000  -0.00000   2.07524
   A58        2.08580  -0.00000   0.00000  -0.00000  -0.00000   2.08580
   A59        2.11120   0.00000   0.00000   0.00000   0.00000   2.11120
   A60        2.08611   0.00000   0.00000  -0.00000  -0.00000   2.08611
    D1        0.02442  -0.00000   0.00000   0.00000   0.00000   0.02442
    D2        2.91157  -0.00000   0.00000   0.00000   0.00000   2.91157
    D3       -2.88300   0.00000   0.00000  -0.00000  -0.00000  -2.88300
    D4        0.00415   0.00000   0.00000  -0.00000  -0.00000   0.00415
    D5        0.37338   0.00000   0.00000  -0.00000  -0.00000   0.37338
    D6       -2.45230   0.00000   0.00000  -0.00000  -0.00000  -2.45230
    D7       -3.00375   0.00000   0.00000   0.00000   0.00000  -3.00375
    D8        0.45375   0.00000   0.00000  -0.00000  -0.00000   0.45375
    D9       -0.39592  -0.00000   0.00000  -0.00000  -0.00000  -0.39592
   D10        2.42576  -0.00000   0.00000   0.00000   0.00000   2.42576
   D11        3.00308  -0.00000   0.00000  -0.00000  -0.00000   3.00308
   D12       -0.45843  -0.00000   0.00000   0.00000   0.00000  -0.45842
   D13        0.37338   0.00000   0.00000  -0.00000  -0.00000   0.37338
   D14       -3.00375   0.00000   0.00000   0.00000   0.00000  -3.00375
   D15       -2.45230   0.00000   0.00000  -0.00000  -0.00000  -2.45230
   D16        0.45375   0.00000   0.00000  -0.00000  -0.00000   0.45375
   D17       -3.10044  -0.00000   0.00000  -0.00000  -0.00000  -3.10045
   D18        1.12701  -0.00000   0.00000  -0.00000  -0.00000   1.12701
   D19       -0.97237  -0.00000   0.00000  -0.00000  -0.00000  -0.97237
   D20       -0.28995  -0.00000   0.00000  -0.00000  -0.00000  -0.28995
   D21       -2.34568  -0.00000   0.00000  -0.00000  -0.00000  -2.34569
   D22        1.83812  -0.00000   0.00000  -0.00000  -0.00000   1.83812
   D23        0.02442  -0.00000   0.00000   0.00000   0.00000   0.02442
   D24        2.91157  -0.00000   0.00000   0.00000   0.00000   2.91157
   D25       -2.88300   0.00000   0.00000  -0.00000  -0.00000  -2.88300
   D26        0.00415   0.00000   0.00000  -0.00000  -0.00000   0.00415
   D27       -0.39592  -0.00000   0.00000  -0.00000  -0.00000  -0.39592
   D28        2.42576  -0.00000   0.00000   0.00000   0.00000   2.42576
   D29        3.00308  -0.00000   0.00000  -0.00000  -0.00000   3.00308
   D30       -0.45843  -0.00000   0.00000   0.00000   0.00000  -0.45842
   D31       -2.34568  -0.00000   0.00000  -0.00000  -0.00000  -2.34569
   D32       -0.28995  -0.00000   0.00000  -0.00000  -0.00000  -0.28995
   D33        1.83812  -0.00000   0.00000  -0.00000  -0.00000   1.83812
   D34        1.12701  -0.00000   0.00000  -0.00000  -0.00000   1.12701
   D35       -3.10044  -0.00000   0.00000  -0.00000  -0.00000  -3.10045
   D36       -0.97237  -0.00000   0.00000  -0.00000  -0.00000  -0.97237
   D37        1.33841   0.00000   0.00000   0.00001   0.00001   1.33841
   D38       -2.98832   0.00000   0.00000   0.00001   0.00001  -2.98832
   D39       -0.79138   0.00000   0.00000   0.00001   0.00001  -0.79138
   D40       -2.82056  -0.00000   0.00000   0.00001   0.00001  -2.82055
   D41       -0.86410  -0.00000   0.00000   0.00001   0.00001  -0.86410
   D42        1.33283  -0.00000   0.00000   0.00001   0.00001   1.33284
   D43       -0.82290   0.00000   0.00000   0.00001   0.00001  -0.82289
   D44        1.13356   0.00000   0.00000   0.00001   0.00001   1.13356
   D45       -2.95269  -0.00000   0.00000   0.00001   0.00001  -2.95269
   D46        1.33841   0.00000   0.00000   0.00001   0.00001   1.33841
   D47       -2.98832   0.00000   0.00000   0.00001   0.00001  -2.98832
   D48       -0.79138   0.00000   0.00000   0.00001   0.00001  -0.79138
   D49       -0.82290   0.00000   0.00000   0.00001   0.00001  -0.82289
   D50        1.13356   0.00000   0.00000   0.00001   0.00001   1.13356
   D51       -2.95269  -0.00000   0.00000   0.00001   0.00001  -2.95269
   D52       -2.82056  -0.00000   0.00000   0.00001   0.00001  -2.82055
   D53       -0.86410  -0.00000   0.00000   0.00001   0.00001  -0.86410
   D54        1.33283  -0.00000   0.00000   0.00001   0.00001   1.33284
   D55        0.61078  -0.00000   0.00000  -0.00000  -0.00000   0.61078
   D56       -2.63869   0.00000   0.00000  -0.00000  -0.00000  -2.63870
   D57       -1.51755  -0.00000   0.00000  -0.00000  -0.00000  -1.51756
   D58        1.51615  -0.00000   0.00000  -0.00000  -0.00000   1.51615
   D59        2.78724  -0.00000   0.00000  -0.00000  -0.00000   2.78724
   D60       -0.46223   0.00000   0.00000  -0.00000  -0.00000  -0.46224
   D61        0.61078  -0.00000   0.00000  -0.00000  -0.00000   0.61078
   D62       -2.63869   0.00000   0.00000  -0.00000  -0.00000  -2.63870
   D63       -1.51755  -0.00000   0.00000  -0.00000  -0.00000  -1.51756
   D64        1.51615  -0.00000   0.00000  -0.00000  -0.00000   1.51615
   D65        2.78724  -0.00000   0.00000  -0.00000  -0.00000   2.78724
   D66       -0.46223   0.00000   0.00000  -0.00000  -0.00000  -0.46224
   D67        3.03373   0.00000   0.00000   0.00000   0.00000   3.03373
   D68       -0.10786   0.00000   0.00000   0.00000   0.00000  -0.10786
   D69       -0.00880   0.00000   0.00000   0.00000   0.00000  -0.00880
   D70        3.13279   0.00000   0.00000   0.00000   0.00000   3.13279
   D71       -3.01966  -0.00000   0.00000  -0.00000  -0.00000  -3.01966
   D72        0.10849  -0.00000   0.00000  -0.00000  -0.00000   0.10849
   D73        0.01742  -0.00000   0.00000  -0.00000  -0.00000   0.01742
   D74       -3.13762   0.00000   0.00000  -0.00000  -0.00000  -3.13762
   D75        3.03373   0.00000   0.00000   0.00000   0.00000   3.03373
   D76       -0.00880   0.00000   0.00000   0.00000   0.00000  -0.00880
   D77       -0.10786   0.00000   0.00000   0.00000   0.00000  -0.10786
   D78        3.13279   0.00000   0.00000   0.00000   0.00000   3.13279
   D79       -0.00920   0.00000   0.00000   0.00000   0.00000  -0.00920
   D80        3.13239   0.00000   0.00000   0.00000   0.00000   3.13239
   D81       -3.13755  -0.00000   0.00000  -0.00000  -0.00000  -3.13755
   D82        0.00404  -0.00000   0.00000  -0.00000  -0.00000   0.00404
   D83       -3.01966  -0.00000   0.00000  -0.00000  -0.00000  -3.01966
   D84        0.10849  -0.00000   0.00000  -0.00000  -0.00000   0.10849
   D85        0.01742  -0.00000   0.00000  -0.00000  -0.00000   0.01742
   D86       -3.13762   0.00000   0.00000  -0.00000  -0.00000  -3.13762
   D87       -0.00920   0.00000   0.00000   0.00000   0.00000  -0.00920
   D88       -3.13755  -0.00000   0.00000  -0.00000  -0.00000  -3.13755
   D89        3.13239   0.00000   0.00000   0.00000   0.00000   3.13239
   D90        0.00404  -0.00000   0.00000  -0.00000  -0.00000   0.00404
         Item               Value     Threshold  Converged?
 Maximum Force            0.000000     0.000002     YES
 RMS     Force            0.000000     0.000001     YES
 Maximum Displacement     0.000011     0.000006     NO 
 RMS     Displacement     0.000002     0.000004     YES
 Predicted change in Energy=-2.079362D-12
 Lowest energy point so far.  Saving SCF results.
 GradGradGradGradGradGradGradGradGradGradGradGradGradGradGradGradGradGrad

 Leave Link  103 at Mon Jul 28 11:55:55 2025, MaxMem=  6174015488 cpu:               2.0 elap:               0.1
 (Enter /opt/linux/rocky/8/software/gaussian/16c01_avx2/g16/l202.exe)
                          Input orientation:                          
 ---------------------------------------------------------------------
 Center     Atomic      Atomic             Coordinates (Angstroms)
 Number     Number       Type             X           Y           Z
 ---------------------------------------------------------------------
      1          6           0       -2.037995   -0.532334   -1.274615
      2          6           0       -2.053549    0.852851   -1.095822
      3          6           0       -1.804351    1.388191    0.181148
      4          6           0       -2.037994    0.532336    1.274616
      5          6           0       -2.053550   -0.852849    1.095822
      6          6           0       -1.804352   -1.388189   -0.181148
      7          1           0       -1.987098   -0.930400   -2.285216
      8          1           0       -2.018301    1.496024   -1.971992
      9          1           0       -1.987096    0.930402    2.285216
     10          1           0       -2.018302   -1.496022    1.971993
     11          6           0       -0.939273    2.628946    0.358898
     12          1           0       -0.846011    2.841478    1.429570
     13          1           0       -1.388859    3.518245   -0.101278
     14          6           0       -0.939276   -2.628945   -0.358898
     15          1           0       -1.388863   -3.518244    0.101278
     16          1           0       -0.846015   -2.841477   -1.429570
     17          6           0        0.509589    2.501778   -0.272753
     18          1           0        0.389340    2.625324   -1.358233
     19          1           0        1.076501    3.381077    0.057055
     20          6           0        0.509586   -2.501779    0.272753
     21          1           0        0.389337   -2.625325    1.358232
     22          1           0        1.076497   -3.381079   -0.057055
     23          6           0        1.361266   -1.241071    0.063777
     24          6           0        0.739369   -0.000000   -0.000000
     25          6           0        2.763154   -1.226741    0.051937
     26          6           0        1.361267    1.241070   -0.063778
     27          1           0       -0.310841    0.000000   -0.000000
     28          6           0        3.441033   -0.000002   -0.000000
     29          1           0        3.332695   -2.152548    0.094965
     30          6           0        2.763156    1.226737   -0.051937
     31          1           0        4.527914   -0.000003   -0.000000
     32          1           0        3.332697    2.152544   -0.094966
 ---------------------------------------------------------------------
                    Distance matrix (angstroms):
                    1          2          3          4          5
     1  C    0.000000
     2  C    1.396762   0.000000
     3  C    2.421209   1.406891   0.000000
     4  C    2.762626   2.392059   1.408101   0.000000
     5  C    2.392059   2.777178   2.433308   1.396762   0.000000
     6  C    1.408101   2.433308   2.799919   2.421209   1.406891
     7  H    1.087364   2.144541   3.390017   3.848972   3.382581
     8  H    2.144984   1.087469   2.166430   3.386672   3.863927
     9  H    3.848972   3.382581   2.161035   1.087364   2.144541
    10  H    3.386672   3.863927   3.401703   2.144984   1.087469
    11  C    3.724143   2.551928   1.522966   2.538011   3.729284
    12  H    4.485092   3.433714   2.142198   2.603261   3.900972
    13  H    4.266766   2.921517   2.188499   3.351136   4.580538
    14  C    2.538011   3.729284   4.144561   3.724143   2.551928
    15  H    3.351136   4.580538   4.924644   4.266766   2.921517
    16  H    2.603261   3.900972   4.626328   4.485092   3.433714
    17  C    4.086532   3.156910   2.607761   3.572567   4.438040
    18  H    3.983686   3.029559   2.951690   4.147824   4.907931
    19  H    5.175733   4.185483   3.505182   4.392933   5.366785
    20  C    3.572567   4.438040   4.527092   4.086532   3.156910
    21  H    4.147824   4.907931   4.722934   3.983686   3.029559
    22  H    4.392933   5.366785   5.576913   5.175733   4.185483
    23  C    3.721368   4.170149   4.116786   4.020705   3.588426
    24  C    3.101898   3.119066   2.903515   3.101898   3.119066
    25  C    5.029212   5.370539   5.264662   5.257406   4.942685
    26  C    4.020705   3.588426   3.178485   3.721368   4.170149
    27  H    2.211579   2.228275   2.047061   2.211579   2.228275
    28  C    5.650466   5.667329   5.428991   5.650466   5.667329
    29  H    5.774526   6.281880   6.239671   6.119189   5.630503
    30  C    5.257406   4.942685   4.576299   5.029212   5.370539
    31  H    6.709634   6.726354   6.485173   6.709634   6.726354
    32  H    6.119189   5.630503   5.200936   5.774526   6.281880
                    6          7          8          9         10
     6  C    0.000000
     7  H    2.161035   0.000000
     8  H    3.401703   2.446756   0.000000
     9  H    3.390017   4.934718   4.294733   0.000000
    10  H    2.166430   4.294733   4.950490   2.446756   0.000000
    11  C    4.144561   4.556119   2.807288   2.773750   4.558699
    12  H    4.626328   5.415605   3.841241   2.384621   4.525747
    13  H    4.924644   4.991785   2.825801   3.570739   5.462374
    14  C    1.522966   2.773750   4.558699   4.556119   2.807288
    15  H    2.188499   3.570739   5.462374   4.991785   2.825801
    16  H    2.142198   2.384621   4.525747   5.415605   3.841241
    17  C    4.527092   4.697158   3.207675   3.904596   5.235601
    18  H    4.722934   4.376063   2.729241   4.668505   5.820020
    19  H    5.576913   5.784523   4.153102   4.511778   6.085301
    20  C    2.607761   3.904596   5.235601   4.697158   3.207675
    21  H    2.951690   4.668505   5.820020   4.376063   2.729241
    22  H    3.505182   4.511778   6.085301   5.784523   4.153102
    23  C    3.178485   4.101930   4.801825   4.567452   3.889443
    24  C    2.903515   3.677156   3.705615   3.677156   3.705615
    25  C    4.576299   5.302358   5.862768   5.675005   5.159598
    26  C    4.116786   4.567452   3.889443   4.101930   4.801825
    27  H    2.047061   2.982900   3.007035   2.982900   3.007035
    28  C    5.428991   5.962588   5.994262   5.962588   5.994262
    29  H    5.200936   5.954755   6.798349   6.527018   5.708540
    30  C    5.264662   5.675005   5.159598   5.302358   5.862768
    31  H    6.485173   6.966580   6.998556   6.966580   6.998556
    32  H    6.239671   6.527018   5.708540   5.954755   6.798349
                   11         12         13         14         15
    11  C    0.000000
    12  H    1.095539   0.000000
    13  H    1.097608   1.759600   0.000000
    14  C    5.306660   5.756113   6.168990   0.000000
    15  H    6.168990   6.519594   7.039404   1.097608   0.000000
    16  H    5.756113   6.361655   6.519594   1.095539   1.759600
    17  C    1.585672   2.202488   2.160257   5.332068   6.323344
    18  H    2.171120   3.056903   2.353558   5.511010   6.560153
    19  H    2.172592   2.423018   2.474244   6.352696   7.326705
    20  C    5.332068   5.632607   6.323344   1.585672   2.160257
    21  H    5.511010   5.605097   6.560153   2.171120   2.353558
    22  H    6.352696   6.680292   7.326705   2.172592   2.474244
    23  C    4.511830   4.837837   5.499229   2.719805   3.570732
    24  C    3.139746   3.554026   4.113109   3.139746   4.113109
    25  C    5.354298   5.610201   6.306947   3.980321   4.742644
    26  C    2.719805   3.108612   3.570732   4.511830   5.499229
    27  H    2.726736   3.225534   3.681091   2.726736   3.681091
    28  C    5.121255   5.338205   5.976301   5.121255   5.976301
    29  H    6.417324   6.647033   7.381699   4.322347   4.915106
    30  C    3.980321   4.222362   4.742644   5.354298   6.306947
    31  H    6.077032   6.244738   6.884514   6.077032   6.884514
    32  H    4.322347   4.501160   4.915106   6.417324   7.381699
                   16         17         18         19         20
    16  H    0.000000
    17  C    5.632607   0.000000
    18  H    5.605097   1.099085   0.000000
    19  H    6.680292   1.096964   1.745392   0.000000
    20  C    2.202488   5.033206   5.381613   5.914044   0.000000
    21  H    3.056903   5.381613   5.911726   6.184022   1.099085
    22  H    2.423018   5.914044   6.184022   6.763119   1.096964
    23  C    3.108612   3.853249   4.232702   4.630917   1.535712
    24  C    3.554026   2.527071   2.976516   3.398323   2.527071
    25  C    4.222362   4.368734   4.739407   4.906813   2.598664
    26  C    4.837837   1.535712   2.129887   2.162250   3.853249
    27  H    3.225534   2.646959   3.037660   3.655087   2.646959
    28  C    5.338205   3.863504   4.248525   4.126253   3.863504
    29  H    4.501160   5.455996   5.796825   5.976024   2.850178
    30  C    5.610201   2.598664   3.049173   2.738223   4.368734
    31  H    6.244738   4.741333   5.085758   4.831895   4.741333
    32  H    6.647033   2.850178   3.237702   2.573485   5.455996
                   21         22         23         24         25
    21  H    0.000000
    22  H    1.745392   0.000000
    23  C    2.129887   2.162250   0.000000
    24  C    2.976516   3.398323   1.389633   0.000000
    25  C    3.049173   2.738223   1.402012   2.367128   0.000000
    26  C    4.232702   4.630917   2.485416   1.389633   2.840557
    27  H    3.037660   3.655087   2.083331   1.050210   3.310142
    28  C    4.248525   4.126253   2.422757   2.701664   1.402535
    29  H    3.237702   2.573485   2.172163   3.371619   1.087817
    30  C    4.739407   4.906813   2.840557   2.367128   2.455676
    31  H    5.085758   4.831895   3.401761   3.788545   2.149875
    32  H    5.796825   5.976024   3.927896   3.371619   3.430091
                   26         27         28         29         30
    26  C    0.000000
    27  H    2.083331   0.000000
    28  C    2.422757   3.751875   0.000000
    29  H    3.927896   4.232947   2.157362   0.000000
    30  C    1.402012   3.310142   1.402535   3.430091   0.000000
    31  H    3.401761   4.838756   1.086881   2.463944   2.149875
    32  H    2.172163   4.232947   2.157362   4.309279   1.087817
                   31         32
    31  H    0.000000
    32  H    2.463944   0.000000
 Stoichiometry    C16H16
 Framework group  C1[X(C16H16)]
 Deg. of freedom    90
 Full point group                 C1      NOp   1
 RotChk:  IX=3 Diff= 7.21D-10
 Largest Abelian subgroup         C1      NOp   1
 Largest concise Abelian subgroup C1      NOp   1
                         Standard orientation:                         
 ---------------------------------------------------------------------
 Center     Atomic      Atomic             Coordinates (Angstroms)
 Number     Number       Type             X           Y           Z
 ---------------------------------------------------------------------
      1          6           0       -2.038013   -0.532335   -1.274615
      2          6           0       -2.053568    0.852850   -1.095822
      3          6           0       -1.804370    1.388190    0.181148
      4          6           0       -2.038013    0.532335    1.274616
      5          6           0       -2.053568   -0.852850    1.095822
      6          6           0       -1.804370   -1.388190   -0.181148
      7          1           0       -1.987116   -0.930401   -2.285216
      8          1           0       -2.018320    1.496023   -1.971992
      9          1           0       -1.987115    0.930401    2.285217
     10          1           0       -2.018320   -1.496023    1.971993
     11          6           0       -0.939293    2.628945    0.358898
     12          1           0       -0.846031    2.841477    1.429570
     13          1           0       -1.388879    3.518245   -0.101278
     14          6           0       -0.939293   -2.628945   -0.358898
     15          1           0       -1.388879   -3.518245    0.101278
     16          1           0       -0.846032   -2.841477   -1.429570
     17          6           0        0.509569    2.501778   -0.272753
     18          1           0        0.389320    2.625325   -1.358233
     19          1           0        1.076480    3.381078    0.057055
     20          6           0        0.509569   -2.501778    0.272753
     21          1           0        0.389320   -2.625325    1.358233
     22          1           0        1.076480   -3.381078   -0.057055
     23          6           0        1.361248   -1.241071    0.063777
     24          6           0        0.739350    0.000000   -0.000000
     25          6           0        2.763137   -1.226739    0.051937
     26          6           0        1.361248    1.241071   -0.063778
     27          1           0       -0.310860    0.000000    0.000000
     28          6           0        3.441015    0.000000   -0.000000
     29          1           0        3.332677   -2.152546    0.094965
     30          6           0        2.763137    1.226739   -0.051937
     31          1           0        4.527896    0.000000   -0.000000
     32          1           0        3.332677    2.152546   -0.094966
 ---------------------------------------------------------------------
 Rotational constants (GHZ):           0.7735587           0.5945921           0.3877056
 Leave Link  202 at Mon Jul 28 11:55:55 2025, MaxMem=  6174015488 cpu:               0.1 elap:               0.0
 (Enter /opt/linux/rocky/8/software/gaussian/16c01_avx2/g16/l301.exe)
 Standard basis: 6-31G(d,p) (6D, 7F)
 Ernie: Thresh=  0.10000D-02 Tol=  0.10000D-05 Strict=F.
 There are   320 symmetry adapted cartesian basis functions of A   symmetry.
 There are   320 symmetry adapted basis functions of A   symmetry.
   320 basis functions,   560 primitive gaussians,   320 cartesian basis functions
    56 alpha electrons       56 beta electrons
       nuclear repulsion energy      1060.8008784478 Hartrees.
 IExCor=  402 DFT=T Ex+Corr=B3LYP ExCW=0 ScaHFX=  0.200000
 ScaDFX=  0.800000  0.720000  1.000000  0.810000 ScalE2=  1.000000  1.000000
 IRadAn=      5 IRanWt=     -1 IRanGd=            0 ICorTp=0 IEmpDi=  4
 NAtoms=   32 NActive=   32 NUniq=   32 SFac= 1.00D+00 NAtFMM=   60 NAOKFM=F Big=F
 Integral buffers will be    131072 words long.
 Raffenetti 2 integral format.
 Two-electron integral symmetry is turned on.
 Leave Link  301 at Mon Jul 28 11:55:55 2025, MaxMem=  6174015488 cpu:               0.9 elap:               0.0
 (Enter /opt/linux/rocky/8/software/gaussian/16c01_avx2/g16/l302.exe)
 NPDir=0 NMtPBC=     1 NCelOv=     1 NCel=       1 NClECP=     1 NCelD=      1
         NCelK=      1 NCelE2=     1 NClLst=     1 CellRange=     0.0.
 One-electron integrals computed using PRISM.
 One-electron integral symmetry used in STVInt
 NBasis=   320 RedAO= T EigKep=  3.66D-04  NBF=   320
 NBsUse=   320 1.00D-06 EigRej= -1.00D+00 NBFU=   320
 Precomputing XC quadrature grid using
 IXCGrd= 4 IRadAn=           5 IRanWt=          -1 IRanGd=           0 AccXCQ= 0.00D+00.
 Generated NRdTot=       0 NPtTot=           0 NUsed=           0 NTot=          32
 NSgBfM=   320   320   320   320   320 MxSgAt=    32 MxSgA2=    32.
 Leave Link  302 at Mon Jul 28 11:55:56 2025, MaxMem=  6174015488 cpu:               6.4 elap:               0.2
 (Enter /opt/linux/rocky/8/software/gaussian/16c01_avx2/g16/l303.exe)
 DipDrv:  MaxL=1.
 Leave Link  303 at Mon Jul 28 11:55:56 2025, MaxMem=  6174015488 cpu:               0.7 elap:               0.0
 (Enter /opt/linux/rocky/8/software/gaussian/16c01_avx2/g16/l401.exe)
 Initial guess from the checkpoint file:  "metapara_b3lyp631gdp_ts_vtight.chk"
 B after Tr=    -0.000000   -0.000000   -0.000000
         Rot=    1.000000    0.000000    0.000000   -0.000000 Ang=   0.00 deg.
 Guess basis will be translated and rotated to current coordinates.
 JPrj=2 DoOrth=T DoCkMO=T.
 Leave Link  401 at Mon Jul 28 11:55:56 2025, MaxMem=  6174015488 cpu:               2.7 elap:               0.1
 (Enter /opt/linux/rocky/8/software/gaussian/16c01_avx2/g16/l502.exe)
 Integral symmetry usage will be decided dynamically.
 Closed shell SCF:
 Using DIIS extrapolation, IDIIS=  1040.
 NGot=  6174015488 LenX=  6173794922 LenY=  6173692081
 Requested convergence on RMS density matrix=1.00D-10 within 128 cycles.
 Requested convergence on MAX density matrix=1.00D-08.
 Requested convergence on             energy=1.00D-08.
 No special actions if energy rises.
 Fock matrices will be formed incrementally for  20 cycles.

 Cycle   1  Pass 1  IDiag  1:
 FoFJK:  IHMeth= 1 ICntrl=       0 DoSepK=F KAlg= 0 I1Cent=           0 FoldK=F
 IRaf= 880000000 NMat=       1 IRICut=       1 DoRegI=T DoRafI=F ISym2E= 0 IDoP0=0 IntGTp=1.
 FoFCou: FMM=F IPFlag=           0 FMFlag=      100000 FMFlg1=           0
         NFxFlg=           0 DoJE=F BraDBF=F KetDBF=F FulRan=T
         wScrn=  0.000000 ICntrl=         0 IOpCl=  0 I1Cent=           0 NGrid=           0
         NMat0=    1 NMatS0=      1 NMatT0=    0 NMatD0=    1 NMtDS0=    0 NMtDT0=    0
 Symmetry not used in FoFCou.
 E= -619.311271996382    
 DIIS: error= 1.61D-07 at cycle   1 NSaved=   1.
 NSaved= 1 IEnMin= 1 EnMin= -619.311271996382     IErMin= 1 ErrMin= 1.61D-07
 ErrMax= 1.61D-07  0.00D+00 EMaxC= 1.00D-01 BMatC= 6.65D-12 BMatP= 6.65D-12
 IDIUse=1 WtCom= 1.00D+00 WtEn= 0.00D+00
 Coeff-Com:  0.100D+01
 Coeff:      0.100D+01
 Gap=     1.603 Goal=   None    Shift=    0.000
 RMSDP=1.38D-08 MaxDP=4.55D-07              OVMax= 7.57D-07

 Cycle   2  Pass 1  IDiag  1:
 RMSU=  1.38D-08    CP:  1.00D+00
 E= -619.311271996395     Delta-E=       -0.000000000012 Rises=F Damp=F
 DIIS: error= 1.60D-08 at cycle   2 NSaved=   2.
 NSaved= 2 IEnMin= 2 EnMin= -619.311271996395     IErMin= 2 ErrMin= 1.60D-08
 ErrMax= 1.60D-08  0.00D+00 EMaxC= 1.00D-01 BMatC= 9.10D-14 BMatP= 6.65D-12
 IDIUse=1 WtCom= 1.00D+00 WtEn= 0.00D+00
 Coeff-Com: -0.720D-01 0.107D+01
 Coeff:     -0.720D-01 0.107D+01
 Gap=     0.205 Goal=   None    Shift=    0.000
 RMSDP=2.53D-09 MaxDP=7.80D-08 DE=-1.23D-11 OVMax= 1.09D-07

 Cycle   3  Pass 1  IDiag  1:
 RMSU=  2.31D-09    CP:  1.00D+00  1.07D+00
 E= -619.311271996385     Delta-E=        0.000000000009 Rises=F Damp=F
 DIIS: error= 1.29D-08 at cycle   3 NSaved=   3.
 NSaved= 3 IEnMin= 2 EnMin= -619.311271996395     IErMin= 3 ErrMin= 1.29D-08
 ErrMax= 1.29D-08  0.00D+00 EMaxC= 1.00D-01 BMatC= 6.93D-14 BMatP= 9.10D-14
 IDIUse=1 WtCom= 1.00D+00 WtEn= 0.00D+00
 Coeff-Com: -0.460D-01 0.559D+00 0.487D+00
 Coeff:     -0.460D-01 0.559D+00 0.487D+00
 Gap=     0.205 Goal=   None    Shift=    0.000
 RMSDP=1.32D-09 MaxDP=3.91D-08 DE= 9.32D-12 OVMax= 8.86D-08

 Cycle   4  Pass 1  IDiag  1:
 RMSU=  6.94D-10    CP:  1.00D+00  1.09D+00  5.29D-01
 E= -619.311271996377     Delta-E=        0.000000000009 Rises=F Damp=F
 DIIS: error= 3.78D-09 at cycle   4 NSaved=   4.
 NSaved= 4 IEnMin= 2 EnMin= -619.311271996395     IErMin= 4 ErrMin= 3.78D-09
 ErrMax= 3.78D-09  0.00D+00 EMaxC= 1.00D-01 BMatC= 4.31D-15 BMatP= 6.93D-14
 IDIUse=1 WtCom= 1.00D+00 WtEn= 0.00D+00
 Coeff-Com: -0.160D-01 0.181D+00 0.243D+00 0.592D+00
 Coeff:     -0.160D-01 0.181D+00 0.243D+00 0.592D+00
 Gap=     0.205 Goal=   None    Shift=    0.000
 RMSDP=3.22D-10 MaxDP=1.09D-08 DE= 8.64D-12 OVMax= 4.15D-08

 Cycle   5  Pass 1  IDiag  1:
 RMSU=  2.46D-10    CP:  1.00D+00  1.09D+00  5.88D-01  7.76D-01
 E= -619.311271996387     Delta-E=       -0.000000000010 Rises=F Damp=F
 DIIS: error= 1.75D-09 at cycle   5 NSaved=   5.
 NSaved= 5 IEnMin= 2 EnMin= -619.311271996395     IErMin= 5 ErrMin= 1.75D-09
 ErrMax= 1.75D-09  0.00D+00 EMaxC= 1.00D-01 BMatC= 9.71D-16 BMatP= 4.31D-15
 IDIUse=1 WtCom= 1.00D+00 WtEn= 0.00D+00
 Coeff-Com: -0.297D-02 0.270D-01 0.764D-01 0.364D+00 0.536D+00
 Coeff:     -0.297D-02 0.270D-01 0.764D-01 0.364D+00 0.536D+00
 Gap=     0.205 Goal=   None    Shift=    0.000
 RMSDP=1.25D-10 MaxDP=6.17D-09 DE=-1.02D-11 OVMax= 1.44D-08

 Cycle   6  Pass 1  IDiag  1:
 RMSU=  6.99D-11    CP:  1.00D+00  1.09D+00  5.89D-01  8.48D-01  6.34D-01
 E= -619.311271996391     Delta-E=       -0.000000000004 Rises=F Damp=F
 DIIS: error= 4.09D-10 at cycle   6 NSaved=   6.
 NSaved= 6 IEnMin= 2 EnMin= -619.311271996395     IErMin= 6 ErrMin= 4.09D-10
 ErrMax= 4.09D-10  0.00D+00 EMaxC= 1.00D-01 BMatC= 5.74D-17 BMatP= 9.71D-16
 IDIUse=1 WtCom= 1.00D+00 WtEn= 0.00D+00
 Coeff-Com: -0.189D-04-0.330D-02 0.162D-01 0.132D+00 0.272D+00 0.583D+00
 Coeff:     -0.189D-04-0.330D-02 0.162D-01 0.132D+00 0.272D+00 0.583D+00
 Gap=     0.205 Goal=   None    Shift=    0.000
 RMSDP=3.76D-11 MaxDP=1.38D-09 DE=-3.87D-12 OVMax= 2.99D-09

 SCF Done:  E(RB3LYP) =  -619.311271996     A.U. after    6 cycles
            NFock=  6  Conv=0.38D-10     -V/T= 2.0099
 KE= 6.132512569223D+02 PE=-3.554854914145D+03 EE= 1.261491506778D+03
 Leave Link  502 at Mon Jul 28 11:56:01 2025, MaxMem=  6174015488 cpu:             159.8 elap:               4.5
 (Enter /opt/linux/rocky/8/software/gaussian/16c01_avx2/g16/l701.exe)
 ... and contract with generalized density number  0.
 Compute integral first derivatives.
 Leave Link  701 at Mon Jul 28 11:56:01 2025, MaxMem=  6174015488 cpu:               4.8 elap:               0.2
 (Enter /opt/linux/rocky/8/software/gaussian/16c01_avx2/g16/l702.exe)
 L702 exits ... SP integral derivatives will be done elsewhere.
 Leave Link  702 at Mon Jul 28 11:56:01 2025, MaxMem=  6174015488 cpu:               0.3 elap:               0.0
 (Enter /opt/linux/rocky/8/software/gaussian/16c01_avx2/g16/l703.exe)
 Integral derivatives from FoFJK, PRISM(SPDF).
 Compute integral first derivatives, UseDBF=F ICtDFT=           0.
 Calling FoFJK, ICntrl=      2127 FMM=F ISym2X=0 I1Cent= 0 IOpClX= 0 NMat=1 NMatS=1 NMatT=0.
 FoFJK:  IHMeth= 1 ICntrl=    2127 DoSepK=F KAlg= 0 I1Cent=           0 FoldK=F
 IRaf=         0 NMat=       1 IRICut=       1 DoRegI=T DoRafI=F ISym2E= 0 IDoP0=0 IntGTp=1.
 FoFCou: FMM=F IPFlag=           0 FMFlag=      100000 FMFlg1=         800
         NFxFlg=           0 DoJE=F BraDBF=F KetDBF=F FulRan=T
         wScrn=  0.000000 ICntrl=      2127 IOpCl=  0 I1Cent=           0 NGrid=           0
         NMat0=    1 NMatS0=      1 NMatT0=    0 NMatD0=    1 NMtDS0=    0 NMtDT0=    0
 Symmetry not used in FoFCou.
 Leave Link  703 at Mon Jul 28 11:56:03 2025, MaxMem=  6174015488 cpu:              60.4 elap:               1.7
 (Enter /opt/linux/rocky/8/software/gaussian/16c01_avx2/g16/l716.exe)
 Dipole        =-1.41772425D-02 1.13907408D-08 1.44872198D-09
 ***** Axes restored to original set *****
 -------------------------------------------------------------------
 Center     Atomic                   Forces (Hartrees/Bohr)
 Number     Number              X              Y              Z
 -------------------------------------------------------------------
      1        6           0.000000000    0.000000824   -0.000000344
      2        6           0.000000000    0.000000709    0.000000552
      3        6           0.000000000   -0.000000117    0.000000898
      4        6           0.000000000   -0.000000825    0.000000344
      5        6           0.000000000   -0.000000709   -0.000000552
      6        6           0.000000001    0.000000117   -0.000000898
      7        1           0.000000000    0.000001479   -0.000000602
      8        1          -0.000000000    0.000001276    0.000000968
      9        1           0.000000000   -0.000001479    0.000000602
     10        1          -0.000000000   -0.000001276   -0.000000968
     11        6          -0.000000001   -0.000000233    0.000001701
     12        1          -0.000000000   -0.000000925    0.000001839
     13        1           0.000000000    0.000000065    0.000002277
     14        6          -0.000000001    0.000000233   -0.000001701
     15        1           0.000000000   -0.000000065   -0.000002277
     16        1          -0.000000000    0.000000925   -0.000001839
     17        6           0.000000000    0.000000177    0.000001619
     18        1           0.000000000    0.000000879    0.000001699
     19        1           0.000000000   -0.000000037    0.000002188
     20        6           0.000000000   -0.000000177   -0.000001619
     21        1           0.000000000   -0.000000879   -0.000001699
     22        1           0.000000000    0.000000037   -0.000002188
     23        6          -0.000000001   -0.000000042   -0.000000803
     24        6          -0.000000000   -0.000000000   -0.000000000
     25        6           0.000000000   -0.000000034   -0.000000794
     26        6          -0.000000000    0.000000042    0.000000803
     27        1          -0.000000001   -0.000000000    0.000000000
     28        6           0.000000000    0.000000001   -0.000000000
     29        1           0.000000000   -0.000000062   -0.000001393
     30        6           0.000000001    0.000000033    0.000000794
     31        1          -0.000000000    0.000000000   -0.000000000
     32        1           0.000000000    0.000000062    0.000001393
 -------------------------------------------------------------------
 Cartesian Forces:  Max     0.000002277 RMS     0.000000845
 Leave Link  716 at Mon Jul 28 11:56:03 2025, MaxMem=  6174015488 cpu:               0.3 elap:               0.0
 (Enter /opt/linux/rocky/8/software/gaussian/16c01_avx2/g16/l103.exe)

 GradGradGradGradGradGradGradGradGradGradGradGradGradGradGradGradGradGrad
 Berny optimization.
 FormGI is forming the generalized inverse of G from B-inverse, IUseBI=4.
 Internal  Forces:  Max     0.000000001 RMS     0.000000000
 Search for a saddle point.
 Step number   3 out of a maximum of  192
 All quantities printed in internal units (Hartrees-Bohrs-Radians)
 Swapping is turned off.
 Update second derivatives using D2CorX and points    1    3
 ITU=  0  0  0
     Eigenvalues ---   -0.00895   0.00303   0.00330   0.01268   0.01565
     Eigenvalues ---    0.01574   0.01748   0.01828   0.01864   0.01904
     Eigenvalues ---    0.01987   0.02041   0.02121   0.02243   0.02418
     Eigenvalues ---    0.02488   0.02512   0.02819   0.02828   0.03231
     Eigenvalues ---    0.03412   0.03687   0.04165   0.04397   0.04412
     Eigenvalues ---    0.04784   0.04790   0.04953   0.07333   0.07486
     Eigenvalues ---    0.08023   0.08480   0.08712   0.08812   0.09560
     Eigenvalues ---    0.11064   0.11084   0.11125   0.11127   0.11249
     Eigenvalues ---    0.11709   0.11892   0.12239   0.12249   0.12568
     Eigenvalues ---    0.13455   0.17216   0.17306   0.17972   0.18852
     Eigenvalues ---    0.18869   0.19348   0.19481   0.20355   0.21142
     Eigenvalues ---    0.21365   0.22717   0.24032   0.25697   0.26769
     Eigenvalues ---    0.28317   0.29611   0.31362   0.31839   0.32502
     Eigenvalues ---    0.32522   0.32911   0.32989   0.33431   0.33452
     Eigenvalues ---    0.33759   0.34024   0.35093   0.35497   0.35543
     Eigenvalues ---    0.35628   0.35679   0.35789   0.35845   0.38035
     Eigenvalues ---    0.39122   0.39720   0.41758   0.41803   0.44388
     Eigenvalues ---    0.45515   0.48150   0.48503   0.50236   0.53079
 Eigenvectors required to have negative eigenvalues:
                          D56       D62       D58       D64       D55
   1                   -0.28138   0.28138  -0.24003   0.24003  -0.23122
                          D61       D60       D66       D57       D63
   1                    0.23122  -0.22046   0.22046  -0.18987   0.18987
 RFO step:  Lambda0=0.000000000D+00 Lambda= 0.00000000D+00.
 Linear search not attempted -- option 19 set.
 Iteration  1 RMS(Cart)=  0.00000000 RMS(Int)=  0.00000000
 ITry= 1 IFail=0 DXMaxC= 1.38D-08 DCOld= 1.00D+10 DXMaxT= 3.00D-01 DXLimC= 3.00D+00 Rises=F
 Variable       Old X    -DE/DX   Delta X   Delta X   Delta X     New X
                                 (Linear)    (Quad)   (Total)
    R1        2.63950   0.00000   0.00000   0.00000   0.00000   2.63950
    R2        2.66093  -0.00000   0.00000  -0.00000  -0.00000   2.66093
    R3        2.05482   0.00000   0.00000   0.00000   0.00000   2.05482
    R4        2.65864   0.00000   0.00000   0.00000   0.00000   2.65864
    R5        2.05502   0.00000   0.00000   0.00000   0.00000   2.05502
    R6        2.66093  -0.00000   0.00000   0.00000   0.00000   2.66093
    R7        2.87799  -0.00000   0.00000  -0.00000  -0.00000   2.87799
    R8        2.63950   0.00000   0.00000   0.00000   0.00000   2.63950
    R9        2.05482   0.00000   0.00000   0.00000   0.00000   2.05482
   R10        2.65864  -0.00000   0.00000  -0.00000  -0.00000   2.65864
   R11        2.05502  -0.00000   0.00000  -0.00000  -0.00000   2.05502
   R12        2.87799  -0.00000   0.00000  -0.00000  -0.00000   2.87799
   R13        2.07027   0.00000   0.00000   0.00000   0.00000   2.07027
   R14        2.07418  -0.00000   0.00000  -0.00000  -0.00000   2.07418
   R15        2.99649  -0.00000   0.00000   0.00000   0.00000   2.99649
   R16        2.07418  -0.00000   0.00000  -0.00000  -0.00000   2.07418
   R17        2.07027  -0.00000   0.00000  -0.00000  -0.00000   2.07027
   R18        2.99649  -0.00000   0.00000   0.00000   0.00000   2.99649
   R19        2.07697  -0.00000   0.00000  -0.00000  -0.00000   2.07697
   R20        2.07296  -0.00000   0.00000  -0.00000  -0.00000   2.07296
   R21        2.90208  -0.00000   0.00000   0.00000   0.00000   2.90208
   R22        2.07697  -0.00000   0.00000  -0.00000  -0.00000   2.07697
   R23        2.07296  -0.00000   0.00000  -0.00000  -0.00000   2.07296
   R24        2.90208  -0.00000   0.00000  -0.00000  -0.00000   2.90208
   R25        2.62603   0.00000   0.00000   0.00000   0.00000   2.62603
   R26        2.64942   0.00000   0.00000   0.00000   0.00000   2.64942
   R27        2.62603   0.00000   0.00000   0.00000   0.00000   2.62603
   R28        1.98461   0.00000   0.00000   0.00000   0.00000   1.98461
   R29        2.65041   0.00000   0.00000   0.00000   0.00000   2.65041
   R30        2.05568   0.00000   0.00000   0.00000   0.00000   2.05568
   R31        2.64942   0.00000   0.00000   0.00000   0.00000   2.64942
   R32        2.65041  -0.00000   0.00000  -0.00000  -0.00000   2.65041
   R33        2.05391  -0.00000   0.00000  -0.00000  -0.00000   2.05391
   R34        2.05568   0.00000   0.00000   0.00000   0.00000   2.05568
    A1        2.10043   0.00000   0.00000   0.00000   0.00000   2.10043
    A2        2.07435  -0.00000   0.00000  -0.00000  -0.00000   2.07435
    A3        2.08456  -0.00000   0.00000   0.00000   0.00000   2.08456
    A4        2.08469  -0.00000   0.00000  -0.00000  -0.00000   2.08469
    A5        2.07492   0.00000   0.00000   0.00000   0.00000   2.07492
    A6        2.09498   0.00000   0.00000   0.00000   0.00000   2.09498
    A7        2.03105  -0.00000   0.00000  -0.00000  -0.00000   2.03105
    A8        2.11361   0.00000   0.00000   0.00000   0.00000   2.11361
    A9        2.09301  -0.00000   0.00000  -0.00000  -0.00000   2.09301
   A10        2.10043   0.00000   0.00000   0.00000   0.00000   2.10043
   A11        2.08456  -0.00000   0.00000  -0.00000  -0.00000   2.08456
   A12        2.07435  -0.00000   0.00000  -0.00000  -0.00000   2.07435
   A13        2.08469   0.00000   0.00000  -0.00000  -0.00000   2.08469
   A14        2.07492  -0.00000   0.00000  -0.00000  -0.00000   2.07492
   A15        2.09498   0.00000   0.00000   0.00000   0.00000   2.09498
   A16        2.03105  -0.00000   0.00000   0.00000   0.00000   2.03105
   A17        2.09301  -0.00000   0.00000  -0.00000  -0.00000   2.09301
   A18        2.11361   0.00000   0.00000   0.00000   0.00000   2.11361
   A19        1.89702  -0.00000   0.00000  -0.00000  -0.00000   1.89702
   A20        1.95895   0.00000   0.00000   0.00000   0.00000   1.95895
   A21        1.99016  -0.00000   0.00000   0.00000   0.00000   1.99016
   A22        1.86233  -0.00000   0.00000  -0.00000  -0.00000   1.86233
   A23        1.90401   0.00000   0.00000  -0.00000  -0.00000   1.90401
   A24        1.84651  -0.00000   0.00000   0.00000   0.00000   1.84651
   A25        1.95895   0.00000   0.00000   0.00000   0.00000   1.95895
   A26        1.89702  -0.00000   0.00000  -0.00000  -0.00000   1.89702
   A27        1.99016  -0.00000   0.00000  -0.00000  -0.00000   1.99016
   A28        1.86233  -0.00000   0.00000  -0.00000  -0.00000   1.86233
   A29        1.84651  -0.00000   0.00000   0.00000   0.00000   1.84651
   A30        1.90401   0.00000   0.00000  -0.00000  -0.00000   1.90401
   A31        1.85921   0.00000   0.00000   0.00000   0.00000   1.85921
   A32        1.86310   0.00000   0.00000   0.00000   0.00000   1.86310
   A33        2.11573  -0.00000   0.00000  -0.00000  -0.00000   2.11573
   A34        1.83731  -0.00000   0.00000   0.00000   0.00000   1.83731
   A35        1.86225  -0.00000   0.00000  -0.00000  -0.00000   1.86225
   A36        1.90764   0.00000   0.00000  -0.00000  -0.00000   1.90764
   A37        1.85921   0.00000   0.00000   0.00000   0.00000   1.85921
   A38        1.86310   0.00000   0.00000   0.00000   0.00000   1.86310
   A39        2.11573  -0.00000   0.00000  -0.00000  -0.00000   2.11573
   A40        1.83731  -0.00000   0.00000   0.00000   0.00000   1.83731
   A41        1.86225  -0.00000   0.00000  -0.00000  -0.00000   1.86225
   A42        1.90764   0.00000   0.00000  -0.00000  -0.00000   1.90764
   A43        2.08428   0.00000   0.00000   0.00000   0.00000   2.08428
   A44        2.17011  -0.00000   0.00000  -0.00000  -0.00000   2.17011
   A45        2.02414  -0.00000   0.00000  -0.00000  -0.00000   2.02414
   A46        2.21360  -0.00000   0.00000  -0.00000  -0.00000   2.21360
   A47        2.03479   0.00000   0.00000  -0.00000  -0.00000   2.03479
   A48        2.03479   0.00000   0.00000   0.00000   0.00000   2.03479
   A49        2.08580   0.00000   0.00000   0.00000   0.00000   2.08580
   A50        2.11120  -0.00000   0.00000  -0.00000  -0.00000   2.11120
   A51        2.08611   0.00000   0.00000   0.00000   0.00000   2.08611
   A52        2.08428   0.00000   0.00000   0.00000   0.00000   2.08428
   A53        2.17011  -0.00000   0.00000  -0.00000  -0.00000   2.17011
   A54        2.02414   0.00000   0.00000  -0.00000  -0.00000   2.02414
   A55        2.13270   0.00000   0.00000  -0.00000  -0.00000   2.13270
   A56        2.07524   0.00000   0.00000   0.00000   0.00000   2.07524
   A57        2.07524  -0.00000   0.00000  -0.00000  -0.00000   2.07524
   A58        2.08580   0.00000   0.00000   0.00000   0.00000   2.08580
   A59        2.11120  -0.00000   0.00000  -0.00000  -0.00000   2.11120
   A60        2.08611  -0.00000   0.00000  -0.00000  -0.00000   2.08611
    D1        0.02442   0.00000   0.00000  -0.00000  -0.00000   0.02442
    D2        2.91157   0.00000   0.00000  -0.00000  -0.00000   2.91157
    D3       -2.88300  -0.00000   0.00000  -0.00000  -0.00000  -2.88300
    D4        0.00415  -0.00000   0.00000   0.00000   0.00000   0.00415
    D5        0.37338  -0.00000   0.00000   0.00000   0.00000   0.37338
    D6       -2.45230  -0.00000   0.00000  -0.00000  -0.00000  -2.45230
    D7       -3.00375   0.00000   0.00000  -0.00000  -0.00000  -3.00375
    D8        0.45375  -0.00000   0.00000  -0.00000  -0.00000   0.45375
    D9       -0.39592   0.00000   0.00000   0.00000   0.00000  -0.39592
   D10        2.42576   0.00000   0.00000   0.00000   0.00000   2.42576
   D11        3.00308   0.00000   0.00000  -0.00000  -0.00000   3.00308
   D12       -0.45842   0.00000   0.00000   0.00000   0.00000  -0.45842
   D13        0.37338  -0.00000   0.00000   0.00000   0.00000   0.37338
   D14       -3.00375  -0.00000   0.00000  -0.00000  -0.00000  -3.00375
   D15       -2.45230  -0.00000   0.00000  -0.00000  -0.00000  -2.45230
   D16        0.45375  -0.00000   0.00000  -0.00000  -0.00000   0.45375
   D17       -3.10045   0.00000   0.00000   0.00000   0.00000  -3.10045
   D18        1.12701   0.00000   0.00000   0.00000   0.00000   1.12701
   D19       -0.97237   0.00000   0.00000  -0.00000  -0.00000  -0.97237
   D20       -0.28995   0.00000   0.00000   0.00000   0.00000  -0.28995
   D21       -2.34569   0.00000   0.00000   0.00000   0.00000  -2.34569
   D22        1.83812   0.00000   0.00000   0.00000   0.00000   1.83812
   D23        0.02442  -0.00000   0.00000  -0.00000  -0.00000   0.02442
   D24        2.91157   0.00000   0.00000  -0.00000  -0.00000   2.91157
   D25       -2.88300  -0.00000   0.00000  -0.00000  -0.00000  -2.88300
   D26        0.00415   0.00000   0.00000   0.00000   0.00000   0.00415
   D27       -0.39592   0.00000   0.00000   0.00000   0.00000  -0.39592
   D28        2.42576   0.00000   0.00000   0.00000   0.00000   2.42576
   D29        3.00308   0.00000   0.00000  -0.00000  -0.00000   3.00308
   D30       -0.45842   0.00000   0.00000   0.00000   0.00000  -0.45842
   D31       -2.34569   0.00000   0.00000   0.00000   0.00000  -2.34569
   D32       -0.28995   0.00000   0.00000   0.00000   0.00000  -0.28995
   D33        1.83812   0.00000   0.00000   0.00000   0.00000   1.83812
   D34        1.12701   0.00000   0.00000   0.00000   0.00000   1.12701
   D35       -3.10045   0.00000   0.00000   0.00000   0.00000  -3.10045
   D36       -0.97237   0.00000   0.00000  -0.00000  -0.00000  -0.97237
   D37        1.33841  -0.00000   0.00000   0.00000   0.00000   1.33841
   D38       -2.98832   0.00000   0.00000   0.00000   0.00000  -2.98832
   D39       -0.79138   0.00000   0.00000   0.00000   0.00000  -0.79138
   D40       -2.82055  -0.00000   0.00000   0.00000   0.00000  -2.82055
   D41       -0.86410  -0.00000   0.00000   0.00000   0.00000  -0.86410
   D42        1.33284   0.00000   0.00000   0.00000   0.00000   1.33284
   D43       -0.82289  -0.00000   0.00000   0.00000   0.00000  -0.82289
   D44        1.13356   0.00000   0.00000   0.00000   0.00000   1.13356
   D45       -2.95269   0.00000   0.00000   0.00000   0.00000  -2.95269
   D46        1.33841  -0.00000   0.00000   0.00000   0.00000   1.33841
   D47       -2.98832   0.00000   0.00000   0.00000   0.00000  -2.98832
   D48       -0.79138   0.00000   0.00000   0.00000   0.00000  -0.79138
   D49       -0.82289  -0.00000   0.00000   0.00000   0.00000  -0.82289
   D50        1.13356   0.00000   0.00000   0.00000   0.00000   1.13356
   D51       -2.95269   0.00000   0.00000   0.00000   0.00000  -2.95269
   D52       -2.82055  -0.00000   0.00000   0.00000   0.00000  -2.82055
   D53       -0.86410  -0.00000   0.00000   0.00000   0.00000  -0.86410
   D54        1.33284   0.00000   0.00000   0.00000   0.00000   1.33284
   D55        0.61078  -0.00000   0.00000  -0.00000  -0.00000   0.61078
   D56       -2.63870  -0.00000   0.00000  -0.00000  -0.00000  -2.63870
   D57       -1.51756  -0.00000   0.00000  -0.00000  -0.00000  -1.51756
   D58        1.51615   0.00000   0.00000  -0.00000  -0.00000   1.51615
   D59        2.78724  -0.00000   0.00000  -0.00000  -0.00000   2.78724
   D60       -0.46224  -0.00000   0.00000  -0.00000  -0.00000  -0.46224
   D61        0.61078  -0.00000   0.00000  -0.00000  -0.00000   0.61078
   D62       -2.63870  -0.00000   0.00000  -0.00000  -0.00000  -2.63870
   D63       -1.51756  -0.00000   0.00000  -0.00000  -0.00000  -1.51756
   D64        1.51615  -0.00000   0.00000  -0.00000  -0.00000   1.51615
   D65        2.78724  -0.00000   0.00000  -0.00000  -0.00000   2.78724
   D66       -0.46224  -0.00000   0.00000  -0.00000  -0.00000  -0.46224
   D67        3.03373   0.00000   0.00000   0.00000   0.00000   3.03373
   D68       -0.10786   0.00000   0.00000   0.00000   0.00000  -0.10786
   D69       -0.00880  -0.00000   0.00000   0.00000   0.00000  -0.00880
   D70        3.13279  -0.00000   0.00000   0.00000   0.00000   3.13279
   D71       -3.01966  -0.00000   0.00000  -0.00000  -0.00000  -3.01966
   D72        0.10849  -0.00000   0.00000  -0.00000  -0.00000   0.10849
   D73        0.01742   0.00000   0.00000  -0.00000  -0.00000   0.01742
   D74       -3.13762   0.00000   0.00000  -0.00000  -0.00000  -3.13762
   D75        3.03373   0.00000   0.00000   0.00000   0.00000   3.03373
   D76       -0.00880   0.00000   0.00000   0.00000   0.00000  -0.00880
   D77       -0.10786   0.00000   0.00000   0.00000   0.00000  -0.10786
   D78        3.13279   0.00000   0.00000   0.00000   0.00000   3.13279
   D79       -0.00920  -0.00000   0.00000   0.00000   0.00000  -0.00920
   D80        3.13239  -0.00000   0.00000   0.00000   0.00000   3.13239
   D81       -3.13755   0.00000   0.00000  -0.00000  -0.00000  -3.13755
   D82        0.00404   0.00000   0.00000  -0.00000  -0.00000   0.00404
   D83       -3.01966  -0.00000   0.00000  -0.00000  -0.00000  -3.01966
   D84        0.10849  -0.00000   0.00000  -0.00000  -0.00000   0.10849
   D85        0.01742   0.00000   0.00000  -0.00000  -0.00000   0.01742
   D86       -3.13762  -0.00000   0.00000  -0.00000  -0.00000  -3.13762
   D87       -0.00920  -0.00000   0.00000   0.00000   0.00000  -0.00920
   D88       -3.13755   0.00000   0.00000   0.00000   0.00000  -3.13755
   D89        3.13239  -0.00000   0.00000   0.00000   0.00000   3.13239
   D90        0.00404   0.00000   0.00000  -0.00000  -0.00000   0.00404
         Item               Value     Threshold  Converged?
 Maximum Force            0.000000     0.000002     YES
 RMS     Force            0.000000     0.000001     YES
 Maximum Displacement     0.000000     0.000006     YES
 RMS     Displacement     0.000000     0.000004     YES
 Predicted change in Energy=-1.823282D-17
 Optimization completed.
    -- Stationary point found.
                           ----------------------------
                           !   Optimized Parameters   !
                           ! (Angstroms and Degrees)  !
 --------------------------                            --------------------------
 ! Name  Definition              Value          Derivative Info.                !
 --------------------------------------------------------------------------------
 ! R1    R(1,2)                  1.3968         -DE/DX =    0.0                 !
 ! R2    R(1,6)                  1.4081         -DE/DX =    0.0                 !
 ! R3    R(1,7)                  1.0874         -DE/DX =    0.0                 !
 ! R4    R(2,3)                  1.4069         -DE/DX =    0.0                 !
 ! R5    R(2,8)                  1.0875         -DE/DX =    0.0                 !
 ! R6    R(3,4)                  1.4081         -DE/DX =    0.0                 !
 ! R7    R(3,11)                 1.523          -DE/DX =    0.0                 !
 ! R8    R(4,5)                  1.3968         -DE/DX =    0.0                 !
 ! R9    R(4,9)                  1.0874         -DE/DX =    0.0                 !
 ! R10   R(5,6)                  1.4069         -DE/DX =    0.0                 !
 ! R11   R(5,10)                 1.0875         -DE/DX =    0.0                 !
 ! R12   R(6,14)                 1.523          -DE/DX =    0.0                 !
 ! R13   R(11,12)                1.0955         -DE/DX =    0.0                 !
 ! R14   R(11,13)                1.0976         -DE/DX =    0.0                 !
 ! R15   R(11,17)                1.5857         -DE/DX =    0.0                 !
 ! R16   R(14,15)                1.0976         -DE/DX =    0.0                 !
 ! R17   R(14,16)                1.0955         -DE/DX =    0.0                 !
 ! R18   R(14,20)                1.5857         -DE/DX =    0.0                 !
 ! R19   R(17,18)                1.0991         -DE/DX =    0.0                 !
 ! R20   R(17,19)                1.097          -DE/DX =    0.0                 !
 ! R21   R(17,26)                1.5357         -DE/DX =    0.0                 !
 ! R22   R(20,21)                1.0991         -DE/DX =    0.0                 !
 ! R23   R(20,22)                1.097          -DE/DX =    0.0                 !
 ! R24   R(20,23)                1.5357         -DE/DX =    0.0                 !
 ! R25   R(23,24)                1.3896         -DE/DX =    0.0                 !
 ! R26   R(23,25)                1.402          -DE/DX =    0.0                 !
 ! R27   R(24,26)                1.3896         -DE/DX =    0.0                 !
 ! R28   R(24,27)                1.0502         -DE/DX =    0.0                 !
 ! R29   R(25,28)                1.4025         -DE/DX =    0.0                 !
 ! R30   R(25,29)                1.0878         -DE/DX =    0.0                 !
 ! R31   R(26,30)                1.402          -DE/DX =    0.0                 !
 ! R32   R(28,30)                1.4025         -DE/DX =    0.0                 !
 ! R33   R(28,31)                1.0869         -DE/DX =    0.0                 !
 ! R34   R(30,32)                1.0878         -DE/DX =    0.0                 !
 ! A1    A(2,1,6)              120.3456         -DE/DX =    0.0                 !
 ! A2    A(2,1,7)              118.8514         -DE/DX =    0.0                 !
 ! A3    A(6,1,7)              119.4365         -DE/DX =    0.0                 !
 ! A4    A(1,2,3)              119.4439         -DE/DX =    0.0                 !
 ! A5    A(1,2,8)              118.8844         -DE/DX =    0.0                 !
 ! A6    A(3,2,8)              120.0332         -DE/DX =    0.0                 !
 ! A7    A(2,3,4)              116.3705         -DE/DX =    0.0                 !
 ! A8    A(2,3,11)             121.1011         -DE/DX =    0.0                 !
 ! A9    A(4,3,11)             119.9204         -DE/DX =    0.0                 !
 ! A10   A(3,4,5)              120.3456         -DE/DX =    0.0                 !
 ! A11   A(3,4,9)              119.4365         -DE/DX =    0.0                 !
 ! A12   A(5,4,9)              118.8514         -DE/DX =    0.0                 !
 ! A13   A(4,5,6)              119.4439         -DE/DX =    0.0                 !
 ! A14   A(4,5,10)             118.8844         -DE/DX =    0.0                 !
 ! A15   A(6,5,10)             120.0332         -DE/DX =    0.0                 !
 ! A16   A(1,6,5)              116.3705         -DE/DX =    0.0                 !
 ! A17   A(1,6,14)             119.9204         -DE/DX =    0.0                 !
 ! A18   A(5,6,14)             121.1011         -DE/DX =    0.0                 !
 ! A19   A(3,11,12)            108.6912         -DE/DX =    0.0                 !
 ! A20   A(3,11,13)            112.2398         -DE/DX =    0.0                 !
 ! A21   A(3,11,17)            114.028          -DE/DX =    0.0                 !
 ! A22   A(12,11,13)           106.7039         -DE/DX =    0.0                 !
 ! A23   A(12,11,17)           109.0917         -DE/DX =    0.0                 !
 ! A24   A(13,11,17)           105.7972         -DE/DX =    0.0                 !
 ! A25   A(6,14,15)            112.2398         -DE/DX =    0.0                 !
 ! A26   A(6,14,16)            108.6912         -DE/DX =    0.0                 !
 ! A27   A(6,14,20)            114.028          -DE/DX =    0.0                 !
 ! A28   A(15,14,16)           106.7039         -DE/DX =    0.0                 !
 ! A29   A(15,14,20)           105.7972         -DE/DX =    0.0                 !
 ! A30   A(16,14,20)           109.0917         -DE/DX =    0.0                 !
 ! A31   A(11,17,18)           106.5251         -DE/DX =    0.0                 !
 ! A32   A(11,17,19)           106.7479         -DE/DX =    0.0                 !
 ! A33   A(11,17,26)           121.2225         -DE/DX =    0.0                 !
 ! A34   A(18,17,19)           105.2702         -DE/DX =    0.0                 !
 ! A35   A(18,17,26)           106.6992         -DE/DX =    0.0                 !
 ! A36   A(19,17,26)           109.3            -DE/DX =    0.0                 !
 ! A37   A(14,20,21)           106.5251         -DE/DX =    0.0                 !
 ! A38   A(14,20,22)           106.7479         -DE/DX =    0.0                 !
 ! A39   A(14,20,23)           121.2225         -DE/DX =    0.0                 !
 ! A40   A(21,20,22)           105.2702         -DE/DX =    0.0                 !
 ! A41   A(21,20,23)           106.6992         -DE/DX =    0.0                 !
 ! A42   A(22,20,23)           109.3            -DE/DX =    0.0                 !
 ! A43   A(20,23,24)           119.4207         -DE/DX =    0.0                 !
 ! A44   A(20,23,25)           124.338          -DE/DX =    0.0                 !
 ! A45   A(24,23,25)           115.9744         -DE/DX =    0.0                 !
 ! A46   A(23,24,26)           126.8298         -DE/DX =    0.0                 !
 ! A47   A(23,24,27)           116.5851         -DE/DX =    0.0                 !
 ! A48   A(26,24,27)           116.5851         -DE/DX =    0.0                 !
 ! A49   A(23,25,28)           119.5073         -DE/DX =    0.0                 !
 ! A50   A(23,25,29)           120.9629         -DE/DX =    0.0                 !
 ! A51   A(28,25,29)           119.5253         -DE/DX =    0.0                 !
 ! A52   A(17,26,24)           119.4207         -DE/DX =    0.0                 !
 ! A53   A(17,26,30)           124.338          -DE/DX =    0.0                 !
 ! A54   A(24,26,30)           115.9744         -DE/DX =    0.0                 !
 ! A55   A(25,28,30)           122.1946         -DE/DX =    0.0                 !
 ! A56   A(25,28,31)           118.9027         -DE/DX =    0.0                 !
 ! A57   A(30,28,31)           118.9027         -DE/DX =    0.0                 !
 ! A58   A(26,30,28)           119.5073         -DE/DX =    0.0                 !
 ! A59   A(26,30,32)           120.9629         -DE/DX =    0.0                 !
 ! A60   A(28,30,32)           119.5253         -DE/DX =    0.0                 !
 ! D1    D(6,1,2,3)              1.3991         -DE/DX =    0.0                 !
 ! D2    D(6,1,2,8)            166.8205         -DE/DX =    0.0                 !
 ! D3    D(7,1,2,3)           -165.1838         -DE/DX =    0.0                 !
 ! D4    D(7,1,2,8)              0.2377         -DE/DX =    0.0                 !
 ! D5    D(2,1,6,5)             21.3929         -DE/DX =    0.0                 !
 ! D6    D(2,1,6,14)          -140.5067         -DE/DX =    0.0                 !
 ! D7    D(7,1,6,5)           -172.1024         -DE/DX =    0.0                 !
 ! D8    D(7,1,6,14)            25.9981         -DE/DX =    0.0                 !
 ! D9    D(1,2,3,4)            -22.6847         -DE/DX =    0.0                 !
 ! D10   D(1,2,3,11)           138.9859         -DE/DX =    0.0                 !
 ! D11   D(8,2,3,4)            172.0637         -DE/DX =    0.0                 !
 ! D12   D(8,2,3,11)           -26.2658         -DE/DX =    0.0                 !
 ! D13   D(2,3,4,5)             21.3929         -DE/DX =    0.0                 !
 ! D14   D(2,3,4,9)           -172.1024         -DE/DX =    0.0                 !
 ! D15   D(11,3,4,5)          -140.5067         -DE/DX =    0.0                 !
 ! D16   D(11,3,4,9)            25.9981         -DE/DX =    0.0                 !
 ! D17   D(2,3,11,12)         -177.6425         -DE/DX =    0.0                 !
 ! D18   D(2,3,11,13)           64.5728         -DE/DX =    0.0                 !
 ! D19   D(2,3,11,17)          -55.7129         -DE/DX =    0.0                 !
 ! D20   D(4,3,11,12)          -16.6131         -DE/DX =    0.0                 !
 ! D21   D(4,3,11,13)         -134.3979         -DE/DX =    0.0                 !
 ! D22   D(4,3,11,17)          105.3165         -DE/DX =    0.0                 !
 ! D23   D(3,4,5,6)              1.3991         -DE/DX =    0.0                 !
 ! D24   D(3,4,5,10)           166.8205         -DE/DX =    0.0                 !
 ! D25   D(9,4,5,6)           -165.1838         -DE/DX =    0.0                 !
 ! D26   D(9,4,5,10)             0.2377         -DE/DX =    0.0                 !
 ! D27   D(4,5,6,1)            -22.6847         -DE/DX =    0.0                 !
 ! D28   D(4,5,6,14)           138.9859         -DE/DX =    0.0                 !
 ! D29   D(10,5,6,1)           172.0637         -DE/DX =    0.0                 !
 ! D30   D(10,5,6,14)          -26.2658         -DE/DX =    0.0                 !
 ! D31   D(1,6,14,15)         -134.3979         -DE/DX =    0.0                 !
 ! D32   D(1,6,14,16)          -16.6131         -DE/DX =    0.0                 !
 ! D33   D(1,6,14,20)          105.3165         -DE/DX =    0.0                 !
 ! D34   D(5,6,14,15)           64.5728         -DE/DX =    0.0                 !
 ! D35   D(5,6,14,16)         -177.6425         -DE/DX =    0.0                 !
 ! D36   D(5,6,14,20)          -55.7129         -DE/DX =    0.0                 !
 ! D37   D(3,11,17,18)          76.6855         -DE/DX =    0.0                 !
 ! D38   D(3,11,17,19)        -171.2179         -DE/DX =    0.0                 !
 ! D39   D(3,11,17,26)         -45.3426         -DE/DX =    0.0                 !
 ! D40   D(12,11,17,18)       -161.6059         -DE/DX =    0.0                 !
 ! D41   D(12,11,17,19)        -49.5092         -DE/DX =    0.0                 !
 ! D42   D(12,11,17,26)         76.3661         -DE/DX =    0.0                 !
 ! D43   D(13,11,17,18)        -47.1484         -DE/DX =    0.0                 !
 ! D44   D(13,11,17,19)         64.9482         -DE/DX =    0.0                 !
 ! D45   D(13,11,17,26)       -169.1764         -DE/DX =    0.0                 !
 ! D46   D(6,14,20,21)          76.6855         -DE/DX =    0.0                 !
 ! D47   D(6,14,20,22)        -171.2179         -DE/DX =    0.0                 !
 ! D48   D(6,14,20,23)         -45.3426         -DE/DX =    0.0                 !
 ! D49   D(15,14,20,21)        -47.1484         -DE/DX =    0.0                 !
 ! D50   D(15,14,20,22)         64.9482         -DE/DX =    0.0                 !
 ! D51   D(15,14,20,23)       -169.1764         -DE/DX =    0.0                 !
 ! D52   D(16,14,20,21)       -161.6059         -DE/DX =    0.0                 !
 ! D53   D(16,14,20,22)        -49.5092         -DE/DX =    0.0                 !
 ! D54   D(16,14,20,23)         76.3661         -DE/DX =    0.0                 !
 ! D55   D(11,17,26,24)         34.9951         -DE/DX =    0.0                 !
 ! D56   D(11,17,26,30)       -151.1861         -DE/DX =    0.0                 !
 ! D57   D(18,17,26,24)        -86.9497         -DE/DX =    0.0                 !
 ! D58   D(18,17,26,30)         86.8691         -DE/DX =    0.0                 !
 ! D59   D(19,17,26,24)        159.697          -DE/DX =    0.0                 !
 ! D60   D(19,17,26,30)        -26.4842         -DE/DX =    0.0                 !
 ! D61   D(14,20,23,24)         34.9951         -DE/DX =    0.0                 !
 ! D62   D(14,20,23,25)       -151.1861         -DE/DX =    0.0                 !
 ! D63   D(21,20,23,24)        -86.9497         -DE/DX =    0.0                 !
 ! D64   D(21,20,23,25)         86.8691         -DE/DX =    0.0                 !
 ! D65   D(22,20,23,24)        159.697          -DE/DX =    0.0                 !
 ! D66   D(22,20,23,25)        -26.4842         -DE/DX =    0.0                 !
 ! D67   D(20,23,24,26)        173.8201         -DE/DX =    0.0                 !
 ! D68   D(20,23,24,27)         -6.1799         -DE/DX =    0.0                 !
 ! D69   D(25,23,24,26)         -0.5041         -DE/DX =    0.0                 !
 ! D70   D(25,23,24,27)        179.4959         -DE/DX =    0.0                 !
 ! D71   D(20,23,25,28)       -173.0138         -DE/DX =    0.0                 !
 ! D72   D(20,23,25,29)          6.2162         -DE/DX =    0.0                 !
 ! D73   D(24,23,25,28)          0.9978         -DE/DX =    0.0                 !
 ! D74   D(24,23,25,29)       -179.7721         -DE/DX =    0.0                 !
 ! D75   D(23,24,26,17)        173.8201         -DE/DX =    0.0                 !
 ! D76   D(23,24,26,30)         -0.5041         -DE/DX =    0.0                 !
 ! D77   D(27,24,26,17)         -6.1799         -DE/DX =    0.0                 !
 ! D78   D(27,24,26,30)        179.4959         -DE/DX =    0.0                 !
 ! D79   D(23,25,28,30)         -0.527          -DE/DX =    0.0                 !
 ! D80   D(23,25,28,31)        179.473          -DE/DX =    0.0                 !
 ! D81   D(29,25,28,30)       -179.7683         -DE/DX =    0.0                 !
 ! D82   D(29,25,28,31)          0.2317         -DE/DX =    0.0                 !
 ! D83   D(17,26,30,28)       -173.0138         -DE/DX =    0.0                 !
 ! D84   D(17,26,30,32)          6.2162         -DE/DX =    0.0                 !
 ! D85   D(24,26,30,28)          0.9978         -DE/DX =    0.0                 !
 ! D86   D(24,26,30,32)       -179.7721         -DE/DX =    0.0                 !
 ! D87   D(25,28,30,26)         -0.527          -DE/DX =    0.0                 !
 ! D88   D(25,28,30,32)       -179.7683         -DE/DX =    0.0                 !
 ! D89   D(31,28,30,26)        179.473          -DE/DX =    0.0                 !
 ! D90   D(31,28,30,32)          0.2317         -DE/DX =    0.0                 !
 --------------------------------------------------------------------------------
 Lowest energy point so far.  Saving SCF results.
 Largest change from initial coordinates is atom   21       0.002 Angstoms.
 GradGradGradGradGradGradGradGradGradGradGradGradGradGradGradGradGradGrad

 Leave Link  103 at Mon Jul 28 11:56:03 2025, MaxMem=  6174015488 cpu:               1.6 elap:               0.1
 (Enter /opt/linux/rocky/8/software/gaussian/16c01_avx2/g16/l202.exe)
                          Input orientation:                          
 ---------------------------------------------------------------------
 Center     Atomic      Atomic             Coordinates (Angstroms)
 Number     Number       Type             X           Y           Z
 ---------------------------------------------------------------------
      1          6           0       -2.037995   -0.532334   -1.274615
      2          6           0       -2.053549    0.852851   -1.095822
      3          6           0       -1.804351    1.388191    0.181148
      4          6           0       -2.037994    0.532336    1.274616
      5          6           0       -2.053550   -0.852849    1.095822
      6          6           0       -1.804352   -1.388189   -0.181148
      7          1           0       -1.987098   -0.930400   -2.285216
      8          1           0       -2.018301    1.496024   -1.971992
      9          1           0       -1.987096    0.930402    2.285216
     10          1           0       -2.018302   -1.496022    1.971993
     11          6           0       -0.939273    2.628946    0.358898
     12          1           0       -0.846011    2.841478    1.429570
     13          1           0       -1.388859    3.518245   -0.101278
     14          6           0       -0.939276   -2.628945   -0.358898
     15          1           0       -1.388863   -3.518244    0.101278
     16          1           0       -0.846015   -2.841477   -1.429570
     17          6           0        0.509589    2.501778   -0.272753
     18          1           0        0.389340    2.625324   -1.358233
     19          1           0        1.076501    3.381077    0.057055
     20          6           0        0.509586   -2.501779    0.272753
     21          1           0        0.389337   -2.625325    1.358232
     22          1           0        1.076497   -3.381079   -0.057055
     23          6           0        1.361266   -1.241071    0.063777
     24          6           0        0.739369   -0.000000   -0.000000
     25          6           0        2.763154   -1.226741    0.051937
     26          6           0        1.361267    1.241070   -0.063778
     27          1           0       -0.310841    0.000000   -0.000000
     28          6           0        3.441033   -0.000002   -0.000000
     29          1           0        3.332695   -2.152548    0.094965
     30          6           0        2.763156    1.226737   -0.051937
     31          1           0        4.527914   -0.000003   -0.000000
     32          1           0        3.332697    2.152544   -0.094966
 ---------------------------------------------------------------------
                    Distance matrix (angstroms):
                    1          2          3          4          5
     1  C    0.000000
     2  C    1.396762   0.000000
     3  C    2.421209   1.406891   0.000000
     4  C    2.762626   2.392059   1.408101   0.000000
     5  C    2.392059   2.777178   2.433308   1.396762   0.000000
     6  C    1.408101   2.433308   2.799919   2.421209   1.406891
     7  H    1.087364   2.144541   3.390017   3.848972   3.382581
     8  H    2.144984   1.087469   2.166430   3.386672   3.863927
     9  H    3.848972   3.382581   2.161035   1.087364   2.144541
    10  H    3.386672   3.863927   3.401703   2.144984   1.087469
    11  C    3.724143   2.551928   1.522966   2.538011   3.729284
    12  H    4.485092   3.433714   2.142198   2.603261   3.900972
    13  H    4.266766   2.921517   2.188499   3.351136   4.580538
    14  C    2.538011   3.729284   4.144561   3.724143   2.551928
    15  H    3.351136   4.580538   4.924644   4.266766   2.921517
    16  H    2.603261   3.900972   4.626328   4.485092   3.433714
    17  C    4.086532   3.156910   2.607761   3.572567   4.438040
    18  H    3.983686   3.029559   2.951690   4.147824   4.907931
    19  H    5.175733   4.185483   3.505182   4.392933   5.366785
    20  C    3.572567   4.438040   4.527092   4.086532   3.156910
    21  H    4.147824   4.907931   4.722934   3.983686   3.029559
    22  H    4.392933   5.366785   5.576913   5.175733   4.185483
    23  C    3.721368   4.170149   4.116786   4.020705   3.588426
    24  C    3.101898   3.119066   2.903515   3.101898   3.119066
    25  C    5.029212   5.370539   5.264662   5.257406   4.942685
    26  C    4.020705   3.588426   3.178485   3.721368   4.170149
    27  H    2.211579   2.228275   2.047061   2.211579   2.228275
    28  C    5.650466   5.667329   5.428991   5.650466   5.667329
    29  H    5.774526   6.281880   6.239671   6.119189   5.630503
    30  C    5.257406   4.942685   4.576299   5.029212   5.370539
    31  H    6.709634   6.726354   6.485173   6.709634   6.726354
    32  H    6.119189   5.630503   5.200936   5.774526   6.281880
                    6          7          8          9         10
     6  C    0.000000
     7  H    2.161035   0.000000
     8  H    3.401703   2.446756   0.000000
     9  H    3.390017   4.934718   4.294733   0.000000
    10  H    2.166430   4.294733   4.950490   2.446756   0.000000
    11  C    4.144561   4.556119   2.807288   2.773750   4.558699
    12  H    4.626328   5.415605   3.841241   2.384621   4.525747
    13  H    4.924644   4.991785   2.825801   3.570739   5.462374
    14  C    1.522966   2.773750   4.558699   4.556119   2.807288
    15  H    2.188499   3.570739   5.462374   4.991785   2.825801
    16  H    2.142198   2.384621   4.525747   5.415605   3.841241
    17  C    4.527092   4.697158   3.207675   3.904596   5.235601
    18  H    4.722934   4.376063   2.729241   4.668505   5.820020
    19  H    5.576913   5.784523   4.153102   4.511778   6.085301
    20  C    2.607761   3.904596   5.235601   4.697158   3.207675
    21  H    2.951690   4.668505   5.820020   4.376063   2.729241
    22  H    3.505182   4.511778   6.085301   5.784523   4.153102
    23  C    3.178485   4.101930   4.801825   4.567452   3.889443
    24  C    2.903515   3.677156   3.705615   3.677156   3.705615
    25  C    4.576299   5.302358   5.862768   5.675005   5.159598
    26  C    4.116786   4.567452   3.889443   4.101930   4.801825
    27  H    2.047061   2.982900   3.007035   2.982900   3.007035
    28  C    5.428991   5.962588   5.994262   5.962588   5.994262
    29  H    5.200936   5.954755   6.798349   6.527018   5.708540
    30  C    5.264662   5.675005   5.159598   5.302358   5.862768
    31  H    6.485173   6.966580   6.998556   6.966580   6.998556
    32  H    6.239671   6.527018   5.708540   5.954755   6.798349
                   11         12         13         14         15
    11  C    0.000000
    12  H    1.095539   0.000000
    13  H    1.097608   1.759600   0.000000
    14  C    5.306660   5.756113   6.168990   0.000000
    15  H    6.168990   6.519594   7.039404   1.097608   0.000000
    16  H    5.756113   6.361655   6.519594   1.095539   1.759600
    17  C    1.585672   2.202488   2.160257   5.332068   6.323344
    18  H    2.171120   3.056903   2.353558   5.511010   6.560153
    19  H    2.172592   2.423018   2.474244   6.352696   7.326705
    20  C    5.332068   5.632607   6.323344   1.585672   2.160257
    21  H    5.511010   5.605097   6.560153   2.171120   2.353558
    22  H    6.352696   6.680292   7.326705   2.172592   2.474244
    23  C    4.511830   4.837837   5.499229   2.719805   3.570732
    24  C    3.139746   3.554026   4.113109   3.139746   4.113109
    25  C    5.354298   5.610201   6.306947   3.980321   4.742644
    26  C    2.719805   3.108612   3.570732   4.511830   5.499229
    27  H    2.726736   3.225534   3.681091   2.726736   3.681091
    28  C    5.121255   5.338205   5.976301   5.121255   5.976301
    29  H    6.417324   6.647033   7.381699   4.322347   4.915106
    30  C    3.980321   4.222362   4.742644   5.354298   6.306947
    31  H    6.077032   6.244738   6.884514   6.077032   6.884514
    32  H    4.322347   4.501160   4.915106   6.417324   7.381699
                   16         17         18         19         20
    16  H    0.000000
    17  C    5.632607   0.000000
    18  H    5.605097   1.099085   0.000000
    19  H    6.680292   1.096964   1.745392   0.000000
    20  C    2.202488   5.033206   5.381613   5.914044   0.000000
    21  H    3.056903   5.381613   5.911726   6.184022   1.099085
    22  H    2.423018   5.914044   6.184022   6.763119   1.096964
    23  C    3.108612   3.853249   4.232702   4.630917   1.535712
    24  C    3.554026   2.527071   2.976516   3.398323   2.527071
    25  C    4.222362   4.368734   4.739407   4.906813   2.598664
    26  C    4.837837   1.535712   2.129887   2.162250   3.853249
    27  H    3.225534   2.646959   3.037660   3.655087   2.646959
    28  C    5.338205   3.863504   4.248525   4.126253   3.863504
    29  H    4.501160   5.455996   5.796825   5.976024   2.850178
    30  C    5.610201   2.598664   3.049173   2.738223   4.368734
    31  H    6.244738   4.741333   5.085758   4.831895   4.741333
    32  H    6.647033   2.850178   3.237702   2.573485   5.455996
                   21         22         23         24         25
    21  H    0.000000
    22  H    1.745392   0.000000
    23  C    2.129887   2.162250   0.000000
    24  C    2.976516   3.398323   1.389633   0.000000
    25  C    3.049173   2.738223   1.402012   2.367128   0.000000
    26  C    4.232702   4.630917   2.485416   1.389633   2.840557
    27  H    3.037660   3.655087   2.083331   1.050210   3.310142
    28  C    4.248525   4.126253   2.422757   2.701664   1.402535
    29  H    3.237702   2.573485   2.172163   3.371619   1.087817
    30  C    4.739407   4.906813   2.840557   2.367128   2.455676
    31  H    5.085758   4.831895   3.401761   3.788545   2.149875
    32  H    5.796825   5.976024   3.927896   3.371619   3.430091
                   26         27         28         29         30
    26  C    0.000000
    27  H    2.083331   0.000000
    28  C    2.422757   3.751875   0.000000
    29  H    3.927896   4.232947   2.157362   0.000000
    30  C    1.402012   3.310142   1.402535   3.430091   0.000000
    31  H    3.401761   4.838756   1.086881   2.463944   2.149875
    32  H    2.172163   4.232947   2.157362   4.309279   1.087817
                   31         32
    31  H    0.000000
    32  H    2.463944   0.000000
 Stoichiometry    C16H16
 Framework group  C1[X(C16H16)]
 Deg. of freedom    90
 Full point group                 C1      NOp   1
 RotChk:  IX=3 Diff= 6.69D-10
 Largest Abelian subgroup         C1      NOp   1
 Largest concise Abelian subgroup C1      NOp   1
                         Standard orientation:                         
 ---------------------------------------------------------------------
 Center     Atomic      Atomic             Coordinates (Angstroms)
 Number     Number       Type             X           Y           Z
 ---------------------------------------------------------------------
      1          6           0       -2.038013   -0.532335   -1.274615
      2          6           0       -2.053568    0.852850   -1.095822
      3          6           0       -1.804370    1.388190    0.181148
      4          6           0       -2.038013    0.532335    1.274616
      5          6           0       -2.053568   -0.852850    1.095822
      6          6           0       -1.804370   -1.388190   -0.181148
      7          1           0       -1.987116   -0.930401   -2.285216
      8          1           0       -2.018320    1.496023   -1.971992
      9          1           0       -1.987115    0.930401    2.285217
     10          1           0       -2.018320   -1.496023    1.971993
     11          6           0       -0.939293    2.628945    0.358898
     12          1           0       -0.846031    2.841477    1.429570
     13          1           0       -1.388879    3.518245   -0.101278
     14          6           0       -0.939293   -2.628945   -0.358898
     15          1           0       -1.388879   -3.518245    0.101278
     16          1           0       -0.846032   -2.841477   -1.429570
     17          6           0        0.509569    2.501778   -0.272753
     18          1           0        0.389320    2.625325   -1.358233
     19          1           0        1.076480    3.381078    0.057055
     20          6           0        0.509569   -2.501778    0.272753
     21          1           0        0.389320   -2.625325    1.358233
     22          1           0        1.076480   -3.381078   -0.057055
     23          6           0        1.361248   -1.241071    0.063777
     24          6           0        0.739350    0.000000   -0.000000
     25          6           0        2.763137   -1.226739    0.051937
     26          6           0        1.361248    1.241071   -0.063778
     27          1           0       -0.310860    0.000000    0.000000
     28          6           0        3.441015    0.000000   -0.000000
     29          1           0        3.332677   -2.152546    0.094965
     30          6           0        2.763137    1.226739   -0.051937
     31          1           0        4.527896    0.000000   -0.000000
     32          1           0        3.332677    2.152546   -0.094966
 ---------------------------------------------------------------------
 Rotational constants (GHZ):           0.7735587           0.5945921           0.3877056
 Leave Link  202 at Mon Jul 28 11:56:03 2025, MaxMem=  6174015488 cpu:               0.1 elap:               0.0
 (Enter /opt/linux/rocky/8/software/gaussian/16c01_avx2/g16/l601.exe)
 Copying SCF densities to generalized density rwf, IOpCl= 0 IROHF=0.

 **********************************************************************

            Population analysis using the SCF Density.

 **********************************************************************

 Orbital symmetries:
       Occupied  (A) (A) (A) (A) (A) (A) (A) (A) (A) (A) (A) (A)
                 (A) (A) (A) (A) (A) (A) (A) (A) (A) (A) (A) (A)
                 (A) (A) (A) (A) (A) (A) (A) (A) (A) (A) (A) (A)
                 (A) (A) (A) (A) (A) (A) (A) (A) (A) (A) (A) (A)
                 (A) (A) (A) (A) (A) (A) (A) (A)
       Virtual   (A) (A) (A) (A) (A) (A) (A) (A) (A) (A) (A) (A)
                 (A) (A) (A) (A) (A) (A) (A) (A) (A) (A) (A) (A)
                 (A) (A) (A) (A) (A) (A) (A) (A) (A) (A) (A) (A)
                 (A) (A) (A) (A) (A) (A) (A) (A) (A) (A) (A) (A)
                 (A) (A) (A) (A) (A) (A) (A) (A) (A) (A) (A) (A)
                 (A) (A) (A) (A) (A) (A) (A) (A) (A) (A) (A) (A)
                 (A) (A) (A) (A) (A) (A) (A) (A) (A) (A) (A) (A)
                 (A) (A) (A) (A) (A) (A) (A) (A) (A) (A) (A) (A)
                 (A) (A) (A) (A) (A) (A) (A) (A) (A) (A) (A) (A)
                 (A) (A) (A) (A) (A) (A) (A) (A) (A) (A) (A) (A)
                 (A) (A) (A) (A) (A) (A) (A) (A) (A) (A) (A) (A)
                 (A) (A) (A) (A) (A) (A) (A) (A) (A) (A) (A) (A)
                 (A) (A) (A) (A) (A) (A) (A) (A) (A) (A) (A) (A)
                 (A) (A) (A) (A) (A) (A) (A) (A) (A) (A) (A) (A)
                 (A) (A) (A) (A) (A) (A) (A) (A) (A) (A) (A) (A)
                 (A) (A) (A) (A) (A) (A) (A) (A) (A) (A) (A) (A)
                 (A) (A) (A) (A) (A) (A) (A) (A) (A) (A) (A) (A)
                 (A) (A) (A) (A) (A) (A) (A) (A) (A) (A) (A) (A)
                 (A) (A) (A) (A) (A) (A) (A) (A) (A) (A) (A) (A)
                 (A) (A) (A) (A) (A) (A) (A) (A) (A) (A) (A) (A)
                 (A) (A) (A) (A) (A) (A) (A) (A) (A) (A) (A) (A)
                 (A) (A) (A) (A) (A) (A) (A) (A) (A) (A) (A) (A)
 The electronic state is 1-A.
 Alpha  occ. eigenvalues --  -10.19601 -10.19601 -10.19451 -10.19451 -10.19242
 Alpha  occ. eigenvalues --  -10.19242 -10.18836 -10.18834 -10.18748 -10.18748
 Alpha  occ. eigenvalues --  -10.18343 -10.18343 -10.17762 -10.17641 -10.17629
 Alpha  occ. eigenvalues --  -10.15066  -0.86667  -0.83999  -0.80349  -0.76141
 Alpha  occ. eigenvalues --   -0.75345  -0.74264  -0.71937  -0.68994  -0.64944
 Alpha  occ. eigenvalues --   -0.61845  -0.60208  -0.57892  -0.56819  -0.55502
 Alpha  occ. eigenvalues --   -0.49689  -0.48513  -0.47237  -0.45611  -0.44537
 Alpha  occ. eigenvalues --   -0.44165  -0.42995  -0.42204  -0.41471  -0.41079
 Alpha  occ. eigenvalues --   -0.40898  -0.38149  -0.37540  -0.36789  -0.36328
 Alpha  occ. eigenvalues --   -0.35842  -0.35617  -0.32831  -0.32508  -0.32438
 Alpha  occ. eigenvalues --   -0.31745  -0.28332  -0.25443  -0.22720  -0.22385
 Alpha  occ. eigenvalues --   -0.22275
 Alpha virt. eigenvalues --   -0.01767  -0.00558   0.01143   0.01596   0.09322
 Alpha virt. eigenvalues --    0.09735   0.10494   0.11450   0.11922   0.12511
 Alpha virt. eigenvalues --    0.14234   0.14831   0.15965   0.16387   0.17147
 Alpha virt. eigenvalues --    0.18087   0.18481   0.18752   0.19583   0.20066
 Alpha virt. eigenvalues --    0.21112   0.21920   0.22918   0.23537   0.25116
 Alpha virt. eigenvalues --    0.26331   0.29577   0.30370   0.32888   0.33010
 Alpha virt. eigenvalues --    0.33869   0.34832   0.35130   0.35778   0.36316
 Alpha virt. eigenvalues --    0.39407   0.45402   0.47769   0.49393   0.50759
 Alpha virt. eigenvalues --    0.50884   0.51439   0.52265   0.53511   0.54499
 Alpha virt. eigenvalues --    0.55073   0.55911   0.56611   0.57810   0.57941
 Alpha virt. eigenvalues --    0.58974   0.59395   0.60042   0.60915   0.61194
 Alpha virt. eigenvalues --    0.61872   0.62682   0.63295   0.63915   0.65457
 Alpha virt. eigenvalues --    0.66203   0.67268   0.68723   0.69088   0.71203
 Alpha virt. eigenvalues --    0.72913   0.73685   0.74141   0.75124   0.75934
 Alpha virt. eigenvalues --    0.79544   0.79583   0.80600   0.81008   0.81818
 Alpha virt. eigenvalues --    0.82376   0.82999   0.83265   0.83890   0.85719
 Alpha virt. eigenvalues --    0.86097   0.86735   0.88878   0.89801   0.90622
 Alpha virt. eigenvalues --    0.90954   0.92071   0.92602   0.94042   0.94952
 Alpha virt. eigenvalues --    0.96188   0.96564   0.97654   0.98020   1.00024
 Alpha virt. eigenvalues --    1.03132   1.04732   1.04745   1.06181   1.07683
 Alpha virt. eigenvalues --    1.08194   1.11372   1.15159   1.15567   1.16031
 Alpha virt. eigenvalues --    1.18747   1.20706   1.25616   1.27745   1.28966
 Alpha virt. eigenvalues --    1.29299   1.31716   1.33342   1.36963   1.38773
 Alpha virt. eigenvalues --    1.39045   1.39982   1.40357   1.43881   1.44341
 Alpha virt. eigenvalues --    1.45163   1.45353   1.47536   1.51435   1.52277
 Alpha virt. eigenvalues --    1.54606   1.57476   1.61744   1.67253   1.67426
 Alpha virt. eigenvalues --    1.67539   1.70722   1.75711   1.76744   1.76943
 Alpha virt. eigenvalues --    1.78375   1.78498   1.79345   1.81079   1.81686
 Alpha virt. eigenvalues --    1.81910   1.83250   1.83681   1.84847   1.88703
 Alpha virt. eigenvalues --    1.90083   1.90230   1.91915   1.92872   1.93749
 Alpha virt. eigenvalues --    1.96928   1.97714   1.98799   1.99569   2.00188
 Alpha virt. eigenvalues --    2.03738   2.04221   2.05651   2.05745   2.07039
 Alpha virt. eigenvalues --    2.09872   2.10474   2.13393   2.13681   2.15437
 Alpha virt. eigenvalues --    2.16021   2.18715   2.19355   2.20295   2.21960
 Alpha virt. eigenvalues --    2.23058   2.25083   2.25524   2.27158   2.27743
 Alpha virt. eigenvalues --    2.28793   2.30657   2.32772   2.32876   2.33972
 Alpha virt. eigenvalues --    2.34227   2.37419   2.39660   2.40702   2.41940
 Alpha virt. eigenvalues --    2.42196   2.43052   2.43508   2.44623   2.46807
 Alpha virt. eigenvalues --    2.49029   2.49440   2.50970   2.52419   2.52649
 Alpha virt. eigenvalues --    2.54064   2.56358   2.58467   2.58917   2.61408
 Alpha virt. eigenvalues --    2.61417   2.62077   2.63244   2.63951   2.65245
 Alpha virt. eigenvalues --    2.67098   2.67181   2.67847   2.69092   2.72234
 Alpha virt. eigenvalues --    2.72401   2.73451   2.75774   2.77254   2.80906
 Alpha virt. eigenvalues --    2.81515   2.81728   2.83961   2.84057   2.88576
 Alpha virt. eigenvalues --    2.89456   2.89471   2.93157   2.93427   2.98717
 Alpha virt. eigenvalues --    3.05361   3.07029   3.10064   3.17424   3.22472
 Alpha virt. eigenvalues --    3.25359   3.26171   3.26497   3.26731   3.27454
 Alpha virt. eigenvalues --    3.28787   3.34745   3.35668   3.38385   3.43370
 Alpha virt. eigenvalues --    3.46542   3.47973   3.49461   3.50585   3.53145
 Alpha virt. eigenvalues --    3.66584   3.76734   3.85947   4.13980   4.16771
 Alpha virt. eigenvalues --    4.17220   4.24795   4.31634   4.34302   4.38296
 Alpha virt. eigenvalues --    4.43582   4.43640   4.48394   4.57112   4.59034
 Alpha virt. eigenvalues --    4.67076   4.70392   4.79551   4.86235
          Condensed to atoms (all electrons):
               1          2          3          4          5          6
     1  C    4.919576   0.501913  -0.038300  -0.043781  -0.043520   0.545308
     2  C    0.501913   4.939760   0.536866  -0.043520  -0.043276  -0.044502
     3  C   -0.038300   0.536866   4.823354   0.545308  -0.044502  -0.041022
     4  C   -0.043781  -0.043520   0.545308   4.919576   0.501913  -0.038300
     5  C   -0.043520  -0.043276  -0.044502   0.501913   4.939760   0.536866
     6  C    0.545308  -0.044502  -0.041022  -0.038300   0.536866   4.823354
     7  H    0.366900  -0.039412   0.004046   0.000436   0.005675  -0.040948
     8  H   -0.038385   0.370155  -0.046924   0.005272   0.000349   0.004410
     9  H    0.000436   0.005675  -0.040948   0.366900  -0.039412   0.004046
    10  H    0.005272   0.000349   0.004410  -0.038385   0.370155  -0.046924
    11  C    0.004952  -0.064828   0.370141  -0.048053   0.006969   0.000822
    12  H   -0.000207   0.005504  -0.033018  -0.007303  -0.000052  -0.000007
    13  H   -0.000226  -0.002975  -0.029893   0.003558  -0.000217  -0.000048
    14  C   -0.048053   0.006969   0.000822   0.004952  -0.064828   0.370141
    15  H    0.003558  -0.000217  -0.000048  -0.000226  -0.002975  -0.029893
    16  H   -0.007303  -0.000052  -0.000007  -0.000207   0.005504  -0.033018
    17  C    0.001475  -0.005011  -0.044952  -0.004253   0.000111   0.000416
    18  H   -0.000061   0.004280  -0.006350  -0.000058   0.000005  -0.000015
    19  H   -0.000001   0.000189   0.005011   0.000001  -0.000010  -0.000006
    20  C   -0.004253   0.000111   0.000416   0.001475  -0.005011  -0.044952
    21  H   -0.000058   0.000005  -0.000015  -0.000061   0.004280  -0.006350
    22  H    0.000001  -0.000010  -0.000006  -0.000001   0.000189   0.005011
    23  C    0.002673   0.000966   0.000778  -0.000583  -0.003404  -0.003911
    24  C   -0.010352  -0.007740  -0.009964  -0.010352  -0.007740  -0.009964
    25  C    0.000010  -0.000017  -0.000025  -0.000062  -0.000076   0.000025
    26  C   -0.000583  -0.003404  -0.003911   0.002673   0.000966   0.000778
    27  H   -0.014226  -0.018555  -0.003812  -0.014226  -0.018555  -0.003812
    28  C   -0.000002  -0.000002  -0.000006  -0.000002  -0.000002  -0.000006
    29  H    0.000002   0.000000   0.000000   0.000001   0.000001   0.000006
    30  C   -0.000062  -0.000076   0.000025   0.000010  -0.000017  -0.000025
    31  H   -0.000000  -0.000000   0.000000  -0.000000  -0.000000   0.000000
    32  H    0.000001   0.000001   0.000006   0.000002   0.000000   0.000000
               7          8          9         10         11         12
     1  C    0.366900  -0.038385   0.000436   0.005272   0.004952  -0.000207
     2  C   -0.039412   0.370155   0.005675   0.000349  -0.064828   0.005504
     3  C    0.004046  -0.046924  -0.040948   0.004410   0.370141  -0.033018
     4  C    0.000436   0.005272   0.366900  -0.038385  -0.048053  -0.007303
     5  C    0.005675   0.000349  -0.039412   0.370155   0.006969  -0.000052
     6  C   -0.040948   0.004410   0.004046  -0.046924   0.000822  -0.000007
     7  H    0.625738  -0.007283   0.000015  -0.000199  -0.000191   0.000004
     8  H   -0.007283   0.629168  -0.000199   0.000016  -0.006274  -0.000005
     9  H    0.000015  -0.000199   0.625738  -0.007283  -0.009313   0.006830
    10  H   -0.000199   0.000016  -0.007283   0.629168  -0.000153  -0.000020
    11  C   -0.000191  -0.006274  -0.009313  -0.000153   4.997166   0.370825
    12  H    0.000004  -0.000005   0.006830  -0.000020   0.370825   0.627479
    13  H   -0.000003   0.002425   0.000103   0.000002   0.356900  -0.033624
    14  C   -0.009313  -0.000153  -0.000191  -0.006274  -0.000003  -0.000001
    15  H    0.000103   0.000002  -0.000003   0.002425   0.000000  -0.000000
    16  H    0.006830  -0.000020   0.000004  -0.000005  -0.000001   0.000000
    17  C    0.000023  -0.000256   0.000021   0.000003   0.346800  -0.037849
    18  H    0.000006   0.001327   0.000001  -0.000000  -0.037324   0.005545
    19  H   -0.000000  -0.000035  -0.000003  -0.000000  -0.031233  -0.005967
    20  C    0.000021   0.000003   0.000023  -0.000256   0.000007   0.000001
    21  H    0.000001  -0.000000   0.000006   0.001327  -0.000002   0.000000
    22  H   -0.000003  -0.000000  -0.000000  -0.000035   0.000000  -0.000000
    23  C    0.000022  -0.000020  -0.000013   0.000265   0.000059  -0.000021
    24  C    0.000213  -0.000186   0.000213  -0.000186  -0.003912   0.000137
    25  C   -0.000001   0.000000  -0.000001   0.000003  -0.000008  -0.000004
    26  C   -0.000013   0.000265   0.000022  -0.000020  -0.028007  -0.001285
    27  H   -0.000307   0.000303  -0.000307   0.000303  -0.001934  -0.000480
    28  C    0.000000  -0.000000   0.000000  -0.000000  -0.000098   0.000002
    29  H   -0.000000   0.000000  -0.000000  -0.000000  -0.000000  -0.000000
    30  C   -0.000001   0.000003  -0.000001   0.000000   0.002509   0.000095
    31  H    0.000000   0.000000   0.000000   0.000000   0.000001   0.000000
    32  H   -0.000000  -0.000000  -0.000000   0.000000  -0.000000  -0.000009
              13         14         15         16         17         18
     1  C   -0.000226  -0.048053   0.003558  -0.007303   0.001475  -0.000061
     2  C   -0.002975   0.006969  -0.000217  -0.000052  -0.005011   0.004280
     3  C   -0.029893   0.000822  -0.000048  -0.000007  -0.044952  -0.006350
     4  C    0.003558   0.004952  -0.000226  -0.000207  -0.004253  -0.000058
     5  C   -0.000217  -0.064828  -0.002975   0.005504   0.000111   0.000005
     6  C   -0.000048   0.370141  -0.029893  -0.033018   0.000416  -0.000015
     7  H   -0.000003  -0.009313   0.000103   0.006830   0.000023   0.000006
     8  H    0.002425  -0.000153   0.000002  -0.000020  -0.000256   0.001327
     9  H    0.000103  -0.000191  -0.000003   0.000004   0.000021   0.000001
    10  H    0.000002  -0.006274   0.002425  -0.000005   0.000003  -0.000000
    11  C    0.356900  -0.000003   0.000000  -0.000001   0.346800  -0.037324
    12  H   -0.033624  -0.000001  -0.000000   0.000000  -0.037849   0.005545
    13  H    0.638199   0.000000  -0.000000  -0.000000  -0.034744  -0.006248
    14  C    0.000000   4.997166   0.356900   0.370825   0.000007  -0.000002
    15  H   -0.000000   0.356900   0.638199  -0.033624   0.000000   0.000000
    16  H   -0.000000   0.370825  -0.033624   0.627479   0.000001   0.000000
    17  C   -0.034744   0.000007   0.000000   0.000001   5.086458   0.369771
    18  H   -0.006248  -0.000002   0.000000   0.000000   0.369771   0.625900
    19  H   -0.000638   0.000000  -0.000000  -0.000000   0.359852  -0.036001
    20  C    0.000000   0.346800  -0.034744  -0.037849  -0.000149   0.000004
    21  H    0.000000  -0.037324  -0.006248   0.005545   0.000004   0.000000
    22  H   -0.000000  -0.031233  -0.000638  -0.005967   0.000002  -0.000000
    23  C    0.000003  -0.028007   0.003962  -0.001285   0.008345  -0.000327
    24  C    0.000113  -0.003912   0.000113   0.000137  -0.047080  -0.005468
    25  C    0.000000   0.002509  -0.000087   0.000095  -0.000012   0.000052
    26  C    0.003962   0.000059   0.000003  -0.000021   0.344551  -0.032681
    27  H    0.000167  -0.001934   0.000167  -0.000480  -0.028137   0.000802
    28  C    0.000001  -0.000098   0.000001   0.000002   0.005765  -0.000140
    29  H    0.000000  -0.000000  -0.000001  -0.000009   0.000012  -0.000000
    30  C   -0.000087  -0.000008   0.000000  -0.000004  -0.065799  -0.000909
    31  H   -0.000000   0.000001  -0.000000   0.000000  -0.000160   0.000003
    32  H   -0.000001  -0.000000   0.000000  -0.000000  -0.007249   0.000397
              19         20         21         22         23         24
     1  C   -0.000001  -0.004253  -0.000058   0.000001   0.002673  -0.010352
     2  C    0.000189   0.000111   0.000005  -0.000010   0.000966  -0.007740
     3  C    0.005011   0.000416  -0.000015  -0.000006   0.000778  -0.009964
     4  C    0.000001   0.001475  -0.000061  -0.000001  -0.000583  -0.010352
     5  C   -0.000010  -0.005011   0.004280   0.000189  -0.003404  -0.007740
     6  C   -0.000006  -0.044952  -0.006350   0.005011  -0.003911  -0.009964
     7  H   -0.000000   0.000021   0.000001  -0.000003   0.000022   0.000213
     8  H   -0.000035   0.000003  -0.000000  -0.000000  -0.000020  -0.000186
     9  H   -0.000003   0.000023   0.000006  -0.000000  -0.000013   0.000213
    10  H   -0.000000  -0.000256   0.001327  -0.000035   0.000265  -0.000186
    11  C   -0.031233   0.000007  -0.000002   0.000000   0.000059  -0.003912
    12  H   -0.005967   0.000001   0.000000  -0.000000  -0.000021   0.000137
    13  H   -0.000638   0.000000   0.000000  -0.000000   0.000003   0.000113
    14  C    0.000000   0.346800  -0.037324  -0.031233  -0.028007  -0.003912
    15  H   -0.000000  -0.034744  -0.006248  -0.000638   0.003962   0.000113
    16  H   -0.000000  -0.037849   0.005545  -0.005967  -0.001285   0.000137
    17  C    0.359852  -0.000149   0.000004   0.000002   0.008345  -0.047080
    18  H   -0.036001   0.000004   0.000000  -0.000000  -0.000327  -0.005468
    19  H    0.634103   0.000002  -0.000000  -0.000000  -0.000150   0.004138
    20  C    0.000002   5.086458   0.369771   0.359852   0.344551  -0.047080
    21  H   -0.000000   0.369771   0.625900  -0.036001  -0.032681  -0.005468
    22  H   -0.000000   0.359852  -0.036001   0.634103  -0.030980   0.004138
    23  C   -0.000150   0.344551  -0.032681  -0.030980   4.768784   0.531601
    24  C    0.004138  -0.047080  -0.005468   0.004138   0.531601   4.876145
    25  C    0.000013  -0.065799  -0.000909  -0.003323   0.501725  -0.025863
    26  C   -0.030980   0.008345  -0.000327  -0.000150  -0.009300   0.531601
    27  H    0.000335  -0.028137   0.000802   0.000335  -0.075276   0.332141
    28  C    0.000018   0.005765  -0.000140   0.000018  -0.019125  -0.055032
    29  H   -0.000000  -0.007249   0.000397   0.005108  -0.042088   0.005289
    30  C   -0.003323  -0.000012   0.000052   0.000013  -0.052748  -0.025863
    31  H   -0.000004  -0.000160   0.000003  -0.000004   0.003424   0.001261
    32  H    0.005108   0.000012  -0.000000  -0.000000   0.001015   0.005289
              25         26         27         28         29         30
     1  C    0.000010  -0.000583  -0.014226  -0.000002   0.000002  -0.000062
     2  C   -0.000017  -0.003404  -0.018555  -0.000002   0.000000  -0.000076
     3  C   -0.000025  -0.003911  -0.003812  -0.000006   0.000000   0.000025
     4  C   -0.000062   0.002673  -0.014226  -0.000002   0.000001   0.000010
     5  C   -0.000076   0.000966  -0.018555  -0.000002   0.000001  -0.000017
     6  C    0.000025   0.000778  -0.003812  -0.000006   0.000006  -0.000025
     7  H   -0.000001  -0.000013  -0.000307   0.000000  -0.000000  -0.000001
     8  H    0.000000   0.000265   0.000303  -0.000000   0.000000   0.000003
     9  H   -0.000001   0.000022  -0.000307   0.000000  -0.000000  -0.000001
    10  H    0.000003  -0.000020   0.000303  -0.000000  -0.000000   0.000000
    11  C   -0.000008  -0.028007  -0.001934  -0.000098  -0.000000   0.002509
    12  H   -0.000004  -0.001285  -0.000480   0.000002  -0.000000   0.000095
    13  H    0.000000   0.003962   0.000167   0.000001   0.000000  -0.000087
    14  C    0.002509   0.000059  -0.001934  -0.000098  -0.000000  -0.000008
    15  H   -0.000087   0.000003   0.000167   0.000001  -0.000001   0.000000
    16  H    0.000095  -0.000021  -0.000480   0.000002  -0.000009  -0.000004
    17  C   -0.000012   0.344551  -0.028137   0.005765   0.000012  -0.065799
    18  H    0.000052  -0.032681   0.000802  -0.000140  -0.000000  -0.000909
    19  H    0.000013  -0.030980   0.000335   0.000018  -0.000000  -0.003323
    20  C   -0.065799   0.008345  -0.028137   0.005765  -0.007249  -0.000012
    21  H   -0.000909  -0.000327   0.000802  -0.000140   0.000397   0.000052
    22  H   -0.003323  -0.000150   0.000335   0.000018   0.005108   0.000013
    23  C    0.501725  -0.009300  -0.075276  -0.019125  -0.042088  -0.052748
    24  C   -0.025863   0.531601   0.332141  -0.055032   0.005289  -0.025863
    25  C    4.969788  -0.052748   0.014428   0.514960   0.358161  -0.027827
    26  C   -0.052748   4.768784  -0.075276  -0.019125   0.001015   0.501725
    27  H    0.014428  -0.075276   0.956061  -0.000248  -0.000348   0.014428
    28  C    0.514960  -0.019125  -0.000248   4.849022  -0.042658   0.514960
    29  H    0.358161   0.001015  -0.000348  -0.042658   0.654489   0.004300
    30  C   -0.027827   0.501725   0.014428   0.514960   0.004300   4.969788
    31  H   -0.038343   0.003424   0.000015   0.363550  -0.006090  -0.038343
    32  H    0.004300  -0.042088  -0.000348  -0.042658  -0.000178   0.358161
              31         32
     1  C   -0.000000   0.000001
     2  C   -0.000000   0.000001
     3  C    0.000000   0.000006
     4  C   -0.000000   0.000002
     5  C   -0.000000   0.000000
     6  C    0.000000   0.000000
     7  H    0.000000  -0.000000
     8  H    0.000000  -0.000000
     9  H    0.000000  -0.000000
    10  H    0.000000   0.000000
    11  C    0.000001  -0.000000
    12  H    0.000000  -0.000009
    13  H   -0.000000  -0.000001
    14  C    0.000001  -0.000000
    15  H   -0.000000   0.000000
    16  H    0.000000  -0.000000
    17  C   -0.000160  -0.007249
    18  H    0.000003   0.000397
    19  H   -0.000004   0.005108
    20  C   -0.000160   0.000012
    21  H    0.000003  -0.000000
    22  H   -0.000004  -0.000000
    23  C    0.003424   0.001015
    24  C    0.001261   0.005289
    25  C   -0.038343   0.004300
    26  C    0.003424  -0.042088
    27  H    0.000015  -0.000348
    28  C    0.363550  -0.042658
    29  H   -0.006090  -0.000178
    30  C   -0.038343   0.358161
    31  H    0.642468  -0.006090
    32  H   -0.006090   0.654489
 Mulliken charges:
               1
     1  C   -0.102703
     2  C   -0.099148
     3  C    0.052519
     4  C   -0.102703
     5  C   -0.099148
     6  C    0.052519
     7  H    0.087640
     8  H    0.086043
     9  H    0.087640
    10  H    0.086043
    11  C   -0.225819
    12  H    0.103429
    13  H    0.103272
    14  C   -0.225819
    15  H    0.103272
    16  H    0.103429
    17  C   -0.247967
    18  H    0.117490
    19  H    0.099581
    20  C   -0.247967
    21  H    0.117490
    22  H    0.099581
    23  C    0.131747
    24  C   -0.016363
    25  C   -0.150963
    26  C    0.131747
    27  H   -0.033887
    28  C   -0.074723
    29  H    0.069842
    30  C   -0.150963
    31  H    0.075045
    32  H    0.069842
 Sum of Mulliken charges =  -0.00000
 Mulliken charges with hydrogens summed into heavy atoms:
               1
     1  C   -0.015062
     2  C   -0.013105
     3  C    0.052519
     4  C   -0.015062
     5  C   -0.013105
     6  C    0.052519
    11  C   -0.019117
    14  C   -0.019117
    17  C   -0.030895
    20  C   -0.030895
    23  C    0.131747
    24  C   -0.050250
    25  C   -0.081121
    26  C    0.131747
    28  C    0.000322
    30  C   -0.081121
 Electronic spatial extent (au):  <R**2>=           3040.2532
 Charge=             -0.0000 electrons
 Dipole moment (field-independent basis, Debye):
    X=             -0.0360    Y=              0.0000    Z=              0.0000  Tot=              0.0360
 Quadrupole moment (field-independent basis, Debye-Ang):
   XX=            -98.0263   YY=            -85.8763   ZZ=            -92.1128
   XY=             -0.0000   XZ=              0.0000   YZ=             -0.8382
 Traceless Quadrupole moment (field-independent basis, Debye-Ang):
   XX=             -6.0212   YY=              6.1289   ZZ=             -0.1077
   XY=             -0.0000   XZ=              0.0000   YZ=             -0.8382
 Octapole moment (field-independent basis, Debye-Ang**2):
  XXX=             36.8047  YYY=              0.0000  ZZZ=              0.0000  XYY=              3.9312
  XXY=              0.0000  XXZ=             -0.0000  XZZ=            -14.2331  YZZ=             -0.0000
  YYZ=             -0.0000  XYZ=              0.7158
 Hexadecapole moment (field-independent basis, Debye-Ang**3):
 XXXX=          -2155.1495 YYYY=          -1628.7879 ZZZZ=           -374.2077 XXXY=             -0.0000
 XXXZ=              0.0001 YYYX=             -0.0000 YYYZ=             -5.5587 ZZZX=              0.0001
 ZZZY=              0.2744 XXYY=           -621.9319 XXZZ=           -436.5889 YYZZ=           -338.3890
 XXYZ=             -4.9530 YYXZ=              0.0000 ZZXY=              0.0000
 N-N= 1.060800878448D+03 E-N=-3.554854914195D+03  KE= 6.132512569223D+02
 No NMR shielding tensors so no spin-rotation constants.
 Leave Link  601 at Mon Jul 28 11:56:03 2025, MaxMem=  6174015488 cpu:               3.6 elap:               0.1
 (Enter /opt/linux/rocky/8/software/gaussian/16c01_avx2/g16/l9999.exe)
 Unable to Open any file for archive entry.
 1\1\GINC-A003\FTS\RB3LYP\6-31G(d,p)\C16H16\DJO04747\28-Jul-2025\0\\#P 
 opt=(calcfc,ts,vtight) freq rb3lyp/6-31g(d,p) integral=grid=ultrafine 
 scf=conver=10\\Title Card Required\\0,1\C,-2.0379948993,-0.5323336466,
 -1.2746153806\C,-2.053549031,0.8528509559,-1.0958221248\C,-1.804350530
 1,1.3881911969,0.1811482221\C,-2.0379940387,0.5323359893,1.2746155611\
 C,-2.0535498516,-0.8528485949,1.0958223092\C,-1.8043522153,-1.38818913
 35,-0.1811480828\H,-1.9870978721,-0.9303995961,-2.2852162875\H,-2.0183
 008683,1.4960239106,-1.9719924341\H,-1.9870963583,0.9304018776,2.28521
 6459\H,-2.018302298,-1.496021592,1.9719926123\C,-0.9392729571,2.628945
 7263,0.3588979878\H,-0.8460111054,2.84147784,1.4295699177\H,-1.3888585
 112,3.5182454891,-0.1012779969\C,-0.9392761489,-2.6289446926,-0.358898
 0026\H,-1.3888626799,-3.5182439206,0.1012780618\H,-0.8460147408,-2.841
 4769165,-1.4295699494\C,0.509588861,2.5017781422,-0.2727534262\H,0.389
 3402268,2.6253244405,-1.3582327334\H,1.0765010441,3.3810774536,0.05705
 48396\C,0.5095859326,-2.501778833,0.2727531539\H,0.3893373443,-2.62532
 49889,1.3582324827\H,1.0764970108,-3.3810788191,-0.0570552133\C,1.3612
 658642,-1.2410714025,0.0637772264\C,0.7393689506,-0.0000004823,-0.0000
 001561\C,2.7631544604,-1.2267407103,0.0519366623\C,1.361267329,1.24106
 96986,-0.0637776493\H,-0.3108413254,0.0000001433,-0.0000000629\C,3.441
 0332617,-0.0000020918,-0.0000003961\H,3.3326947317,-2.1525479635,0.094
 9648219\C,2.7631559098,1.2267373388,-0.0519373342\H,4.5279142298,-0.00
 00027392,-0.0000004927\H,3.3326972745,2.1525439144,-0.094965595\\Versi
 on=ES64L-G16RevC.01\State=1-A\HF=-619.311272\RMSD=3.760e-11\RMSF=8.446
 e-07\Dipole=-0.0141772,0.,0.\Quadrupole=-4.476622,4.5566743,-0.0800523
 ,0.0000053,0.,-0.6232075\PG=C01 [X(C16H16)]\\@
 The archive entry for this job was punched.


 You can't act like a skunk without someone's getting wind of it.
 -- Lorene Workman
 Leave Link 9999 at Mon Jul 28 11:56:03 2025, MaxMem=  6174015488 cpu:               0.9 elap:               0.0
 Job cpu time:       0 days  0 hours 56 minutes  9.3 seconds.
 Elapsed time:       0 days  0 hours  1 minutes 35.0 seconds.
 File lengths (MBytes):  RWF=    340 Int=      0 D2E=      0 Chk=     10 Scr=      1
 Normal termination of Gaussian 16 at Mon Jul 28 11:56:03 2025.
 (Enter /opt/linux/rocky/8/software/gaussian/16c01_avx2/g16/l1.exe)
 Link1:  Proceeding to internal job step number  2.
 ----------------------------------------------------------------------
 #P Geom=AllCheck Guess=TCheck SCRF=Check GenChk RB3LYP/6-31G(d,p) Freq
 ----------------------------------------------------------------------
 1/5=1,7=1,10=4,29=7,30=1,38=1,40=1/1,3;
 2/12=2,40=1/2;
 3/5=1,6=6,7=101,11=2,14=-4,25=1,30=1,70=2,71=2,74=-5,75=-5,116=1,140=1/1,2,3;
 4/5=101/1;
 5/5=2,6=10,38=6,98=1/2;
 8/6=4,10=90,11=11/1;
 11/6=1,8=1,9=11,15=111,16=1/1,2,10;
 10/6=1/2;
 6/7=2,8=2,9=2,10=2,28=1/1;
 7/8=1,10=1,25=1/1,2,3,16;
 1/5=1,7=1,10=4,30=1/3;
 99//99;
 Leave Link    1 at Mon Jul 28 11:56:03 2025, MaxMem=  6174015488 cpu:               0.8 elap:               0.0
 (Enter /opt/linux/rocky/8/software/gaussian/16c01_avx2/g16/l101.exe)
 Structure from the checkpoint file:  "metapara_b3lyp631gdp_ts_vtight.chk"
 -------------------
 Title Card Required
 -------------------
 Charge =  0 Multiplicity = 1
 Redundant internal coordinates found in file.  (old form).
 C,0,-2.0379948993,-0.5323336466,-1.2746153806
 C,0,-2.053549031,0.8528509559,-1.0958221248
 C,0,-1.8043505301,1.3881911969,0.1811482221
 C,0,-2.0379940387,0.5323359893,1.2746155611
 C,0,-2.0535498516,-0.8528485949,1.0958223092
 C,0,-1.8043522153,-1.3881891335,-0.1811480828
 H,0,-1.9870978721,-0.9303995961,-2.2852162875
 H,0,-2.0183008683,1.4960239106,-1.9719924341
 H,0,-1.9870963583,0.9304018776,2.285216459
 H,0,-2.018302298,-1.496021592,1.9719926123
 C,0,-0.9392729571,2.6289457263,0.3588979878
 H,0,-0.8460111054,2.84147784,1.4295699177
 H,0,-1.3888585112,3.5182454891,-0.1012779969
 C,0,-0.9392761489,-2.6289446926,-0.3588980026
 H,0,-1.3888626799,-3.5182439206,0.1012780618
 H,0,-0.8460147408,-2.8414769165,-1.4295699494
 C,0,0.509588861,2.5017781422,-0.2727534262
 H,0,0.3893402268,2.6253244405,-1.3582327334
 H,0,1.0765010441,3.3810774536,0.0570548396
 C,0,0.5095859326,-2.501778833,0.2727531539
 H,0,0.3893373443,-2.6253249889,1.3582324827
 H,0,1.0764970108,-3.3810788191,-0.0570552133
 C,0,1.3612658642,-1.2410714025,0.0637772264
 C,0,0.7393689506,-0.0000004823,-0.0000001561
 C,0,2.7631544604,-1.2267407103,0.0519366623
 C,0,1.361267329,1.2410696986,-0.0637776493
 H,0,-0.3108413254,0.0000001433,-0.0000000629
 C,0,3.4410332617,-0.0000020918,-0.0000003961
 H,0,3.3326947317,-2.1525479635,0.0949648219
 C,0,2.7631559098,1.2267373388,-0.0519373342
 H,0,4.5279142298,-0.0000027392,-0.0000004927
 H,0,3.3326972745,2.1525439144,-0.094965595
 Recover connectivity data from disk.
 ITRead=  0  0  0  0  0  0  0  0  0  0  0  0  0  0  0  0  0  0  0  0
 ITRead=  0  0  0  0  0  0  0  0  0  0  0  0
 MicOpt= -1 -1 -1 -1 -1 -1 -1 -1 -1 -1 -1 -1 -1 -1 -1 -1 -1 -1 -1 -1
 MicOpt= -1 -1 -1 -1 -1 -1 -1 -1 -1 -1 -1 -1
 NAtoms=     32 NQM=       32 NQMF=       0 NMMI=      0 NMMIF=      0
                NMic=       0 NMicF=      0.
                    Isotopes and Nuclear Properties:
 (Nuclear quadrupole moments (NQMom) in fm**2, nuclear magnetic moments (NMagM)
  in nuclear magnetons)

  Atom         1           2           3           4           5           6           7           8           9          10
 IAtWgt=          12          12          12          12          12          12           1           1           1           1
 AtmWgt=  12.0000000  12.0000000  12.0000000  12.0000000  12.0000000  12.0000000   1.0078250   1.0078250   1.0078250   1.0078250
 NucSpn=           0           0           0           0           0           0           1           1           1           1
 AtZEff=   3.6000000   3.6000000   3.6000000   3.6000000   3.6000000   3.6000000   1.0000000   1.0000000   1.0000000   1.0000000
 NQMom=    0.0000000   0.0000000   0.0000000   0.0000000   0.0000000   0.0000000   0.0000000   0.0000000   0.0000000   0.0000000
 NMagM=    0.0000000   0.0000000   0.0000000   0.0000000   0.0000000   0.0000000   2.7928460   2.7928460   2.7928460   2.7928460
 AtZNuc=   6.0000000   6.0000000   6.0000000   6.0000000   6.0000000   6.0000000   1.0000000   1.0000000   1.0000000   1.0000000

  Atom        11          12          13          14          15          16          17          18          19          20
 IAtWgt=          12           1           1          12           1           1          12           1           1          12
 AtmWgt=  12.0000000   1.0078250   1.0078250  12.0000000   1.0078250   1.0078250  12.0000000   1.0078250   1.0078250  12.0000000
 NucSpn=           0           1           1           0           1           1           0           1           1           0
 AtZEff=   3.6000000   1.0000000   1.0000000   3.6000000   1.0000000   1.0000000   3.6000000   1.0000000   1.0000000   3.6000000
 NQMom=    0.0000000   0.0000000   0.0000000   0.0000000   0.0000000   0.0000000   0.0000000   0.0000000   0.0000000   0.0000000
 NMagM=    0.0000000   2.7928460   2.7928460   0.0000000   2.7928460   2.7928460   0.0000000   2.7928460   2.7928460   0.0000000
 AtZNuc=   6.0000000   1.0000000   1.0000000   6.0000000   1.0000000   1.0000000   6.0000000   1.0000000   1.0000000   6.0000000

  Atom        21          22          23          24          25          26          27          28          29          30
 IAtWgt=           1           1          12          12          12          12           1          12           1          12
 AtmWgt=   1.0078250   1.0078250  12.0000000  12.0000000  12.0000000  12.0000000   1.0078250  12.0000000   1.0078250  12.0000000
 NucSpn=           1           1           0           0           0           0           1           0           1           0
 AtZEff=   1.0000000   1.0000000   3.6000000   3.6000000   3.6000000   3.6000000   1.0000000   3.6000000   1.0000000   3.6000000
 NQMom=    0.0000000   0.0000000   0.0000000   0.0000000   0.0000000   0.0000000   0.0000000   0.0000000   0.0000000   0.0000000
 NMagM=    2.7928460   2.7928460   0.0000000   0.0000000   0.0000000   0.0000000   2.7928460   0.0000000   2.7928460   0.0000000
 AtZNuc=   1.0000000   1.0000000   6.0000000   6.0000000   6.0000000   6.0000000   1.0000000   6.0000000   1.0000000   6.0000000

  Atom        31          32
 IAtWgt=           1           1
 AtmWgt=   1.0078250   1.0078250
 NucSpn=           1           1
 AtZEff=   1.0000000   1.0000000
 NQMom=    0.0000000   0.0000000
 NMagM=    2.7928460   2.7928460
 AtZNuc=   1.0000000   1.0000000
 Leave Link  101 at Mon Jul 28 11:56:04 2025, MaxMem=  6174015488 cpu:               5.1 elap:               0.2
 (Enter /opt/linux/rocky/8/software/gaussian/16c01_avx2/g16/l103.exe)

 GradGradGradGradGradGradGradGradGradGradGradGradGradGradGradGradGradGrad
 Berny optimization.
 Initialization pass.
                           ----------------------------
                           !    Initial Parameters    !
                           ! (Angstroms and Degrees)  !
 --------------------------                            --------------------------
 ! Name  Definition              Value          Derivative Info.                !
 --------------------------------------------------------------------------------
 ! R1    R(1,2)                  1.3968         calculate D2E/DX2 analytically  !
 ! R2    R(1,6)                  1.4081         calculate D2E/DX2 analytically  !
 ! R3    R(1,7)                  1.0874         calculate D2E/DX2 analytically  !
 ! R4    R(2,3)                  1.4069         calculate D2E/DX2 analytically  !
 ! R5    R(2,8)                  1.0875         calculate D2E/DX2 analytically  !
 ! R6    R(3,4)                  1.4081         calculate D2E/DX2 analytically  !
 ! R7    R(3,11)                 1.523          calculate D2E/DX2 analytically  !
 ! R8    R(4,5)                  1.3968         calculate D2E/DX2 analytically  !
 ! R9    R(4,9)                  1.0874         calculate D2E/DX2 analytically  !
 ! R10   R(5,6)                  1.4069         calculate D2E/DX2 analytically  !
 ! R11   R(5,10)                 1.0875         calculate D2E/DX2 analytically  !
 ! R12   R(6,14)                 1.523          calculate D2E/DX2 analytically  !
 ! R13   R(11,12)                1.0955         calculate D2E/DX2 analytically  !
 ! R14   R(11,13)                1.0976         calculate D2E/DX2 analytically  !
 ! R15   R(11,17)                1.5857         calculate D2E/DX2 analytically  !
 ! R16   R(14,15)                1.0976         calculate D2E/DX2 analytically  !
 ! R17   R(14,16)                1.0955         calculate D2E/DX2 analytically  !
 ! R18   R(14,20)                1.5857         calculate D2E/DX2 analytically  !
 ! R19   R(17,18)                1.0991         calculate D2E/DX2 analytically  !
 ! R20   R(17,19)                1.097          calculate D2E/DX2 analytically  !
 ! R21   R(17,26)                1.5357         calculate D2E/DX2 analytically  !
 ! R22   R(20,21)                1.0991         calculate D2E/DX2 analytically  !
 ! R23   R(20,22)                1.097          calculate D2E/DX2 analytically  !
 ! R24   R(20,23)                1.5357         calculate D2E/DX2 analytically  !
 ! R25   R(23,24)                1.3896         calculate D2E/DX2 analytically  !
 ! R26   R(23,25)                1.402          calculate D2E/DX2 analytically  !
 ! R27   R(24,26)                1.3896         calculate D2E/DX2 analytically  !
 ! R28   R(24,27)                1.0502         calculate D2E/DX2 analytically  !
 ! R29   R(25,28)                1.4025         calculate D2E/DX2 analytically  !
 ! R30   R(25,29)                1.0878         calculate D2E/DX2 analytically  !
 ! R31   R(26,30)                1.402          calculate D2E/DX2 analytically  !
 ! R32   R(28,30)                1.4025         calculate D2E/DX2 analytically  !
 ! R33   R(28,31)                1.0869         calculate D2E/DX2 analytically  !
 ! R34   R(30,32)                1.0878         calculate D2E/DX2 analytically  !
 ! A1    A(2,1,6)              120.3456         calculate D2E/DX2 analytically  !
 ! A2    A(2,1,7)              118.8514         calculate D2E/DX2 analytically  !
 ! A3    A(6,1,7)              119.4365         calculate D2E/DX2 analytically  !
 ! A4    A(1,2,3)              119.4439         calculate D2E/DX2 analytically  !
 ! A5    A(1,2,8)              118.8844         calculate D2E/DX2 analytically  !
 ! A6    A(3,2,8)              120.0332         calculate D2E/DX2 analytically  !
 ! A7    A(2,3,4)              116.3705         calculate D2E/DX2 analytically  !
 ! A8    A(2,3,11)             121.1011         calculate D2E/DX2 analytically  !
 ! A9    A(4,3,11)             119.9204         calculate D2E/DX2 analytically  !
 ! A10   A(3,4,5)              120.3456         calculate D2E/DX2 analytically  !
 ! A11   A(3,4,9)              119.4365         calculate D2E/DX2 analytically  !
 ! A12   A(5,4,9)              118.8514         calculate D2E/DX2 analytically  !
 ! A13   A(4,5,6)              119.4439         calculate D2E/DX2 analytically  !
 ! A14   A(4,5,10)             118.8844         calculate D2E/DX2 analytically  !
 ! A15   A(6,5,10)             120.0332         calculate D2E/DX2 analytically  !
 ! A16   A(1,6,5)              116.3705         calculate D2E/DX2 analytically  !
 ! A17   A(1,6,14)             119.9204         calculate D2E/DX2 analytically  !
 ! A18   A(5,6,14)             121.1011         calculate D2E/DX2 analytically  !
 ! A19   A(3,11,12)            108.6912         calculate D2E/DX2 analytically  !
 ! A20   A(3,11,13)            112.2398         calculate D2E/DX2 analytically  !
 ! A21   A(3,11,17)            114.028          calculate D2E/DX2 analytically  !
 ! A22   A(12,11,13)           106.7039         calculate D2E/DX2 analytically  !
 ! A23   A(12,11,17)           109.0917         calculate D2E/DX2 analytically  !
 ! A24   A(13,11,17)           105.7972         calculate D2E/DX2 analytically  !
 ! A25   A(6,14,15)            112.2398         calculate D2E/DX2 analytically  !
 ! A26   A(6,14,16)            108.6912         calculate D2E/DX2 analytically  !
 ! A27   A(6,14,20)            114.028          calculate D2E/DX2 analytically  !
 ! A28   A(15,14,16)           106.7039         calculate D2E/DX2 analytically  !
 ! A29   A(15,14,20)           105.7972         calculate D2E/DX2 analytically  !
 ! A30   A(16,14,20)           109.0917         calculate D2E/DX2 analytically  !
 ! A31   A(11,17,18)           106.5251         calculate D2E/DX2 analytically  !
 ! A32   A(11,17,19)           106.7479         calculate D2E/DX2 analytically  !
 ! A33   A(11,17,26)           121.2225         calculate D2E/DX2 analytically  !
 ! A34   A(18,17,19)           105.2702         calculate D2E/DX2 analytically  !
 ! A35   A(18,17,26)           106.6992         calculate D2E/DX2 analytically  !
 ! A36   A(19,17,26)           109.3            calculate D2E/DX2 analytically  !
 ! A37   A(14,20,21)           106.5251         calculate D2E/DX2 analytically  !
 ! A38   A(14,20,22)           106.7479         calculate D2E/DX2 analytically  !
 ! A39   A(14,20,23)           121.2225         calculate D2E/DX2 analytically  !
 ! A40   A(21,20,22)           105.2702         calculate D2E/DX2 analytically  !
 ! A41   A(21,20,23)           106.6992         calculate D2E/DX2 analytically  !
 ! A42   A(22,20,23)           109.3            calculate D2E/DX2 analytically  !
 ! A43   A(20,23,24)           119.4207         calculate D2E/DX2 analytically  !
 ! A44   A(20,23,25)           124.338          calculate D2E/DX2 analytically  !
 ! A45   A(24,23,25)           115.9744         calculate D2E/DX2 analytically  !
 ! A46   A(23,24,26)           126.8298         calculate D2E/DX2 analytically  !
 ! A47   A(23,24,27)           116.5851         calculate D2E/DX2 analytically  !
 ! A48   A(26,24,27)           116.5851         calculate D2E/DX2 analytically  !
 ! A49   A(23,25,28)           119.5073         calculate D2E/DX2 analytically  !
 ! A50   A(23,25,29)           120.9629         calculate D2E/DX2 analytically  !
 ! A51   A(28,25,29)           119.5253         calculate D2E/DX2 analytically  !
 ! A52   A(17,26,24)           119.4207         calculate D2E/DX2 analytically  !
 ! A53   A(17,26,30)           124.338          calculate D2E/DX2 analytically  !
 ! A54   A(24,26,30)           115.9744         calculate D2E/DX2 analytically  !
 ! A55   A(25,28,30)           122.1946         calculate D2E/DX2 analytically  !
 ! A56   A(25,28,31)           118.9027         calculate D2E/DX2 analytically  !
 ! A57   A(30,28,31)           118.9027         calculate D2E/DX2 analytically  !
 ! A58   A(26,30,28)           119.5073         calculate D2E/DX2 analytically  !
 ! A59   A(26,30,32)           120.9629         calculate D2E/DX2 analytically  !
 ! A60   A(28,30,32)           119.5253         calculate D2E/DX2 analytically  !
 ! D1    D(6,1,2,3)              1.3991         calculate D2E/DX2 analytically  !
 ! D2    D(6,1,2,8)            166.8205         calculate D2E/DX2 analytically  !
 ! D3    D(7,1,2,3)           -165.1838         calculate D2E/DX2 analytically  !
 ! D4    D(7,1,2,8)              0.2377         calculate D2E/DX2 analytically  !
 ! D5    D(2,1,6,5)             21.3929         calculate D2E/DX2 analytically  !
 ! D6    D(2,1,6,14)          -140.5067         calculate D2E/DX2 analytically  !
 ! D7    D(7,1,6,5)           -172.1024         calculate D2E/DX2 analytically  !
 ! D8    D(7,1,6,14)            25.9981         calculate D2E/DX2 analytically  !
 ! D9    D(1,2,3,4)            -22.6847         calculate D2E/DX2 analytically  !
 ! D10   D(1,2,3,11)           138.9859         calculate D2E/DX2 analytically  !
 ! D11   D(8,2,3,4)            172.0637         calculate D2E/DX2 analytically  !
 ! D12   D(8,2,3,11)           -26.2658         calculate D2E/DX2 analytically  !
 ! D13   D(2,3,4,5)             21.3929         calculate D2E/DX2 analytically  !
 ! D14   D(2,3,4,9)           -172.1024         calculate D2E/DX2 analytically  !
 ! D15   D(11,3,4,5)          -140.5067         calculate D2E/DX2 analytically  !
 ! D16   D(11,3,4,9)            25.9981         calculate D2E/DX2 analytically  !
 ! D17   D(2,3,11,12)         -177.6425         calculate D2E/DX2 analytically  !
 ! D18   D(2,3,11,13)           64.5728         calculate D2E/DX2 analytically  !
 ! D19   D(2,3,11,17)          -55.7129         calculate D2E/DX2 analytically  !
 ! D20   D(4,3,11,12)          -16.6131         calculate D2E/DX2 analytically  !
 ! D21   D(4,3,11,13)         -134.3979         calculate D2E/DX2 analytically  !
 ! D22   D(4,3,11,17)          105.3165         calculate D2E/DX2 analytically  !
 ! D23   D(3,4,5,6)              1.3991         calculate D2E/DX2 analytically  !
 ! D24   D(3,4,5,10)           166.8205         calculate D2E/DX2 analytically  !
 ! D25   D(9,4,5,6)           -165.1838         calculate D2E/DX2 analytically  !
 ! D26   D(9,4,5,10)             0.2377         calculate D2E/DX2 analytically  !
 ! D27   D(4,5,6,1)            -22.6847         calculate D2E/DX2 analytically  !
 ! D28   D(4,5,6,14)           138.9859         calculate D2E/DX2 analytically  !
 ! D29   D(10,5,6,1)           172.0637         calculate D2E/DX2 analytically  !
 ! D30   D(10,5,6,14)          -26.2658         calculate D2E/DX2 analytically  !
 ! D31   D(1,6,14,15)         -134.3979         calculate D2E/DX2 analytically  !
 ! D32   D(1,6,14,16)          -16.6131         calculate D2E/DX2 analytically  !
 ! D33   D(1,6,14,20)          105.3165         calculate D2E/DX2 analytically  !
 ! D34   D(5,6,14,15)           64.5728         calculate D2E/DX2 analytically  !
 ! D35   D(5,6,14,16)         -177.6425         calculate D2E/DX2 analytically  !
 ! D36   D(5,6,14,20)          -55.7129         calculate D2E/DX2 analytically  !
 ! D37   D(3,11,17,18)          76.6855         calculate D2E/DX2 analytically  !
 ! D38   D(3,11,17,19)        -171.2179         calculate D2E/DX2 analytically  !
 ! D39   D(3,11,17,26)         -45.3426         calculate D2E/DX2 analytically  !
 ! D40   D(12,11,17,18)       -161.6059         calculate D2E/DX2 analytically  !
 ! D41   D(12,11,17,19)        -49.5092         calculate D2E/DX2 analytically  !
 ! D42   D(12,11,17,26)         76.3661         calculate D2E/DX2 analytically  !
 ! D43   D(13,11,17,18)        -47.1484         calculate D2E/DX2 analytically  !
 ! D44   D(13,11,17,19)         64.9482         calculate D2E/DX2 analytically  !
 ! D45   D(13,11,17,26)       -169.1764         calculate D2E/DX2 analytically  !
 ! D46   D(6,14,20,21)          76.6855         calculate D2E/DX2 analytically  !
 ! D47   D(6,14,20,22)        -171.2179         calculate D2E/DX2 analytically  !
 ! D48   D(6,14,20,23)         -45.3426         calculate D2E/DX2 analytically  !
 ! D49   D(15,14,20,21)        -47.1484         calculate D2E/DX2 analytically  !
 ! D50   D(15,14,20,22)         64.9482         calculate D2E/DX2 analytically  !
 ! D51   D(15,14,20,23)       -169.1764         calculate D2E/DX2 analytically  !
 ! D52   D(16,14,20,21)       -161.6059         calculate D2E/DX2 analytically  !
 ! D53   D(16,14,20,22)        -49.5092         calculate D2E/DX2 analytically  !
 ! D54   D(16,14,20,23)         76.3661         calculate D2E/DX2 analytically  !
 ! D55   D(11,17,26,24)         34.9951         calculate D2E/DX2 analytically  !
 ! D56   D(11,17,26,30)       -151.1861         calculate D2E/DX2 analytically  !
 ! D57   D(18,17,26,24)        -86.9497         calculate D2E/DX2 analytically  !
 ! D58   D(18,17,26,30)         86.8691         calculate D2E/DX2 analytically  !
 ! D59   D(19,17,26,24)        159.697          calculate D2E/DX2 analytically  !
 ! D60   D(19,17,26,30)        -26.4842         calculate D2E/DX2 analytically  !
 ! D61   D(14,20,23,24)         34.9951         calculate D2E/DX2 analytically  !
 ! D62   D(14,20,23,25)       -151.1861         calculate D2E/DX2 analytically  !
 ! D63   D(21,20,23,24)        -86.9497         calculate D2E/DX2 analytically  !
 ! D64   D(21,20,23,25)         86.8691         calculate D2E/DX2 analytically  !
 ! D65   D(22,20,23,24)        159.697          calculate D2E/DX2 analytically  !
 ! D66   D(22,20,23,25)        -26.4842         calculate D2E/DX2 analytically  !
 ! D67   D(20,23,24,26)        173.8201         calculate D2E/DX2 analytically  !
 ! D68   D(20,23,24,27)         -6.1799         calculate D2E/DX2 analytically  !
 ! D69   D(25,23,24,26)         -0.5041         calculate D2E/DX2 analytically  !
 ! D70   D(25,23,24,27)        179.4959         calculate D2E/DX2 analytically  !
 ! D71   D(20,23,25,28)       -173.0138         calculate D2E/DX2 analytically  !
 ! D72   D(20,23,25,29)          6.2162         calculate D2E/DX2 analytically  !
 ! D73   D(24,23,25,28)          0.9978         calculate D2E/DX2 analytically  !
 ! D74   D(24,23,25,29)       -179.7721         calculate D2E/DX2 analytically  !
 ! D75   D(23,24,26,17)        173.8201         calculate D2E/DX2 analytically  !
 ! D76   D(23,24,26,30)         -0.5041         calculate D2E/DX2 analytically  !
 ! D77   D(27,24,26,17)         -6.1799         calculate D2E/DX2 analytically  !
 ! D78   D(27,24,26,30)        179.4959         calculate D2E/DX2 analytically  !
 ! D79   D(23,25,28,30)         -0.527          calculate D2E/DX2 analytically  !
 ! D80   D(23,25,28,31)        179.473          calculate D2E/DX2 analytically  !
 ! D81   D(29,25,28,30)       -179.7683         calculate D2E/DX2 analytically  !
 ! D82   D(29,25,28,31)          0.2317         calculate D2E/DX2 analytically  !
 ! D83   D(17,26,30,28)       -173.0138         calculate D2E/DX2 analytically  !
 ! D84   D(17,26,30,32)          6.2162         calculate D2E/DX2 analytically  !
 ! D85   D(24,26,30,28)          0.9978         calculate D2E/DX2 analytically  !
 ! D86   D(24,26,30,32)       -179.7721         calculate D2E/DX2 analytically  !
 ! D87   D(25,28,30,26)         -0.527          calculate D2E/DX2 analytically  !
 ! D88   D(25,28,30,32)       -179.7683         calculate D2E/DX2 analytically  !
 ! D89   D(31,28,30,26)        179.473          calculate D2E/DX2 analytically  !
 ! D90   D(31,28,30,32)          0.2317         calculate D2E/DX2 analytically  !
 --------------------------------------------------------------------------------
 Trust Radius=3.00D-01 FncErr=1.00D-07 GrdErr=1.00D-07 EigMax=2.50D+02 EigMin=1.00D-04
 Number of steps in this run=      2 maximum allowed number of steps=      2.
 Search for a saddle point of order  1.
 GradGradGradGradGradGradGradGradGradGradGradGradGradGradGradGradGradGrad

 Leave Link  103 at Mon Jul 28 11:56:04 2025, MaxMem=  6174015488 cpu:               0.4 elap:               0.0
 (Enter /opt/linux/rocky/8/software/gaussian/16c01_avx2/g16/l202.exe)
                          Input orientation:                          
 ---------------------------------------------------------------------
 Center     Atomic      Atomic             Coordinates (Angstroms)
 Number     Number       Type             X           Y           Z
 ---------------------------------------------------------------------
      1          6           0       -2.037995   -0.532334   -1.274615
      2          6           0       -2.053549    0.852851   -1.095822
      3          6           0       -1.804351    1.388191    0.181148
      4          6           0       -2.037994    0.532336    1.274616
      5          6           0       -2.053550   -0.852849    1.095822
      6          6           0       -1.804352   -1.388189   -0.181148
      7          1           0       -1.987098   -0.930400   -2.285216
      8          1           0       -2.018301    1.496024   -1.971992
      9          1           0       -1.987096    0.930402    2.285216
     10          1           0       -2.018302   -1.496022    1.971993
     11          6           0       -0.939273    2.628946    0.358898
     12          1           0       -0.846011    2.841478    1.429570
     13          1           0       -1.388859    3.518245   -0.101278
     14          6           0       -0.939276   -2.628945   -0.358898
     15          1           0       -1.388863   -3.518244    0.101278
     16          1           0       -0.846015   -2.841477   -1.429570
     17          6           0        0.509589    2.501778   -0.272753
     18          1           0        0.389340    2.625324   -1.358233
     19          1           0        1.076501    3.381077    0.057055
     20          6           0        0.509586   -2.501779    0.272753
     21          1           0        0.389337   -2.625325    1.358232
     22          1           0        1.076497   -3.381079   -0.057055
     23          6           0        1.361266   -1.241071    0.063777
     24          6           0        0.739369   -0.000000   -0.000000
     25          6           0        2.763154   -1.226741    0.051937
     26          6           0        1.361267    1.241070   -0.063778
     27          1           0       -0.310841    0.000000   -0.000000
     28          6           0        3.441033   -0.000002   -0.000000
     29          1           0        3.332695   -2.152548    0.094965
     30          6           0        2.763156    1.226737   -0.051937
     31          1           0        4.527914   -0.000003   -0.000000
     32          1           0        3.332697    2.152544   -0.094966
 ---------------------------------------------------------------------
                    Distance matrix (angstroms):
                    1          2          3          4          5
     1  C    0.000000
     2  C    1.396762   0.000000
     3  C    2.421209   1.406891   0.000000
     4  C    2.762626   2.392059   1.408101   0.000000
     5  C    2.392059   2.777178   2.433308   1.396762   0.000000
     6  C    1.408101   2.433308   2.799919   2.421209   1.406891
     7  H    1.087364   2.144541   3.390017   3.848972   3.382581
     8  H    2.144984   1.087469   2.166430   3.386672   3.863927
     9  H    3.848972   3.382581   2.161035   1.087364   2.144541
    10  H    3.386672   3.863927   3.401703   2.144984   1.087469
    11  C    3.724143   2.551928   1.522966   2.538011   3.729284
    12  H    4.485092   3.433714   2.142198   2.603261   3.900972
    13  H    4.266766   2.921517   2.188499   3.351136   4.580538
    14  C    2.538011   3.729284   4.144561   3.724143   2.551928
    15  H    3.351136   4.580538   4.924644   4.266766   2.921517
    16  H    2.603261   3.900972   4.626328   4.485092   3.433714
    17  C    4.086532   3.156910   2.607761   3.572567   4.438040
    18  H    3.983686   3.029559   2.951690   4.147824   4.907931
    19  H    5.175733   4.185483   3.505182   4.392933   5.366785
    20  C    3.572567   4.438040   4.527092   4.086532   3.156910
    21  H    4.147824   4.907931   4.722934   3.983686   3.029559
    22  H    4.392933   5.366785   5.576913   5.175733   4.185483
    23  C    3.721368   4.170149   4.116786   4.020705   3.588426
    24  C    3.101898   3.119066   2.903515   3.101898   3.119066
    25  C    5.029212   5.370539   5.264662   5.257406   4.942685
    26  C    4.020705   3.588426   3.178485   3.721368   4.170149
    27  H    2.211579   2.228275   2.047061   2.211579   2.228275
    28  C    5.650466   5.667329   5.428991   5.650466   5.667329
    29  H    5.774526   6.281880   6.239671   6.119189   5.630503
    30  C    5.257406   4.942685   4.576299   5.029212   5.370539
    31  H    6.709634   6.726354   6.485173   6.709634   6.726354
    32  H    6.119189   5.630503   5.200936   5.774526   6.281880
                    6          7          8          9         10
     6  C    0.000000
     7  H    2.161035   0.000000
     8  H    3.401703   2.446756   0.000000
     9  H    3.390017   4.934718   4.294733   0.000000
    10  H    2.166430   4.294733   4.950490   2.446756   0.000000
    11  C    4.144561   4.556119   2.807288   2.773750   4.558699
    12  H    4.626328   5.415605   3.841241   2.384621   4.525747
    13  H    4.924644   4.991785   2.825801   3.570739   5.462374
    14  C    1.522966   2.773750   4.558699   4.556119   2.807288
    15  H    2.188499   3.570739   5.462374   4.991785   2.825801
    16  H    2.142198   2.384621   4.525747   5.415605   3.841241
    17  C    4.527092   4.697158   3.207675   3.904596   5.235601
    18  H    4.722934   4.376063   2.729241   4.668505   5.820020
    19  H    5.576913   5.784523   4.153102   4.511778   6.085301
    20  C    2.607761   3.904596   5.235601   4.697158   3.207675
    21  H    2.951690   4.668505   5.820020   4.376063   2.729241
    22  H    3.505182   4.511778   6.085301   5.784523   4.153102
    23  C    3.178485   4.101930   4.801825   4.567452   3.889443
    24  C    2.903515   3.677156   3.705615   3.677156   3.705615
    25  C    4.576299   5.302358   5.862768   5.675005   5.159598
    26  C    4.116786   4.567452   3.889443   4.101930   4.801825
    27  H    2.047061   2.982900   3.007035   2.982900   3.007035
    28  C    5.428991   5.962588   5.994262   5.962588   5.994262
    29  H    5.200936   5.954755   6.798349   6.527018   5.708540
    30  C    5.264662   5.675005   5.159598   5.302358   5.862768
    31  H    6.485173   6.966580   6.998556   6.966580   6.998556
    32  H    6.239671   6.527018   5.708540   5.954755   6.798349
                   11         12         13         14         15
    11  C    0.000000
    12  H    1.095539   0.000000
    13  H    1.097608   1.759600   0.000000
    14  C    5.306660   5.756113   6.168990   0.000000
    15  H    6.168990   6.519594   7.039404   1.097608   0.000000
    16  H    5.756113   6.361655   6.519594   1.095539   1.759600
    17  C    1.585672   2.202488   2.160257   5.332068   6.323344
    18  H    2.171120   3.056903   2.353558   5.511010   6.560153
    19  H    2.172592   2.423018   2.474244   6.352696   7.326705
    20  C    5.332068   5.632607   6.323344   1.585672   2.160257
    21  H    5.511010   5.605097   6.560153   2.171120   2.353558
    22  H    6.352696   6.680292   7.326705   2.172592   2.474244
    23  C    4.511830   4.837837   5.499229   2.719805   3.570732
    24  C    3.139746   3.554026   4.113109   3.139746   4.113109
    25  C    5.354298   5.610201   6.306947   3.980321   4.742644
    26  C    2.719805   3.108612   3.570732   4.511830   5.499229
    27  H    2.726736   3.225534   3.681091   2.726736   3.681091
    28  C    5.121255   5.338205   5.976301   5.121255   5.976301
    29  H    6.417324   6.647033   7.381699   4.322347   4.915106
    30  C    3.980321   4.222362   4.742644   5.354298   6.306947
    31  H    6.077032   6.244738   6.884514   6.077032   6.884514
    32  H    4.322347   4.501160   4.915106   6.417324   7.381699
                   16         17         18         19         20
    16  H    0.000000
    17  C    5.632607   0.000000
    18  H    5.605097   1.099085   0.000000
    19  H    6.680292   1.096964   1.745392   0.000000
    20  C    2.202488   5.033206   5.381613   5.914044   0.000000
    21  H    3.056903   5.381613   5.911726   6.184022   1.099085
    22  H    2.423018   5.914044   6.184022   6.763119   1.096964
    23  C    3.108612   3.853249   4.232702   4.630917   1.535712
    24  C    3.554026   2.527071   2.976516   3.398323   2.527071
    25  C    4.222362   4.368734   4.739407   4.906813   2.598664
    26  C    4.837837   1.535712   2.129887   2.162250   3.853249
    27  H    3.225534   2.646959   3.037660   3.655087   2.646959
    28  C    5.338205   3.863504   4.248525   4.126253   3.863504
    29  H    4.501160   5.455996   5.796825   5.976024   2.850178
    30  C    5.610201   2.598664   3.049173   2.738223   4.368734
    31  H    6.244738   4.741333   5.085758   4.831895   4.741333
    32  H    6.647033   2.850178   3.237702   2.573485   5.455996
                   21         22         23         24         25
    21  H    0.000000
    22  H    1.745392   0.000000
    23  C    2.129887   2.162250   0.000000
    24  C    2.976516   3.398323   1.389633   0.000000
    25  C    3.049173   2.738223   1.402012   2.367128   0.000000
    26  C    4.232702   4.630917   2.485416   1.389633   2.840557
    27  H    3.037660   3.655087   2.083331   1.050210   3.310142
    28  C    4.248525   4.126253   2.422757   2.701664   1.402535
    29  H    3.237702   2.573485   2.172163   3.371619   1.087817
    30  C    4.739407   4.906813   2.840557   2.367128   2.455676
    31  H    5.085758   4.831895   3.401761   3.788545   2.149875
    32  H    5.796825   5.976024   3.927896   3.371619   3.430091
                   26         27         28         29         30
    26  C    0.000000
    27  H    2.083331   0.000000
    28  C    2.422757   3.751875   0.000000
    29  H    3.927896   4.232947   2.157362   0.000000
    30  C    1.402012   3.310142   1.402535   3.430091   0.000000
    31  H    3.401761   4.838756   1.086881   2.463944   2.149875
    32  H    2.172163   4.232947   2.157362   4.309279   1.087817
                   31         32
    31  H    0.000000
    32  H    2.463944   0.000000
 Stoichiometry    C16H16
 Framework group  C1[X(C16H16)]
 Deg. of freedom    90
 Full point group                 C1      NOp   1
 RotChk:  IX=3 Diff= 7.86D-10
 Largest Abelian subgroup         C1      NOp   1
 Largest concise Abelian subgroup C1      NOp   1
                         Standard orientation:                         
 ---------------------------------------------------------------------
 Center     Atomic      Atomic             Coordinates (Angstroms)
 Number     Number       Type             X           Y           Z
 ---------------------------------------------------------------------
      1          6           0       -2.038013   -0.532335   -1.274615
      2          6           0       -2.053568    0.852850   -1.095822
      3          6           0       -1.804370    1.388190    0.181148
      4          6           0       -2.038013    0.532335    1.274616
      5          6           0       -2.053568   -0.852850    1.095822
      6          6           0       -1.804370   -1.388190   -0.181148
      7          1           0       -1.987116   -0.930401   -2.285216
      8          1           0       -2.018320    1.496023   -1.971992
      9          1           0       -1.987115    0.930401    2.285217
     10          1           0       -2.018320   -1.496023    1.971993
     11          6           0       -0.939293    2.628945    0.358898
     12          1           0       -0.846031    2.841477    1.429570
     13          1           0       -1.388879    3.518245   -0.101278
     14          6           0       -0.939293   -2.628945   -0.358898
     15          1           0       -1.388879   -3.518245    0.101278
     16          1           0       -0.846032   -2.841477   -1.429570
     17          6           0        0.509569    2.501778   -0.272753
     18          1           0        0.389320    2.625325   -1.358233
     19          1           0        1.076480    3.381078    0.057055
     20          6           0        0.509569   -2.501778    0.272753
     21          1           0        0.389320   -2.625325    1.358233
     22          1           0        1.076480   -3.381078   -0.057055
     23          6           0        1.361248   -1.241071    0.063777
     24          6           0        0.739350    0.000000   -0.000000
     25          6           0        2.763137   -1.226739    0.051937
     26          6           0        1.361248    1.241071   -0.063778
     27          1           0       -0.310860    0.000000    0.000000
     28          6           0        3.441015    0.000000   -0.000000
     29          1           0        3.332677   -2.152546    0.094965
     30          6           0        2.763137    1.226739   -0.051937
     31          1           0        4.527896    0.000000   -0.000000
     32          1           0        3.332677    2.152546   -0.094966
 ---------------------------------------------------------------------
 Rotational constants (GHZ):           0.7735587           0.5945921           0.3877056
 Leave Link  202 at Mon Jul 28 11:56:04 2025, MaxMem=  6174015488 cpu:               0.1 elap:               0.0
 (Enter /opt/linux/rocky/8/software/gaussian/16c01_avx2/g16/l301.exe)
 Standard basis: 6-31G(d,p) (6D, 7F)
 Ernie: Thresh=  0.10000D-02 Tol=  0.10000D-05 Strict=F.
 There are   320 symmetry adapted cartesian basis functions of A   symmetry.
 There are   320 symmetry adapted basis functions of A   symmetry.
   320 basis functions,   560 primitive gaussians,   320 cartesian basis functions
    56 alpha electrons       56 beta electrons
       nuclear repulsion energy      1060.8008784478 Hartrees.
 IExCor=  402 DFT=T Ex+Corr=B3LYP ExCW=0 ScaHFX=  0.200000
 ScaDFX=  0.800000  0.720000  1.000000  0.810000 ScalE2=  1.000000  1.000000
 IRadAn=      5 IRanWt=     -1 IRanGd=            0 ICorTp=0 IEmpDi=  4
 NAtoms=   32 NActive=   32 NUniq=   32 SFac= 1.00D+00 NAtFMM=   60 NAOKFM=F Big=F
 Integral buffers will be    131072 words long.
 Raffenetti 2 integral format.
 Two-electron integral symmetry is turned on.
 Leave Link  301 at Mon Jul 28 11:56:04 2025, MaxMem=  6174015488 cpu:               0.7 elap:               0.0
 (Enter /opt/linux/rocky/8/software/gaussian/16c01_avx2/g16/l302.exe)
 NPDir=0 NMtPBC=     1 NCelOv=     1 NCel=       1 NClECP=     1 NCelD=      1
         NCelK=      1 NCelE2=     1 NClLst=     1 CellRange=     0.0.
 One-electron integrals computed using PRISM.
 One-electron integral symmetry used in STVInt
 NBasis=   320 RedAO= T EigKep=  3.66D-04  NBF=   320
 NBsUse=   320 1.00D-06 EigRej= -1.00D+00 NBFU=   320
 Precomputing XC quadrature grid using
 IXCGrd= 4 IRadAn=           5 IRanWt=          -1 IRanGd=           0 AccXCQ= 0.00D+00.
 Generated NRdTot=       0 NPtTot=           0 NUsed=           0 NTot=          32
 NSgBfM=   320   320   320   320   320 MxSgAt=    32 MxSgA2=    32.
 Leave Link  302 at Mon Jul 28 11:56:04 2025, MaxMem=  6174015488 cpu:               6.5 elap:               0.2
 (Enter /opt/linux/rocky/8/software/gaussian/16c01_avx2/g16/l303.exe)
 DipDrv:  MaxL=1.
 Leave Link  303 at Mon Jul 28 11:56:04 2025, MaxMem=  6174015488 cpu:               0.7 elap:               0.0
 (Enter /opt/linux/rocky/8/software/gaussian/16c01_avx2/g16/l401.exe)
 Initial guess from the checkpoint file:  "metapara_b3lyp631gdp_ts_vtight.chk"
 B after Tr=    -0.000000   -0.000000   -0.000000
         Rot=    1.000000    0.000000   -0.000000   -0.000000 Ang=   0.00 deg.
 Guess basis will be translated and rotated to current coordinates.
 JPrj=2 DoOrth=T DoCkMO=T.
 Leave Link  401 at Mon Jul 28 11:56:05 2025, MaxMem=  6174015488 cpu:               3.7 elap:               0.1
 (Enter /opt/linux/rocky/8/software/gaussian/16c01_avx2/g16/l502.exe)
 Integral symmetry usage will be decided dynamically.
 Closed shell SCF:
 Using DIIS extrapolation, IDIIS=  1040.
 NGot=  6174015488 LenX=  6173794922 LenY=  6173692081
 Requested convergence on RMS density matrix=1.00D-10 within 128 cycles.
 Requested convergence on MAX density matrix=1.00D-08.
 Requested convergence on             energy=1.00D-08.
 No special actions if energy rises.
 Fock matrices will be formed incrementally for  20 cycles.

 Cycle   1  Pass 1  IDiag  1:
 FoFJK:  IHMeth= 1 ICntrl=       0 DoSepK=F KAlg= 0 I1Cent=           0 FoldK=F
 IRaf= 880000000 NMat=       1 IRICut=       1 DoRegI=T DoRafI=F ISym2E= 0 IDoP0=0 IntGTp=1.
 FoFCou: FMM=F IPFlag=           0 FMFlag=      100000 FMFlg1=           0
         NFxFlg=           0 DoJE=F BraDBF=F KetDBF=F FulRan=T
         wScrn=  0.000000 ICntrl=         0 IOpCl=  0 I1Cent=           0 NGrid=           0
         NMat0=    1 NMatS0=      1 NMatT0=    0 NMatD0=    1 NMtDS0=    0 NMtDT0=    0
 Symmetry not used in FoFCou.
 E= -619.311271996389    
 DIIS: error= 1.32D-10 at cycle   1 NSaved=   1.
 NSaved= 1 IEnMin= 1 EnMin= -619.311271996389     IErMin= 1 ErrMin= 1.32D-10
 ErrMax= 1.32D-10  0.00D+00 EMaxC= 1.00D-01 BMatC= 1.04D-17 BMatP= 1.04D-17
 IDIUse=1 WtCom= 1.00D+00 WtEn= 0.00D+00
 Coeff-Com:  0.100D+01
 Coeff:      0.100D+01
 Gap=     0.205 Goal=   None    Shift=    0.000
 RMSDP=2.82D-11 MaxDP=8.56D-10              OVMax= 2.19D-09

 SCF Done:  E(RB3LYP) =  -619.311271996     A.U. after    1 cycles
            NFock=  1  Conv=0.28D-10     -V/T= 2.0099
 KE= 6.132512569049D+02 PE=-3.554854914178D+03 EE= 1.261491506829D+03
 Leave Link  502 at Mon Jul 28 11:56:05 2025, MaxMem=  6174015488 cpu:              30.3 elap:               0.9
 (Enter /opt/linux/rocky/8/software/gaussian/16c01_avx2/g16/l801.exe)
 DoSCS=F DFT=T ScalE2(SS,OS)=  1.000000  1.000000
 Range of M.O.s used for correlation:     1   320
 NBasis=   320 NAE=    56 NBE=    56 NFC=     0 NFV=     0
 NROrb=    320 NOA=    56 NOB=    56 NVA=   264 NVB=   264
 Leave Link  801 at Mon Jul 28 11:56:06 2025, MaxMem=  6174015488 cpu:               0.3 elap:               0.0
 (Enter /opt/linux/rocky/8/software/gaussian/16c01_avx2/g16/l1101.exe)
 Using compressed storage, NAtomX=    32.
 Will process     33 centers per pass.
 Leave Link 1101 at Mon Jul 28 11:56:06 2025, MaxMem=  6174015488 cpu:               9.2 elap:               0.3
 (Enter /opt/linux/rocky/8/software/gaussian/16c01_avx2/g16/l1102.exe)
 Symmetrizing basis deriv contribution to polar:
 IMax=3 JMax=2 DiffMx= 0.00D+00
 Leave Link 1102 at Mon Jul 28 11:56:06 2025, MaxMem=  6174015488 cpu:               0.7 elap:               0.0
 (Enter /opt/linux/rocky/8/software/gaussian/16c01_avx2/g16/l1110.exe)
 Forming Gx(P) for the SCF density, NAtomX=    32.
 Integral derivatives from FoFJK, PRISM(SPDF).
 Do as many integral derivatives as possible in FoFJK.
 G2DrvN: MDV=    6174012056.
 G2DrvN: will do    33 centers at a time, making    1 passes.
 Calling FoFCou, ICntrl=  3107 FMM=F I1Cent=   0 AccDes= 0.00D+00.
 FoFJK:  IHMeth= 1 ICntrl=    3107 DoSepK=F KAlg= 0 I1Cent=           0 FoldK=F
 IRaf=         0 NMat=       1 IRICut=       1 DoRegI=T DoRafI=F ISym2E= 0 IDoP0=0 IntGTp=1.
 FoFCou: FMM=F IPFlag=           0 FMFlag=      100000 FMFlg1=           0
         NFxFlg=           0 DoJE=F BraDBF=F KetDBF=F FulRan=T
         wScrn=  0.000000 ICntrl=      3107 IOpCl=  0 I1Cent=           0 NGrid=           0
         NMat0=    1 NMatS0=      1 NMatT0=    0 NMatD0=    1 NMtDS0=    0 NMtDT0=    0
 Symmetry not used in FoFCou.
 End of G2Drv F.D. properties file   721 does not exist.
 End of G2Drv F.D. properties file   722 does not exist.
 End of G2Drv F.D. properties file   788 does not exist.
 Leave Link 1110 at Mon Jul 28 11:56:22 2025, MaxMem=  6174015488 cpu:             561.4 elap:              15.7
 (Enter /opt/linux/rocky/8/software/gaussian/16c01_avx2/g16/l1002.exe)
 Minotr:  Closed shell wavefunction.
          IDoAtm=11111111111111111111111111111111
          Direct CPHF calculation.
          Differentiating once with respect to electric field.
                with respect to dipole field.
          Differentiating once with respect to nuclear coordinates.
          Requested convergence is 1.0D-08 RMS, and 1.0D-07 maximum.
          Secondary convergence is 1.0D-12 RMS, and 1.0D-12 maximum.
          NewPWx=T KeepS1=F KeepF1=F KeepIn=T MapXYZ=F SortEE=F KeepMc=T.
         9509 words used for storage of precomputed grid.
 Keep R1 ints in memory in canonical form, NReq=1360445927.
 FoFCou: FMM=F IPFlag=           0 FMFlag=           0 FMFlg1=           0
         NFxFlg=           0 DoJE=F BraDBF=F KetDBF=F FulRan=T
         wScrn=  0.000000 ICntrl=       600 IOpCl=  0 I1Cent=           0 NGrid=           0
         NMat0=    1 NMatS0=  51360 NMatT0=    0 NMatD0=    1 NMtDS0=    0 NMtDT0=    0
 Symmetry not used in FoFCou.
 Two-electron integral symmetry not used.
          MDV=    6174015488 using IRadAn=       1.
          Solving linear equations simultaneously, MaxMat=       0.
          There are    99 degrees of freedom in the 1st order CPHF.  IDoFFX=6 NUNeed=     3.
     96 vectors produced by pass  0 Test12= 1.49D-14 1.01D-09 XBig12= 2.53D+02 7.23D+00.
 AX will form    96 AO Fock derivatives at one time.
     96 vectors produced by pass  1 Test12= 1.49D-14 1.01D-09 XBig12= 6.42D+01 1.06D+00.
     96 vectors produced by pass  2 Test12= 1.49D-14 1.01D-09 XBig12= 5.11D-01 8.15D-02.
     96 vectors produced by pass  3 Test12= 1.49D-14 1.01D-09 XBig12= 1.07D-03 3.48D-03.
     96 vectors produced by pass  4 Test12= 1.49D-14 1.01D-09 XBig12= 1.51D-06 1.08D-04.
     81 vectors produced by pass  5 Test12= 1.49D-14 1.01D-09 XBig12= 1.70D-09 3.51D-06.
      8 vectors produced by pass  6 Test12= 1.49D-14 1.01D-09 XBig12= 1.54D-12 1.38D-07.
      3 vectors produced by pass  7 Test12= 1.49D-14 1.01D-09 XBig12= 1.42D-15 5.43D-09.
 InvSVY:  IOpt=1 It=  1 EMax= 3.55D-15
 Solved reduced A of dimension   572 with    99 vectors.
 FullF1:  Do perturbations      1 to       3.
 Isotropic polarizability for W=    0.000000      154.34 Bohr**3.
 End of Minotr F.D. properties file   721 does not exist.
 End of Minotr F.D. properties file   722 does not exist.
 End of Minotr F.D. properties file   788 does not exist.
 Leave Link 1002 at Mon Jul 28 11:56:49 2025, MaxMem=  6174015488 cpu:             969.0 elap:              27.2
 (Enter /opt/linux/rocky/8/software/gaussian/16c01_avx2/g16/l601.exe)
 Copying SCF densities to generalized density rwf, IOpCl= 0 IROHF=0.

 **********************************************************************

            Population analysis using the SCF Density.

 **********************************************************************

 Orbital symmetries:
       Occupied  (A) (A) (A) (A) (A) (A) (A) (A) (A) (A) (A) (A)
                 (A) (A) (A) (A) (A) (A) (A) (A) (A) (A) (A) (A)
                 (A) (A) (A) (A) (A) (A) (A) (A) (A) (A) (A) (A)
                 (A) (A) (A) (A) (A) (A) (A) (A) (A) (A) (A) (A)
                 (A) (A) (A) (A) (A) (A) (A) (A)
       Virtual   (A) (A) (A) (A) (A) (A) (A) (A) (A) (A) (A) (A)
                 (A) (A) (A) (A) (A) (A) (A) (A) (A) (A) (A) (A)
                 (A) (A) (A) (A) (A) (A) (A) (A) (A) (A) (A) (A)
                 (A) (A) (A) (A) (A) (A) (A) (A) (A) (A) (A) (A)
                 (A) (A) (A) (A) (A) (A) (A) (A) (A) (A) (A) (A)
                 (A) (A) (A) (A) (A) (A) (A) (A) (A) (A) (A) (A)
                 (A) (A) (A) (A) (A) (A) (A) (A) (A) (A) (A) (A)
                 (A) (A) (A) (A) (A) (A) (A) (A) (A) (A) (A) (A)
                 (A) (A) (A) (A) (A) (A) (A) (A) (A) (A) (A) (A)
                 (A) (A) (A) (A) (A) (A) (A) (A) (A) (A) (A) (A)
                 (A) (A) (A) (A) (A) (A) (A) (A) (A) (A) (A) (A)
                 (A) (A) (A) (A) (A) (A) (A) (A) (A) (A) (A) (A)
                 (A) (A) (A) (A) (A) (A) (A) (A) (A) (A) (A) (A)
                 (A) (A) (A) (A) (A) (A) (A) (A) (A) (A) (A) (A)
                 (A) (A) (A) (A) (A) (A) (A) (A) (A) (A) (A) (A)
                 (A) (A) (A) (A) (A) (A) (A) (A) (A) (A) (A) (A)
                 (A) (A) (A) (A) (A) (A) (A) (A) (A) (A) (A) (A)
                 (A) (A) (A) (A) (A) (A) (A) (A) (A) (A) (A) (A)
                 (A) (A) (A) (A) (A) (A) (A) (A) (A) (A) (A) (A)
                 (A) (A) (A) (A) (A) (A) (A) (A) (A) (A) (A) (A)
                 (A) (A) (A) (A) (A) (A) (A) (A) (A) (A) (A) (A)
                 (A) (A) (A) (A) (A) (A) (A) (A) (A) (A) (A) (A)
 The electronic state is 1-A.
 Alpha  occ. eigenvalues --  -10.19601 -10.19601 -10.19451 -10.19451 -10.19242
 Alpha  occ. eigenvalues --  -10.19242 -10.18836 -10.18834 -10.18748 -10.18748
 Alpha  occ. eigenvalues --  -10.18343 -10.18343 -10.17762 -10.17641 -10.17629
 Alpha  occ. eigenvalues --  -10.15066  -0.86667  -0.83999  -0.80349  -0.76141
 Alpha  occ. eigenvalues --   -0.75345  -0.74264  -0.71937  -0.68994  -0.64944
 Alpha  occ. eigenvalues --   -0.61845  -0.60208  -0.57892  -0.56819  -0.55502
 Alpha  occ. eigenvalues --   -0.49689  -0.48513  -0.47237  -0.45611  -0.44537
 Alpha  occ. eigenvalues --   -0.44165  -0.42995  -0.42204  -0.41471  -0.41079
 Alpha  occ. eigenvalues --   -0.40898  -0.38149  -0.37540  -0.36789  -0.36328
 Alpha  occ. eigenvalues --   -0.35842  -0.35617  -0.32831  -0.32508  -0.32438
 Alpha  occ. eigenvalues --   -0.31745  -0.28332  -0.25443  -0.22720  -0.22385
 Alpha  occ. eigenvalues --   -0.22275
 Alpha virt. eigenvalues --   -0.01767  -0.00558   0.01143   0.01596   0.09322
 Alpha virt. eigenvalues --    0.09735   0.10494   0.11450   0.11922   0.12511
 Alpha virt. eigenvalues --    0.14234   0.14831   0.15965   0.16387   0.17147
 Alpha virt. eigenvalues --    0.18087   0.18481   0.18752   0.19583   0.20066
 Alpha virt. eigenvalues --    0.21112   0.21920   0.22918   0.23537   0.25116
 Alpha virt. eigenvalues --    0.26331   0.29577   0.30370   0.32888   0.33010
 Alpha virt. eigenvalues --    0.33869   0.34832   0.35130   0.35778   0.36316
 Alpha virt. eigenvalues --    0.39407   0.45402   0.47769   0.49393   0.50759
 Alpha virt. eigenvalues --    0.50884   0.51439   0.52265   0.53511   0.54499
 Alpha virt. eigenvalues --    0.55073   0.55911   0.56611   0.57810   0.57941
 Alpha virt. eigenvalues --    0.58974   0.59395   0.60042   0.60915   0.61194
 Alpha virt. eigenvalues --    0.61872   0.62682   0.63295   0.63915   0.65457
 Alpha virt. eigenvalues --    0.66203   0.67268   0.68723   0.69088   0.71203
 Alpha virt. eigenvalues --    0.72913   0.73685   0.74141   0.75124   0.75934
 Alpha virt. eigenvalues --    0.79544   0.79583   0.80600   0.81008   0.81818
 Alpha virt. eigenvalues --    0.82376   0.82999   0.83265   0.83890   0.85719
 Alpha virt. eigenvalues --    0.86097   0.86735   0.88878   0.89801   0.90622
 Alpha virt. eigenvalues --    0.90954   0.92071   0.92602   0.94042   0.94952
 Alpha virt. eigenvalues --    0.96188   0.96564   0.97654   0.98020   1.00024
 Alpha virt. eigenvalues --    1.03132   1.04732   1.04745   1.06181   1.07683
 Alpha virt. eigenvalues --    1.08194   1.11372   1.15159   1.15567   1.16031
 Alpha virt. eigenvalues --    1.18747   1.20706   1.25616   1.27745   1.28966
 Alpha virt. eigenvalues --    1.29299   1.31716   1.33342   1.36963   1.38773
 Alpha virt. eigenvalues --    1.39045   1.39982   1.40357   1.43881   1.44341
 Alpha virt. eigenvalues --    1.45163   1.45353   1.47536   1.51435   1.52277
 Alpha virt. eigenvalues --    1.54606   1.57476   1.61744   1.67253   1.67426
 Alpha virt. eigenvalues --    1.67539   1.70722   1.75711   1.76744   1.76943
 Alpha virt. eigenvalues --    1.78375   1.78498   1.79345   1.81079   1.81686
 Alpha virt. eigenvalues --    1.81910   1.83250   1.83681   1.84847   1.88703
 Alpha virt. eigenvalues --    1.90083   1.90230   1.91915   1.92872   1.93749
 Alpha virt. eigenvalues --    1.96928   1.97714   1.98799   1.99569   2.00188
 Alpha virt. eigenvalues --    2.03738   2.04221   2.05651   2.05745   2.07039
 Alpha virt. eigenvalues --    2.09872   2.10474   2.13393   2.13681   2.15437
 Alpha virt. eigenvalues --    2.16021   2.18715   2.19355   2.20295   2.21960
 Alpha virt. eigenvalues --    2.23058   2.25083   2.25524   2.27158   2.27743
 Alpha virt. eigenvalues --    2.28793   2.30657   2.32772   2.32876   2.33972
 Alpha virt. eigenvalues --    2.34227   2.37419   2.39660   2.40702   2.41940
 Alpha virt. eigenvalues --    2.42196   2.43052   2.43508   2.44623   2.46807
 Alpha virt. eigenvalues --    2.49029   2.49440   2.50970   2.52419   2.52649
 Alpha virt. eigenvalues --    2.54064   2.56358   2.58467   2.58917   2.61408
 Alpha virt. eigenvalues --    2.61417   2.62077   2.63244   2.63951   2.65245
 Alpha virt. eigenvalues --    2.67098   2.67181   2.67847   2.69092   2.72234
 Alpha virt. eigenvalues --    2.72401   2.73451   2.75774   2.77254   2.80906
 Alpha virt. eigenvalues --    2.81515   2.81728   2.83961   2.84057   2.88576
 Alpha virt. eigenvalues --    2.89456   2.89471   2.93157   2.93427   2.98717
 Alpha virt. eigenvalues --    3.05361   3.07029   3.10064   3.17424   3.22472
 Alpha virt. eigenvalues --    3.25359   3.26171   3.26497   3.26731   3.27454
 Alpha virt. eigenvalues --    3.28787   3.34745   3.35668   3.38385   3.43370
 Alpha virt. eigenvalues --    3.46542   3.47973   3.49461   3.50585   3.53145
 Alpha virt. eigenvalues --    3.66584   3.76734   3.85947   4.13980   4.16771
 Alpha virt. eigenvalues --    4.17220   4.24795   4.31634   4.34302   4.38296
 Alpha virt. eigenvalues --    4.43582   4.43640   4.48394   4.57112   4.59034
 Alpha virt. eigenvalues --    4.67076   4.70392   4.79551   4.86235
          Condensed to atoms (all electrons):
               1          2          3          4          5          6
     1  C    4.919576   0.501913  -0.038300  -0.043781  -0.043520   0.545308
     2  C    0.501913   4.939760   0.536866  -0.043520  -0.043276  -0.044502
     3  C   -0.038300   0.536866   4.823354   0.545308  -0.044502  -0.041022
     4  C   -0.043781  -0.043520   0.545308   4.919576   0.501913  -0.038300
     5  C   -0.043520  -0.043276  -0.044502   0.501913   4.939760   0.536866
     6  C    0.545308  -0.044502  -0.041022  -0.038300   0.536866   4.823354
     7  H    0.366900  -0.039412   0.004046   0.000436   0.005675  -0.040948
     8  H   -0.038385   0.370155  -0.046924   0.005272   0.000349   0.004410
     9  H    0.000436   0.005675  -0.040948   0.366900  -0.039412   0.004046
    10  H    0.005272   0.000349   0.004410  -0.038385   0.370155  -0.046924
    11  C    0.004952  -0.064828   0.370141  -0.048053   0.006969   0.000822
    12  H   -0.000207   0.005504  -0.033018  -0.007303  -0.000052  -0.000007
    13  H   -0.000226  -0.002975  -0.029893   0.003558  -0.000217  -0.000048
    14  C   -0.048053   0.006969   0.000822   0.004952  -0.064828   0.370141
    15  H    0.003558  -0.000217  -0.000048  -0.000226  -0.002975  -0.029893
    16  H   -0.007303  -0.000052  -0.000007  -0.000207   0.005504  -0.033018
    17  C    0.001475  -0.005011  -0.044952  -0.004253   0.000111   0.000416
    18  H   -0.000061   0.004280  -0.006350  -0.000058   0.000005  -0.000015
    19  H   -0.000001   0.000189   0.005011   0.000001  -0.000010  -0.000006
    20  C   -0.004253   0.000111   0.000416   0.001475  -0.005011  -0.044952
    21  H   -0.000058   0.000005  -0.000015  -0.000061   0.004280  -0.006350
    22  H    0.000001  -0.000010  -0.000006  -0.000001   0.000189   0.005011
    23  C    0.002673   0.000966   0.000778  -0.000583  -0.003404  -0.003911
    24  C   -0.010352  -0.007740  -0.009964  -0.010352  -0.007740  -0.009964
    25  C    0.000010  -0.000017  -0.000025  -0.000062  -0.000076   0.000025
    26  C   -0.000583  -0.003404  -0.003911   0.002673   0.000966   0.000778
    27  H   -0.014226  -0.018555  -0.003812  -0.014226  -0.018555  -0.003812
    28  C   -0.000002  -0.000002  -0.000006  -0.000002  -0.000002  -0.000006
    29  H    0.000002   0.000000   0.000000   0.000001   0.000001   0.000006
    30  C   -0.000062  -0.000076   0.000025   0.000010  -0.000017  -0.000025
    31  H   -0.000000  -0.000000   0.000000  -0.000000  -0.000000   0.000000
    32  H    0.000001   0.000001   0.000006   0.000002   0.000000   0.000000
               7          8          9         10         11         12
     1  C    0.366900  -0.038385   0.000436   0.005272   0.004952  -0.000207
     2  C   -0.039412   0.370155   0.005675   0.000349  -0.064828   0.005504
     3  C    0.004046  -0.046924  -0.040948   0.004410   0.370141  -0.033018
     4  C    0.000436   0.005272   0.366900  -0.038385  -0.048053  -0.007303
     5  C    0.005675   0.000349  -0.039412   0.370155   0.006969  -0.000052
     6  C   -0.040948   0.004410   0.004046  -0.046924   0.000822  -0.000007
     7  H    0.625738  -0.007283   0.000015  -0.000199  -0.000191   0.000004
     8  H   -0.007283   0.629168  -0.000199   0.000016  -0.006274  -0.000005
     9  H    0.000015  -0.000199   0.625738  -0.007283  -0.009313   0.006830
    10  H   -0.000199   0.000016  -0.007283   0.629168  -0.000153  -0.000020
    11  C   -0.000191  -0.006274  -0.009313  -0.000153   4.997166   0.370825
    12  H    0.000004  -0.000005   0.006830  -0.000020   0.370825   0.627479
    13  H   -0.000003   0.002425   0.000103   0.000002   0.356900  -0.033624
    14  C   -0.009313  -0.000153  -0.000191  -0.006274  -0.000003  -0.000001
    15  H    0.000103   0.000002  -0.000003   0.002425   0.000000  -0.000000
    16  H    0.006830  -0.000020   0.000004  -0.000005  -0.000001   0.000000
    17  C    0.000023  -0.000256   0.000021   0.000003   0.346800  -0.037849
    18  H    0.000006   0.001327   0.000001  -0.000000  -0.037324   0.005545
    19  H   -0.000000  -0.000035  -0.000003  -0.000000  -0.031233  -0.005967
    20  C    0.000021   0.000003   0.000023  -0.000256   0.000007   0.000001
    21  H    0.000001  -0.000000   0.000006   0.001327  -0.000002   0.000000
    22  H   -0.000003  -0.000000  -0.000000  -0.000035   0.000000  -0.000000
    23  C    0.000022  -0.000020  -0.000013   0.000265   0.000059  -0.000021
    24  C    0.000213  -0.000186   0.000213  -0.000186  -0.003912   0.000137
    25  C   -0.000001   0.000000  -0.000001   0.000003  -0.000008  -0.000004
    26  C   -0.000013   0.000265   0.000022  -0.000020  -0.028007  -0.001285
    27  H   -0.000307   0.000303  -0.000307   0.000303  -0.001934  -0.000480
    28  C    0.000000  -0.000000   0.000000  -0.000000  -0.000098   0.000002
    29  H   -0.000000   0.000000  -0.000000  -0.000000  -0.000000  -0.000000
    30  C   -0.000001   0.000003  -0.000001   0.000000   0.002509   0.000095
    31  H    0.000000   0.000000   0.000000   0.000000   0.000001   0.000000
    32  H   -0.000000  -0.000000  -0.000000   0.000000  -0.000000  -0.000009
              13         14         15         16         17         18
     1  C   -0.000226  -0.048053   0.003558  -0.007303   0.001475  -0.000061
     2  C   -0.002975   0.006969  -0.000217  -0.000052  -0.005011   0.004280
     3  C   -0.029893   0.000822  -0.000048  -0.000007  -0.044952  -0.006350
     4  C    0.003558   0.004952  -0.000226  -0.000207  -0.004253  -0.000058
     5  C   -0.000217  -0.064828  -0.002975   0.005504   0.000111   0.000005
     6  C   -0.000048   0.370141  -0.029893  -0.033018   0.000416  -0.000015
     7  H   -0.000003  -0.009313   0.000103   0.006830   0.000023   0.000006
     8  H    0.002425  -0.000153   0.000002  -0.000020  -0.000256   0.001327
     9  H    0.000103  -0.000191  -0.000003   0.000004   0.000021   0.000001
    10  H    0.000002  -0.006274   0.002425  -0.000005   0.000003  -0.000000
    11  C    0.356900  -0.000003   0.000000  -0.000001   0.346800  -0.037324
    12  H   -0.033624  -0.000001  -0.000000   0.000000  -0.037849   0.005545
    13  H    0.638199   0.000000  -0.000000  -0.000000  -0.034744  -0.006248
    14  C    0.000000   4.997166   0.356900   0.370825   0.000007  -0.000002
    15  H   -0.000000   0.356900   0.638199  -0.033624   0.000000   0.000000
    16  H   -0.000000   0.370825  -0.033624   0.627479   0.000001   0.000000
    17  C   -0.034744   0.000007   0.000000   0.000001   5.086458   0.369771
    18  H   -0.006248  -0.000002   0.000000   0.000000   0.369771   0.625900
    19  H   -0.000638   0.000000  -0.000000  -0.000000   0.359852  -0.036001
    20  C    0.000000   0.346800  -0.034744  -0.037849  -0.000149   0.000004
    21  H    0.000000  -0.037324  -0.006248   0.005545   0.000004   0.000000
    22  H   -0.000000  -0.031233  -0.000638  -0.005967   0.000002  -0.000000
    23  C    0.000003  -0.028007   0.003962  -0.001285   0.008345  -0.000327
    24  C    0.000113  -0.003912   0.000113   0.000137  -0.047080  -0.005468
    25  C    0.000000   0.002509  -0.000087   0.000095  -0.000012   0.000052
    26  C    0.003962   0.000059   0.000003  -0.000021   0.344551  -0.032681
    27  H    0.000167  -0.001934   0.000167  -0.000480  -0.028137   0.000802
    28  C    0.000001  -0.000098   0.000001   0.000002   0.005765  -0.000140
    29  H    0.000000  -0.000000  -0.000001  -0.000009   0.000012  -0.000000
    30  C   -0.000087  -0.000008   0.000000  -0.000004  -0.065799  -0.000909
    31  H   -0.000000   0.000001  -0.000000   0.000000  -0.000160   0.000003
    32  H   -0.000001  -0.000000   0.000000  -0.000000  -0.007249   0.000397
              19         20         21         22         23         24
     1  C   -0.000001  -0.004253  -0.000058   0.000001   0.002673  -0.010352
     2  C    0.000189   0.000111   0.000005  -0.000010   0.000966  -0.007740
     3  C    0.005011   0.000416  -0.000015  -0.000006   0.000778  -0.009964
     4  C    0.000001   0.001475  -0.000061  -0.000001  -0.000583  -0.010352
     5  C   -0.000010  -0.005011   0.004280   0.000189  -0.003404  -0.007740
     6  C   -0.000006  -0.044952  -0.006350   0.005011  -0.003911  -0.009964
     7  H   -0.000000   0.000021   0.000001  -0.000003   0.000022   0.000213
     8  H   -0.000035   0.000003  -0.000000  -0.000000  -0.000020  -0.000186
     9  H   -0.000003   0.000023   0.000006  -0.000000  -0.000013   0.000213
    10  H   -0.000000  -0.000256   0.001327  -0.000035   0.000265  -0.000186
    11  C   -0.031233   0.000007  -0.000002   0.000000   0.000059  -0.003912
    12  H   -0.005967   0.000001   0.000000  -0.000000  -0.000021   0.000137
    13  H   -0.000638   0.000000   0.000000  -0.000000   0.000003   0.000113
    14  C    0.000000   0.346800  -0.037324  -0.031233  -0.028007  -0.003912
    15  H   -0.000000  -0.034744  -0.006248  -0.000638   0.003962   0.000113
    16  H   -0.000000  -0.037849   0.005545  -0.005967  -0.001285   0.000137
    17  C    0.359852  -0.000149   0.000004   0.000002   0.008345  -0.047080
    18  H   -0.036001   0.000004   0.000000  -0.000000  -0.000327  -0.005468
    19  H    0.634103   0.000002  -0.000000  -0.000000  -0.000150   0.004138
    20  C    0.000002   5.086458   0.369771   0.359852   0.344551  -0.047080
    21  H   -0.000000   0.369771   0.625900  -0.036001  -0.032681  -0.005468
    22  H   -0.000000   0.359852  -0.036001   0.634103  -0.030980   0.004138
    23  C   -0.000150   0.344551  -0.032681  -0.030980   4.768784   0.531601
    24  C    0.004138  -0.047080  -0.005468   0.004138   0.531601   4.876145
    25  C    0.000013  -0.065799  -0.000909  -0.003323   0.501725  -0.025863
    26  C   -0.030980   0.008345  -0.000327  -0.000150  -0.009300   0.531601
    27  H    0.000335  -0.028137   0.000802   0.000335  -0.075276   0.332141
    28  C    0.000018   0.005765  -0.000140   0.000018  -0.019125  -0.055032
    29  H   -0.000000  -0.007249   0.000397   0.005108  -0.042088   0.005289
    30  C   -0.003323  -0.000012   0.000052   0.000013  -0.052748  -0.025863
    31  H   -0.000004  -0.000160   0.000003  -0.000004   0.003424   0.001261
    32  H    0.005108   0.000012  -0.000000  -0.000000   0.001015   0.005289
              25         26         27         28         29         30
     1  C    0.000010  -0.000583  -0.014226  -0.000002   0.000002  -0.000062
     2  C   -0.000017  -0.003404  -0.018555  -0.000002   0.000000  -0.000076
     3  C   -0.000025  -0.003911  -0.003812  -0.000006   0.000000   0.000025
     4  C   -0.000062   0.002673  -0.014226  -0.000002   0.000001   0.000010
     5  C   -0.000076   0.000966  -0.018555  -0.000002   0.000001  -0.000017
     6  C    0.000025   0.000778  -0.003812  -0.000006   0.000006  -0.000025
     7  H   -0.000001  -0.000013  -0.000307   0.000000  -0.000000  -0.000001
     8  H    0.000000   0.000265   0.000303  -0.000000   0.000000   0.000003
     9  H   -0.000001   0.000022  -0.000307   0.000000  -0.000000  -0.000001
    10  H    0.000003  -0.000020   0.000303  -0.000000  -0.000000   0.000000
    11  C   -0.000008  -0.028007  -0.001934  -0.000098  -0.000000   0.002509
    12  H   -0.000004  -0.001285  -0.000480   0.000002  -0.000000   0.000095
    13  H    0.000000   0.003962   0.000167   0.000001   0.000000  -0.000087
    14  C    0.002509   0.000059  -0.001934  -0.000098  -0.000000  -0.000008
    15  H   -0.000087   0.000003   0.000167   0.000001  -0.000001   0.000000
    16  H    0.000095  -0.000021  -0.000480   0.000002  -0.000009  -0.000004
    17  C   -0.000012   0.344551  -0.028137   0.005765   0.000012  -0.065799
    18  H    0.000052  -0.032681   0.000802  -0.000140  -0.000000  -0.000909
    19  H    0.000013  -0.030980   0.000335   0.000018  -0.000000  -0.003323
    20  C   -0.065799   0.008345  -0.028137   0.005765  -0.007249  -0.000012
    21  H   -0.000909  -0.000327   0.000802  -0.000140   0.000397   0.000052
    22  H   -0.003323  -0.000150   0.000335   0.000018   0.005108   0.000013
    23  C    0.501725  -0.009300  -0.075276  -0.019125  -0.042088  -0.052748
    24  C   -0.025863   0.531601   0.332141  -0.055032   0.005289  -0.025863
    25  C    4.969788  -0.052748   0.014428   0.514960   0.358161  -0.027827
    26  C   -0.052748   4.768784  -0.075276  -0.019125   0.001015   0.501725
    27  H    0.014428  -0.075276   0.956061  -0.000248  -0.000348   0.014428
    28  C    0.514960  -0.019125  -0.000248   4.849022  -0.042658   0.514960
    29  H    0.358161   0.001015  -0.000348  -0.042658   0.654489   0.004300
    30  C   -0.027827   0.501725   0.014428   0.514960   0.004300   4.969788
    31  H   -0.038343   0.003424   0.000015   0.363550  -0.006090  -0.038343
    32  H    0.004300  -0.042088  -0.000348  -0.042658  -0.000178   0.358161
              31         32
     1  C   -0.000000   0.000001
     2  C   -0.000000   0.000001
     3  C    0.000000   0.000006
     4  C   -0.000000   0.000002
     5  C   -0.000000   0.000000
     6  C    0.000000   0.000000
     7  H    0.000000  -0.000000
     8  H    0.000000  -0.000000
     9  H    0.000000  -0.000000
    10  H    0.000000   0.000000
    11  C    0.000001  -0.000000
    12  H    0.000000  -0.000009
    13  H   -0.000000  -0.000001
    14  C    0.000001  -0.000000
    15  H   -0.000000   0.000000
    16  H    0.000000  -0.000000
    17  C   -0.000160  -0.007249
    18  H    0.000003   0.000397
    19  H   -0.000004   0.005108
    20  C   -0.000160   0.000012
    21  H    0.000003  -0.000000
    22  H   -0.000004  -0.000000
    23  C    0.003424   0.001015
    24  C    0.001261   0.005289
    25  C   -0.038343   0.004300
    26  C    0.003424  -0.042088
    27  H    0.000015  -0.000348
    28  C    0.363550  -0.042658
    29  H   -0.006090  -0.000178
    30  C   -0.038343   0.358161
    31  H    0.642468  -0.006090
    32  H   -0.006090   0.654489
 Mulliken charges:
               1
     1  C   -0.102703
     2  C   -0.099148
     3  C    0.052519
     4  C   -0.102703
     5  C   -0.099148
     6  C    0.052519
     7  H    0.087640
     8  H    0.086043
     9  H    0.087640
    10  H    0.086043
    11  C   -0.225819
    12  H    0.103429
    13  H    0.103272
    14  C   -0.225819
    15  H    0.103272
    16  H    0.103429
    17  C   -0.247967
    18  H    0.117490
    19  H    0.099581
    20  C   -0.247967
    21  H    0.117490
    22  H    0.099581
    23  C    0.131747
    24  C   -0.016363
    25  C   -0.150963
    26  C    0.131747
    27  H   -0.033887
    28  C   -0.074723
    29  H    0.069842
    30  C   -0.150963
    31  H    0.075045
    32  H    0.069842
 Sum of Mulliken charges =  -0.00000
 Mulliken charges with hydrogens summed into heavy atoms:
               1
     1  C   -0.015062
     2  C   -0.013105
     3  C    0.052519
     4  C   -0.015062
     5  C   -0.013105
     6  C    0.052519
    11  C   -0.019117
    14  C   -0.019117
    17  C   -0.030895
    20  C   -0.030895
    23  C    0.131747
    24  C   -0.050250
    25  C   -0.081121
    26  C    0.131747
    28  C    0.000322
    30  C   -0.081121
 APT charges:
               1
     1  C   -0.050593
     2  C   -0.052521
     3  C   -0.009169
     4  C   -0.050593
     5  C   -0.052521
     6  C   -0.009169
     7  H    0.025411
     8  H    0.027531
     9  H    0.025411
    10  H    0.027531
    11  C    0.171329
    12  H   -0.037516
    13  H   -0.060378
    14  C    0.171329
    15  H   -0.060378
    16  H   -0.037516
    17  C    0.135501
    18  H   -0.057952
    19  H   -0.052105
    20  C    0.135501
    21  H   -0.057952
    22  H   -0.052105
    23  C    0.036579
    24  C   -0.125384
    25  C   -0.040114
    26  C    0.036579
    27  H    0.066374
    28  C   -0.021738
    29  H    0.005052
    30  C   -0.040114
    31  H   -0.001356
    32  H    0.005052
 Sum of APT charges =  -0.00000
 APT charges with hydrogens summed into heavy atoms:
               1
     1  C   -0.025182
     2  C   -0.024991
     3  C   -0.009169
     4  C   -0.025182
     5  C   -0.024991
     6  C   -0.009169
    11  C    0.073434
    14  C    0.073434
    17  C    0.025444
    20  C    0.025444
    23  C    0.036579
    24  C   -0.059010
    25  C   -0.035063
    26  C    0.036579
    28  C   -0.023094
    30  C   -0.035063
 Electronic spatial extent (au):  <R**2>=           3040.2532
 Charge=              0.0000 electrons
 Dipole moment (field-independent basis, Debye):
    X=             -0.0360    Y=             -0.0000    Z=             -0.0000  Tot=              0.0360
 Quadrupole moment (field-independent basis, Debye-Ang):
   XX=            -98.0263   YY=            -85.8763   ZZ=            -92.1128
   XY=             -0.0000   XZ=              0.0000   YZ=             -0.8382
 Traceless Quadrupole moment (field-independent basis, Debye-Ang):
   XX=             -6.0212   YY=              6.1289   ZZ=             -0.1077
   XY=             -0.0000   XZ=              0.0000   YZ=             -0.8382
 Octapole moment (field-independent basis, Debye-Ang**2):
  XXX=             36.8047  YYY=              0.0000  ZZZ=              0.0000  XYY=              3.9312
  XXY=             -0.0000  XXZ=             -0.0000  XZZ=            -14.2331  YZZ=             -0.0000
  YYZ=             -0.0000  XYZ=              0.7158
 Hexadecapole moment (field-independent basis, Debye-Ang**3):
 XXXX=          -2155.1495 YYYY=          -1628.7879 ZZZZ=           -374.2077 XXXY=             -0.0000
 XXXZ=              0.0001 YYYX=             -0.0000 YYYZ=             -5.5587 ZZZX=              0.0001
 ZZZY=              0.2744 XXYY=           -621.9319 XXZZ=           -436.5889 YYZZ=           -338.3890
 XXYZ=             -4.9530 YYXZ=              0.0000 ZZXY=              0.0000
 N-N= 1.060800878448D+03 E-N=-3.554854914109D+03  KE= 6.132512569049D+02
  Exact polarizability:     157.312      -0.000     190.526      -0.000      -2.239     115.171
 Approx polarizability:     229.966      -0.000     329.190      -0.000      -4.690     205.713
 No NMR shielding tensors so no spin-rotation constants.
 Leave Link  601 at Mon Jul 28 11:56:49 2025, MaxMem=  6174015488 cpu:               4.1 elap:               0.1
 (Enter /opt/linux/rocky/8/software/gaussian/16c01_avx2/g16/l701.exe)
 ... and contract with generalized density number  0.
 Compute integral second derivatives.
 Leave Link  701 at Mon Jul 28 11:56:50 2025, MaxMem=  6174015488 cpu:               6.0 elap:               0.2
 (Enter /opt/linux/rocky/8/software/gaussian/16c01_avx2/g16/l702.exe)
 L702 exits ... SP integral derivatives will be done elsewhere.
 Leave Link  702 at Mon Jul 28 11:56:50 2025, MaxMem=  6174015488 cpu:               0.3 elap:               0.0
 (Enter /opt/linux/rocky/8/software/gaussian/16c01_avx2/g16/l703.exe)
 Integral derivatives from FoFJK, PRISM(SPDF).
 Compute integral second derivatives, UseDBF=F ICtDFT=           0.
 Calling FoFJK, ICntrl=    100127 FMM=F ISym2X=0 I1Cent= 0 IOpClX= 0 NMat=1 NMatS=1 NMatT=0.
 FoFJK:  IHMeth= 1 ICntrl=  100127 DoSepK=F KAlg= 0 I1Cent=           0 FoldK=F
 IRaf=         0 NMat=       1 IRICut=       1 DoRegI=T DoRafI=F ISym2E= 0 IDoP0=0 IntGTp=1.
 FoFCou: FMM=F IPFlag=           0 FMFlag=      100000 FMFlg1=         800
         NFxFlg=           0 DoJE=F BraDBF=F KetDBF=F FulRan=T
         wScrn=  0.000000 ICntrl=    100127 IOpCl=  0 I1Cent=           0 NGrid=           0
         NMat0=    1 NMatS0=      1 NMatT0=    0 NMatD0=    1 NMtDS0=    0 NMtDT0=    0
 Symmetry not used in FoFCou.
 Leave Link  703 at Mon Jul 28 11:57:18 2025, MaxMem=  6174015488 cpu:            1003.3 elap:              28.1
 (Enter /opt/linux/rocky/8/software/gaussian/16c01_avx2/g16/l716.exe)
 Dipole        =-1.41772540D-02-2.01073128D-08-4.18517061D-10
 Polarizability= 1.57311678D+02-1.80645986D-07 1.90525881D+02
                -3.74836511D-06-2.23863956D+00 1.15171343D+02
 Full mass-weighted force constant matrix:
 Low frequencies --- -100.2355   -5.7815   -0.0006   -0.0005   -0.0001    3.0261
 Low frequencies ---    3.5515  136.4820  191.2019
 ******    1 imaginary frequencies (negative Signs) ****** 
 Diagonal vibrational polarizability:
        4.4788196       3.6561621       4.4141959
 Harmonic frequencies (cm**-1), IR intensities (KM/Mole), Raman scattering
 activities (A**4/AMU), depolarization ratios for plane and unpolarized
 incident light, reduced masses (AMU), force constants (mDyne/A),
 and normal coordinates:
                      1                      2                      3
                      A                      A                      A
 Frequencies --   -100.2350               136.4819               191.2016
 Red. masses --      3.5571                 2.8573                 2.2942
 Frc consts  --      0.0211                 0.0314                 0.0494
 IR Inten    --      0.0544                 0.0107                 0.2017
  Atom  AN      X      Y      Z        X      Y      Z        X      Y      Z
     1   6     0.15   0.00  -0.04    -0.00   0.07  -0.03    -0.08  -0.03  -0.02
     2   6     0.13   0.00  -0.04    -0.01   0.06   0.05    -0.08  -0.03  -0.02
     3   6    -0.02   0.00  -0.02     0.01  -0.01   0.08    -0.00  -0.03  -0.04
     4   6    -0.15   0.00  -0.04    -0.00  -0.07   0.03     0.08  -0.03  -0.02
     5   6    -0.13   0.00  -0.04    -0.01  -0.06  -0.05     0.08  -0.03  -0.02
     6   6     0.02   0.00  -0.02     0.01   0.01  -0.08     0.00  -0.03  -0.04
     7   1     0.25   0.00  -0.04     0.01   0.13  -0.05    -0.15  -0.03  -0.02
     8   1     0.22   0.00  -0.04    -0.02   0.11   0.09    -0.16  -0.03  -0.02
     9   1    -0.25   0.00  -0.04     0.01  -0.13   0.05     0.15  -0.03  -0.02
    10   1    -0.22   0.00  -0.04    -0.02  -0.11  -0.09     0.16  -0.03  -0.02
    11   6    -0.02  -0.01   0.05     0.06  -0.05   0.10    -0.04   0.00  -0.04
    12   1    -0.06  -0.04   0.06     0.22  -0.17   0.11    -0.17   0.08  -0.04
    13   1     0.00   0.01   0.07     0.02   0.02   0.26    -0.03  -0.05  -0.14
    14   6     0.02  -0.01   0.05     0.06   0.05  -0.10     0.04   0.00  -0.04
    15   1    -0.00   0.01   0.07     0.02  -0.02  -0.26     0.03  -0.05  -0.14
    16   1     0.06  -0.04   0.06     0.22   0.17  -0.11     0.17   0.08  -0.04
    17   6    -0.00   0.01   0.09    -0.04  -0.04  -0.12     0.06   0.07   0.14
    18   1     0.03   0.04   0.09    -0.22  -0.13  -0.11     0.23   0.28   0.15
    19   1    -0.01   0.00   0.14    -0.01   0.00  -0.28     0.02  -0.00   0.40
    20   6     0.00   0.01   0.09    -0.04   0.04   0.12    -0.06   0.07   0.14
    21   1    -0.03   0.04   0.09    -0.22   0.13   0.11    -0.23   0.28   0.15
    22   1     0.01   0.00   0.14    -0.01  -0.00   0.28    -0.02  -0.00   0.40
    23   6     0.00   0.00   0.06    -0.00   0.01   0.11    -0.03   0.02   0.02
    24   6     0.00   0.01   0.21    -0.00  -0.00   0.00    -0.00   0.04  -0.03
    25   6    -0.00  -0.01  -0.13    -0.00   0.00   0.14    -0.04  -0.02  -0.01
    26   6    -0.00   0.00   0.06    -0.00  -0.01  -0.11     0.03   0.02   0.02
    27   1     0.00   0.02   0.49    -0.00  -0.00   0.00    -0.00   0.06  -0.08
    28   6    -0.00  -0.01  -0.19    -0.00   0.00  -0.00    -0.00  -0.04  -0.07
    29   1    -0.00  -0.02  -0.23    -0.00   0.01   0.25    -0.07  -0.04   0.00
    30   6     0.00  -0.01  -0.13    -0.00  -0.00  -0.14     0.04  -0.02  -0.01
    31   1    -0.00  -0.02  -0.32    -0.00   0.00  -0.00    -0.00  -0.08  -0.11
    32   1     0.00  -0.02  -0.23    -0.00  -0.01  -0.25     0.07  -0.04   0.00
                      4                      5                      6
                      A                      A                      A
 Frequencies --    206.8707               241.3443               247.7536
 Red. masses --      3.0357                 3.5583                 3.2895
 Frc consts  --      0.0765                 0.1221                 0.1190
 IR Inten    --      3.0041                 0.3239                 0.4648
  Atom  AN      X      Y      Z        X      Y      Z        X      Y      Z
     1   6    -0.05   0.03   0.02     0.13   0.00  -0.01    -0.13  -0.03   0.03
     2   6    -0.10   0.03   0.01     0.13  -0.00  -0.01    -0.11  -0.02  -0.02
     3   6    -0.05   0.04  -0.00     0.06   0.01   0.00    -0.06  -0.00  -0.04
     4   6     0.05   0.03   0.02     0.13  -0.00   0.01    -0.13   0.03  -0.03
     5   6     0.10   0.03   0.01     0.13   0.00   0.01    -0.11   0.02   0.02
     6   6     0.05   0.04  -0.00     0.06  -0.01  -0.00    -0.06   0.00   0.04
     7   1    -0.11   0.04   0.01     0.15  -0.00  -0.00    -0.18  -0.06   0.03
     8   1    -0.19   0.03   0.01     0.16   0.00  -0.00    -0.13  -0.05  -0.04
     9   1     0.11   0.04   0.01     0.15   0.00   0.00    -0.18   0.06  -0.03
    10   1     0.19   0.03   0.01     0.16  -0.00   0.00    -0.13   0.05   0.04
    11   6    -0.06   0.06  -0.13    -0.04   0.07   0.01     0.01  -0.05   0.01
    12   1    -0.12   0.25  -0.16    -0.11   0.11   0.00    -0.05  -0.09   0.02
    13   1    -0.03  -0.02  -0.31    -0.07   0.02  -0.05     0.06  -0.01   0.03
    14   6     0.06   0.06  -0.13    -0.04  -0.07  -0.01     0.01   0.05  -0.01
    15   1     0.03  -0.02  -0.31    -0.07  -0.02   0.05     0.06   0.01  -0.03
    16   1     0.12   0.25  -0.16    -0.11  -0.11  -0.00    -0.05   0.09  -0.02
    17   6    -0.03  -0.07  -0.05    -0.01   0.09   0.08     0.07   0.02   0.10
    18   1    -0.01  -0.25  -0.07     0.08   0.30   0.10     0.18   0.24   0.12
    19   1    -0.04  -0.01  -0.18     0.03  -0.01   0.29     0.04  -0.05   0.34
    20   6     0.03  -0.07  -0.05    -0.01  -0.09  -0.08     0.07  -0.02  -0.10
    21   1     0.01  -0.25  -0.07     0.08  -0.30  -0.10     0.18  -0.24  -0.12
    22   1     0.04  -0.01  -0.18     0.03   0.01  -0.29     0.04   0.05  -0.34
    23   6     0.02  -0.04   0.12    -0.09  -0.01   0.06     0.07   0.01   0.05
    24   6     0.00  -0.04   0.22    -0.08  -0.00   0.00     0.06  -0.00  -0.00
    25   6     0.02  -0.02   0.00    -0.09   0.01   0.17     0.08   0.01   0.17
    26   6    -0.02  -0.04   0.12    -0.09   0.01  -0.06     0.07  -0.01  -0.05
    27   1     0.00  -0.04   0.25    -0.06  -0.00   0.00     0.04  -0.00  -0.00
    28   6    -0.00  -0.02  -0.04    -0.10   0.00   0.00     0.09   0.00  -0.00
    29   1     0.03  -0.02  -0.10    -0.09   0.02   0.31     0.07   0.02   0.30
    30   6    -0.02  -0.02   0.00    -0.09  -0.01  -0.17     0.08  -0.01  -0.17
    31   1    -0.00  -0.00  -0.15    -0.10   0.00   0.00     0.09   0.00  -0.00
    32   1    -0.03  -0.02  -0.10    -0.09  -0.02  -0.31     0.07  -0.02  -0.30
                      7                      8                      9
                      A                      A                      A
 Frequencies --    277.2834               318.8027               331.8955
 Red. masses --      4.8658                 2.4832                 2.2967
 Frc consts  --      0.2204                 0.1487                 0.1491
 IR Inten    --      1.0478                 0.6856                 0.3507
  Atom  AN      X      Y      Z        X      Y      Z        X      Y      Z
     1   6    -0.06  -0.09   0.01    -0.10   0.01  -0.08    -0.05  -0.08   0.06
     2   6     0.03  -0.09   0.01    -0.08   0.03  -0.08     0.07  -0.06  -0.07
     3   6     0.09  -0.09   0.00     0.01   0.02  -0.08     0.02   0.02  -0.09
     4   6     0.06  -0.09   0.01     0.10   0.01  -0.08    -0.05   0.08  -0.06
     5   6    -0.03  -0.09   0.01     0.08   0.03  -0.08     0.07   0.06   0.07
     6   6    -0.09  -0.09   0.00    -0.01   0.02  -0.08     0.02  -0.02   0.09
     7   1    -0.11  -0.10   0.01    -0.22   0.01  -0.08    -0.10  -0.17   0.09
     8   1     0.06  -0.10   0.01    -0.19   0.02  -0.08     0.14  -0.16  -0.14
     9   1     0.11  -0.10   0.01     0.22   0.01  -0.08    -0.10   0.17  -0.09
    10   1    -0.06  -0.10   0.01     0.19   0.02  -0.08     0.14   0.16   0.14
    11   6     0.10  -0.07  -0.05     0.06  -0.04   0.11     0.08  -0.04   0.09
    12   1     0.16  -0.07  -0.06     0.14  -0.31   0.16     0.17  -0.33   0.14
    13   1     0.00  -0.09  -0.00     0.10   0.10   0.36     0.10   0.12   0.37
    14   6    -0.10  -0.07  -0.05    -0.06  -0.04   0.11     0.08   0.04  -0.09
    15   1    -0.00  -0.09  -0.00    -0.10   0.10   0.36     0.10  -0.12  -0.37
    16   1    -0.16  -0.07  -0.06    -0.14  -0.31   0.16     0.17   0.33  -0.14
    17   6     0.08   0.07  -0.12    -0.01  -0.03   0.02     0.00   0.01   0.00
    18   1     0.03  -0.10  -0.13    -0.09  -0.11   0.02    -0.04   0.03   0.01
    19   1    -0.02   0.18  -0.25     0.01  -0.01  -0.07     0.04  -0.01  -0.01
    20   6    -0.08   0.07  -0.12     0.01  -0.03   0.02     0.00  -0.01  -0.00
    21   1    -0.03  -0.10  -0.13     0.09  -0.11   0.02    -0.04  -0.03  -0.01
    22   1     0.02   0.18  -0.25    -0.01  -0.01  -0.07     0.04   0.01   0.01
    23   6    -0.12   0.14   0.06     0.02  -0.01   0.07    -0.04   0.01   0.01
    24   6     0.00   0.20   0.19     0.00  -0.02   0.07    -0.05  -0.00   0.00
    25   6    -0.12   0.05   0.01     0.02   0.03   0.01    -0.05   0.00  -0.03
    26   6     0.12   0.14   0.06    -0.02  -0.01   0.07    -0.04  -0.01  -0.01
    27   1     0.00   0.27   0.21     0.00  -0.04  -0.02    -0.04  -0.00   0.00
    28   6     0.00  -0.02   0.02    -0.00   0.05  -0.05    -0.05   0.00  -0.00
    29   1    -0.20  -0.00  -0.09     0.06   0.05  -0.04    -0.05  -0.00  -0.07
    30   6     0.12   0.05   0.01    -0.02   0.03   0.01    -0.05  -0.00   0.03
    31   1     0.00  -0.14  -0.02    -0.00   0.06  -0.14    -0.05   0.00  -0.00
    32   1     0.20  -0.00  -0.09    -0.06   0.05  -0.04    -0.05   0.00   0.07
                     10                     11                     12
                      A                      A                      A
 Frequencies --    337.3375               401.2930               439.2142
 Red. masses --      4.0191                 3.3564                 2.5112
 Frc consts  --      0.2695                 0.3185                 0.2854
 IR Inten    --      0.4999                 1.1049                 0.9738
  Atom  AN      X      Y      Z        X      Y      Z        X      Y      Z
     1   6    -0.12  -0.01   0.01    -0.00   0.03   0.01    -0.01   0.00  -0.00
     2   6     0.14  -0.02   0.01    -0.13   0.03   0.06    -0.05   0.00  -0.00
     3   6     0.19  -0.05   0.01     0.08   0.01   0.03    -0.02   0.01  -0.01
     4   6     0.12  -0.01   0.01    -0.00  -0.03  -0.01     0.01   0.00  -0.00
     5   6    -0.14  -0.02   0.01    -0.13  -0.03  -0.06     0.05   0.00  -0.00
     6   6    -0.19  -0.05   0.01     0.08  -0.01  -0.03     0.02   0.01  -0.01
     7   1    -0.17  -0.02   0.01    -0.04   0.09  -0.02    -0.06   0.00  -0.00
     8   1     0.22  -0.02   0.01    -0.31   0.05   0.06    -0.10   0.00  -0.00
     9   1     0.17  -0.02   0.01    -0.04  -0.09   0.02     0.06   0.00  -0.00
    10   1    -0.22  -0.02   0.01    -0.31  -0.05  -0.06     0.10   0.00  -0.00
    11   6     0.07   0.02  -0.07     0.15   0.02  -0.06     0.02  -0.02  -0.01
    12   1     0.00   0.16  -0.09     0.20   0.03  -0.06     0.05  -0.07  -0.00
    13   1     0.00  -0.08  -0.19     0.10   0.00  -0.03     0.02   0.02   0.05
    14   6    -0.07   0.02  -0.07     0.15  -0.02   0.06    -0.02  -0.02  -0.01
    15   1    -0.00  -0.08  -0.19     0.10  -0.00   0.03    -0.02   0.02   0.05
    16   1    -0.00   0.16  -0.09     0.20  -0.03   0.06    -0.05  -0.07  -0.00
    17   6     0.05  -0.01   0.03     0.13   0.06  -0.04     0.02   0.02  -0.01
    18   1     0.15   0.07   0.02     0.25   0.24  -0.03     0.09   0.21   0.01
    19   1     0.12  -0.09   0.12     0.19  -0.06   0.16     0.04  -0.06   0.18
    20   6    -0.05  -0.01   0.03     0.13  -0.06   0.04    -0.02   0.02  -0.01
    21   1    -0.15   0.07   0.02     0.25  -0.24   0.03    -0.09   0.21   0.01
    22   1    -0.12  -0.09   0.12     0.19   0.06  -0.16    -0.04  -0.06   0.18
    23   6     0.09  -0.06   0.03    -0.07   0.03   0.06     0.03  -0.03  -0.12
    24   6     0.00  -0.11   0.03    -0.11  -0.00   0.00     0.00  -0.02   0.16
    25   6     0.11   0.08   0.00    -0.08   0.02  -0.06     0.03  -0.00  -0.10
    26   6    -0.09  -0.06   0.03    -0.07  -0.03  -0.06    -0.03  -0.03  -0.12
    27   1     0.00  -0.25  -0.01    -0.11  -0.00   0.00     0.00  -0.02   0.57
    28   6     0.00   0.15  -0.04    -0.07   0.00   0.00     0.00   0.03   0.22
    29   1     0.22   0.15  -0.01    -0.11   0.00  -0.13     0.05   0.01  -0.13
    30   6    -0.11   0.08   0.00    -0.08  -0.02   0.06    -0.03  -0.00  -0.10
    31   1     0.00   0.25  -0.09    -0.07   0.00   0.00     0.00   0.07   0.51
    32   1    -0.22   0.15  -0.01    -0.11  -0.00   0.13    -0.05   0.01  -0.13
                     13                     14                     15
                      A                      A                      A
 Frequencies --    454.7188               474.4605               491.3611
 Red. masses --      2.8494                 4.1759                 3.8692
 Frc consts  --      0.3471                 0.5539                 0.5504
 IR Inten    --      0.0173                 0.3508                 0.1610
  Atom  AN      X      Y      Z        X      Y      Z        X      Y      Z
     1   6     0.20   0.01   0.03     0.12   0.01   0.03     0.01  -0.04   0.10
     2   6    -0.15   0.01  -0.07    -0.09   0.01   0.03    -0.08   0.00   0.05
     3   6    -0.04  -0.02  -0.08    -0.10   0.02   0.02     0.01   0.16  -0.01
     4   6     0.20  -0.01  -0.03    -0.12   0.01   0.03     0.01   0.04  -0.10
     5   6    -0.15  -0.01   0.07     0.09   0.01   0.03    -0.08  -0.00  -0.05
     6   6    -0.04   0.02   0.08     0.10   0.02   0.02     0.01  -0.16   0.01
     7   1     0.48  -0.05   0.07     0.21   0.02   0.03    -0.06   0.03   0.07
     8   1    -0.29  -0.01  -0.09    -0.09   0.01   0.03    -0.28  -0.11  -0.04
     9   1     0.48   0.05  -0.07    -0.21   0.02   0.03    -0.06  -0.03  -0.07
    10   1    -0.29   0.01   0.09     0.09   0.01   0.03    -0.28   0.11   0.04
    11   6    -0.02  -0.07   0.01     0.12  -0.09  -0.07     0.00   0.24   0.08
    12   1    -0.00  -0.23   0.04     0.14  -0.07  -0.08     0.01   0.16   0.09
    13   1     0.01   0.02   0.15     0.21  -0.05  -0.09     0.03   0.27   0.12
    14   6    -0.02   0.07  -0.01    -0.12  -0.09  -0.07     0.00  -0.24  -0.08
    15   1     0.01  -0.02  -0.15    -0.21  -0.05  -0.09     0.03  -0.27  -0.12
    16   1    -0.00   0.23  -0.04    -0.14  -0.07  -0.08     0.01  -0.16  -0.09
    17   6    -0.03  -0.02   0.02     0.14  -0.12   0.01    -0.02   0.10  -0.00
    18   1    -0.02   0.01   0.02     0.28   0.01   0.00    -0.17  -0.12  -0.01
    19   1    -0.06  -0.01   0.05     0.11  -0.15   0.17     0.06   0.15  -0.26
    20   6    -0.03   0.02  -0.02    -0.14  -0.12   0.01    -0.02  -0.10   0.00
    21   1    -0.02  -0.01  -0.02    -0.28   0.01   0.00    -0.17   0.12   0.01
    22   1    -0.06   0.01  -0.05    -0.11  -0.15   0.17     0.06  -0.15   0.26
    23   6     0.00  -0.00  -0.00    -0.06  -0.05   0.02     0.02  -0.06  -0.06
    24   6     0.01  -0.00   0.00    -0.00  -0.03  -0.04     0.06   0.00  -0.00
    25   6     0.01  -0.00   0.00    -0.04   0.15   0.02     0.03  -0.02   0.03
    26   6     0.00   0.00   0.00     0.06  -0.05   0.02     0.02   0.06   0.06
    27   1     0.01   0.00   0.00    -0.00   0.12  -0.09     0.05   0.00   0.00
    28   6     0.00   0.00   0.00    -0.00   0.16  -0.06     0.01   0.00   0.00
    29   1     0.01  -0.00   0.00     0.07   0.21   0.03     0.07   0.00   0.09
    30   6     0.01   0.00  -0.00     0.04   0.15   0.02     0.03   0.02  -0.03
    31   1     0.00   0.00   0.00    -0.00   0.09  -0.11     0.01  -0.00   0.00
    32   1     0.01   0.00  -0.00    -0.07   0.21   0.03     0.07  -0.00  -0.09
                     16                     17                     18
                      A                      A                      A
 Frequencies --    496.5353               560.0519               574.5005
 Red. masses --      3.2866                 3.2257                 3.0760
 Frc consts  --      0.4774                 0.5961                 0.5982
 IR Inten    --      0.0006                 6.3057                 0.9524
  Atom  AN      X      Y      Z        X      Y      Z        X      Y      Z
     1   6    -0.00   0.01  -0.01    -0.02   0.01  -0.00     0.07  -0.02   0.02
     2   6     0.01   0.01  -0.00    -0.04  -0.01  -0.03    -0.06  -0.02   0.03
     3   6    -0.05   0.00   0.01     0.22  -0.14  -0.03    -0.03  -0.00   0.00
     4   6    -0.00  -0.01   0.01    -0.02  -0.01   0.00    -0.07  -0.02   0.02
     5   6     0.01  -0.01   0.00    -0.04   0.01   0.03     0.06  -0.02   0.03
     6   6    -0.05  -0.00  -0.01     0.22   0.14   0.03     0.03  -0.00   0.00
     7   1     0.03   0.02  -0.01    -0.34  -0.11   0.03     0.17  -0.01   0.02
     8   1     0.08   0.01   0.00    -0.38   0.06   0.01    -0.06  -0.03   0.02
     9   1     0.03  -0.02   0.01    -0.34   0.11  -0.03    -0.17  -0.01   0.02
    10   1     0.08  -0.01  -0.00    -0.38  -0.06  -0.01     0.06  -0.03   0.02
    11   6    -0.07   0.02   0.01    -0.03  -0.05   0.01     0.05   0.00  -0.05
    12   1     0.01  -0.08   0.02    -0.08  -0.03   0.01     0.24  -0.19  -0.03
    13   1    -0.14   0.05   0.14    -0.18  -0.14  -0.02    -0.04   0.09   0.20
    14   6    -0.07  -0.02  -0.01    -0.03   0.05  -0.01    -0.05   0.00  -0.05
    15   1    -0.14  -0.05  -0.14    -0.18   0.14   0.02     0.04   0.09   0.20
    16   1     0.01   0.08  -0.02    -0.08   0.03  -0.01    -0.24  -0.19  -0.03
    17   6    -0.04   0.14  -0.07    -0.06   0.08  -0.00     0.04   0.13  -0.10
    18   1    -0.01   0.43  -0.04    -0.11  -0.01  -0.00     0.20   0.27  -0.10
    19   1    -0.06   0.05   0.18    -0.09   0.13  -0.08     0.04   0.05   0.12
    20   6    -0.04  -0.14   0.07    -0.06  -0.08   0.00    -0.04   0.13  -0.10
    21   1    -0.01  -0.43   0.04    -0.11   0.01   0.00    -0.20   0.27  -0.10
    22   1    -0.06  -0.05  -0.18    -0.09  -0.13   0.08    -0.04   0.05   0.12
    23   6     0.04  -0.06   0.22     0.00  -0.07  -0.04     0.11   0.03   0.03
    24   6     0.09   0.00  -0.00     0.08  -0.00  -0.00     0.00  -0.01   0.05
    25   6     0.05  -0.04  -0.10     0.00  -0.05   0.01     0.12  -0.09   0.08
    26   6     0.04   0.06  -0.22     0.00   0.07   0.04    -0.11   0.03   0.03
    27   1     0.09   0.00  -0.00     0.08  -0.00  -0.00    -0.00  -0.18  -0.08
    28   6     0.02  -0.00  -0.00    -0.06  -0.00   0.00    -0.00  -0.04  -0.08
    29   1     0.11  -0.02  -0.32     0.07  -0.00   0.05     0.11  -0.10   0.03
    30   6     0.05   0.04   0.10     0.00   0.05  -0.01    -0.12  -0.09   0.08
    31   1     0.02  -0.00  -0.00    -0.06   0.00  -0.00    -0.00   0.12  -0.26
    32   1     0.11   0.02   0.32     0.07   0.00  -0.05    -0.11  -0.10   0.03
                     19                     20                     21
                      A                      A                      A
 Frequencies --    631.6162               641.3534               688.0981
 Red. masses --      3.7216                 5.0771                 2.7956
 Frc consts  --      0.8748                 1.2304                 0.7799
 IR Inten    --      3.7495                 2.4502                 2.2511
  Atom  AN      X      Y      Z        X      Y      Z        X      Y      Z
     1   6    -0.01   0.09   0.14    -0.06   0.19   0.13     0.07  -0.08  -0.04
     2   6     0.03   0.12  -0.07     0.04   0.22  -0.12    -0.07  -0.08  -0.00
     3   6     0.08   0.02  -0.07    -0.07   0.00  -0.07     0.03  -0.00  -0.00
     4   6    -0.01  -0.09  -0.14    -0.06  -0.19  -0.13    -0.07  -0.08  -0.04
     5   6     0.03  -0.12   0.07     0.04  -0.22   0.12     0.07  -0.08  -0.00
     6   6     0.08  -0.02   0.07    -0.07  -0.00   0.07    -0.03  -0.00  -0.00
     7   1    -0.23  -0.01   0.17     0.05   0.13   0.16     0.20  -0.11  -0.02
     8   1    -0.17   0.05  -0.12     0.30   0.16  -0.16    -0.21  -0.10  -0.02
     9   1    -0.23   0.01  -0.17     0.05  -0.13  -0.16    -0.20  -0.11  -0.02
    10   1    -0.17  -0.05   0.12     0.30  -0.16   0.16     0.21  -0.10  -0.02
    11   6    -0.04   0.04   0.05     0.02  -0.03  -0.07     0.05   0.15   0.06
    12   1    -0.21   0.22   0.03     0.13  -0.09  -0.07    -0.05   0.23   0.05
    13   1     0.04  -0.05  -0.20    -0.05  -0.01   0.04     0.08   0.10  -0.06
    14   6    -0.04  -0.04  -0.05     0.02   0.03   0.07    -0.05   0.15   0.06
    15   1     0.04   0.05   0.20    -0.05   0.01  -0.04    -0.08   0.10  -0.06
    16   1    -0.21  -0.22  -0.03     0.13   0.09   0.07     0.05   0.23   0.05
    17   6    -0.02  -0.12   0.05     0.04   0.10  -0.07     0.08   0.03   0.03
    18   1    -0.17  -0.08   0.07     0.19   0.06  -0.09    -0.09  -0.21   0.02
    19   1     0.07  -0.15  -0.02    -0.04   0.13  -0.00     0.20   0.07  -0.25
    20   6    -0.02   0.12  -0.05     0.04  -0.10   0.07    -0.08   0.03   0.03
    21   1    -0.17   0.08  -0.07     0.19  -0.06   0.09     0.09  -0.21   0.02
    22   1     0.07   0.15   0.02    -0.04  -0.13   0.00    -0.20   0.07  -0.25
    23   6    -0.00   0.09   0.15    -0.00  -0.07  -0.13     0.01  -0.01   0.06
    24   6    -0.07  -0.00   0.00     0.05   0.00  -0.00    -0.00  -0.02  -0.06
    25   6     0.01   0.05  -0.03    -0.01  -0.04   0.02     0.03  -0.01  -0.08
    26   6    -0.00  -0.09  -0.15    -0.00   0.07   0.13    -0.01  -0.01   0.06
    27   1    -0.06  -0.00   0.00     0.04   0.00  -0.00    -0.00  -0.05  -0.22
    28   6     0.10  -0.00  -0.00    -0.08  -0.00   0.00     0.00   0.02   0.09
    29   1    -0.08  -0.00  -0.18     0.06   0.01   0.16     0.05   0.00  -0.20
    30   6     0.01  -0.05   0.03    -0.01   0.04  -0.02    -0.03  -0.01  -0.08
    31   1     0.10   0.00  -0.00    -0.08  -0.00   0.00     0.00   0.06   0.11
    32   1    -0.08   0.00   0.18     0.06  -0.01  -0.16    -0.05   0.00  -0.20
                     22                     23                     24
                      A                      A                      A
 Frequencies --    701.9670               718.6512               724.5739
 Red. masses --      2.1038                 5.0489                 3.2511
 Frc consts  --      0.6108                 1.5363                 1.0056
 IR Inten    --      3.5502                 0.6265                20.3569
  Atom  AN      X      Y      Z        X      Y      Z        X      Y      Z
     1   6     0.00  -0.04  -0.02     0.00   0.01  -0.06     0.13   0.08  -0.02
     2   6     0.01  -0.05  -0.01     0.00   0.00  -0.05    -0.11   0.07   0.00
     3   6    -0.01   0.01   0.00     0.02  -0.06  -0.00     0.20  -0.09  -0.01
     4   6    -0.00  -0.04  -0.02     0.00  -0.01   0.06    -0.13   0.08  -0.02
     5   6    -0.01  -0.05  -0.01     0.00  -0.00   0.05     0.11   0.07   0.00
     6   6     0.01   0.01   0.00     0.02   0.06   0.00    -0.20  -0.09  -0.01
     7   1    -0.08  -0.09  -0.01    -0.04  -0.05  -0.04     0.09   0.13  -0.04
     8   1    -0.15  -0.06  -0.02    -0.03   0.07   0.00    -0.32   0.16   0.06
     9   1     0.08  -0.09  -0.01    -0.04   0.05   0.04    -0.09   0.13  -0.04
    10   1     0.15  -0.06  -0.02    -0.03  -0.07  -0.00     0.32   0.16   0.06
    11   6     0.01   0.09   0.04    -0.07   0.03   0.00     0.02  -0.09   0.01
    12   1    -0.03   0.12   0.03     0.06  -0.15   0.03    -0.12   0.09  -0.01
    13   1     0.03   0.07  -0.01    -0.23   0.07   0.22    -0.08  -0.25  -0.19
    14   6    -0.01   0.09   0.04    -0.07  -0.03  -0.00    -0.02  -0.09   0.01
    15   1    -0.03   0.07  -0.01    -0.23  -0.07  -0.22     0.08  -0.25  -0.19
    16   1     0.03   0.12   0.03     0.06   0.15  -0.03     0.12   0.09  -0.01
    17   6     0.03   0.01  -0.00     0.01   0.14  -0.08    -0.03   0.01   0.04
    18   1    -0.07  -0.01   0.01     0.05   0.09  -0.09    -0.14  -0.08   0.04
    19   1     0.11  -0.02  -0.09    -0.01   0.14  -0.06    -0.06   0.07  -0.08
    20   6    -0.03   0.01  -0.00     0.01  -0.14   0.08     0.03   0.01   0.04
    21   1     0.07  -0.01   0.01     0.05  -0.09   0.09     0.14  -0.08   0.04
    22   1    -0.11  -0.02  -0.09    -0.01  -0.14   0.06     0.06   0.07  -0.08
    23   6    -0.02  -0.03  -0.11    -0.04   0.07  -0.09     0.02   0.03  -0.03
    24   6     0.00  -0.02   0.05    -0.24  -0.00   0.00     0.00   0.02  -0.00
    25   6    -0.02   0.02   0.09     0.04   0.17  -0.01     0.02  -0.02   0.01
    26   6     0.02  -0.03  -0.11    -0.04  -0.07   0.09    -0.02   0.03  -0.03
    27   1     0.00   0.05   0.58    -0.23  -0.00   0.00     0.00  -0.06   0.21
    28   6    -0.00   0.00  -0.14     0.37  -0.00  -0.00    -0.00  -0.02  -0.04
    29   1     0.00   0.05   0.44    -0.14   0.05   0.10     0.00  -0.02   0.18
    30   6     0.02   0.02   0.09     0.04  -0.17   0.01    -0.02  -0.02   0.01
    31   1     0.00  -0.02   0.05     0.37  -0.00  -0.00    -0.00   0.03   0.11
    32   1    -0.00   0.05   0.44    -0.14  -0.05  -0.10    -0.00  -0.02   0.18
                     25                     26                     27
                      A                      A                      A
 Frequencies --    778.4472               785.0157               799.1375
 Red. masses --      1.4039                 1.8150                 2.6033
 Frc consts  --      0.5012                 0.6590                 0.9795
 IR Inten    --      8.8464                14.8036                 0.1650
  Atom  AN      X      Y      Z        X      Y      Z        X      Y      Z
     1   6    -0.06  -0.03   0.01    -0.01   0.00   0.01     0.03   0.01   0.13
     2   6    -0.08   0.02   0.03     0.03  -0.00  -0.01     0.04  -0.02   0.14
     3   6     0.03  -0.00  -0.05    -0.07   0.02   0.01     0.04   0.06   0.01
     4   6     0.06  -0.03   0.01     0.01   0.00   0.01     0.03  -0.01  -0.13
     5   6     0.08   0.02   0.03    -0.03  -0.00  -0.01     0.04   0.02  -0.14
     6   6    -0.03  -0.00  -0.05     0.07   0.02   0.01     0.04  -0.06  -0.01
     7   1     0.49   0.10  -0.01    -0.14  -0.03   0.02    -0.17   0.11   0.08
     8   1     0.41  -0.06  -0.02     0.05  -0.01  -0.01    -0.11  -0.08   0.10
     9   1    -0.49   0.10  -0.01     0.14  -0.03   0.02    -0.17  -0.11  -0.08
    10   1    -0.41  -0.06  -0.02    -0.05  -0.01  -0.01    -0.11   0.08  -0.10
    11   6    -0.01   0.02  -0.01     0.05  -0.05  -0.03    -0.03  -0.04  -0.07
    12   1    -0.02  -0.06   0.01     0.02  -0.00  -0.03     0.17  -0.22  -0.05
    13   1    -0.01   0.05   0.05     0.09  -0.04  -0.06    -0.05   0.06   0.15
    14   6     0.01   0.02  -0.01    -0.05  -0.05  -0.03    -0.03   0.04   0.07
    15   1     0.01   0.05   0.05    -0.09  -0.04  -0.06    -0.05  -0.06  -0.15
    16   1     0.02  -0.06   0.01    -0.02  -0.00  -0.03     0.17   0.22   0.05
    17   6    -0.01  -0.00   0.01     0.01   0.00   0.04    -0.10  -0.06  -0.04
    18   1    -0.02  -0.02   0.01     0.01  -0.16   0.02     0.19   0.19  -0.04
    19   1     0.01  -0.00  -0.02    -0.03   0.08  -0.10    -0.20  -0.13   0.32
    20   6     0.01  -0.00   0.01    -0.01   0.00   0.04    -0.10   0.06   0.04
    21   1     0.02  -0.02   0.01    -0.01  -0.16   0.02     0.19  -0.19   0.04
    22   1    -0.01  -0.00  -0.02     0.03   0.08  -0.10    -0.20   0.13  -0.32
    23   6    -0.01  -0.01  -0.01     0.03   0.05   0.06    -0.01   0.01  -0.05
    24   6     0.00  -0.01   0.03    -0.00   0.04  -0.06     0.01   0.00  -0.00
    25   6    -0.01   0.01  -0.01     0.06  -0.04  -0.08     0.01   0.00  -0.01
    26   6     0.01  -0.01  -0.01    -0.03   0.05   0.06    -0.01  -0.01   0.05
    27   1    -0.00  -0.00  -0.02     0.00   0.01   0.10     0.02   0.00  -0.00
    28   6    -0.00  -0.00  -0.03    -0.00  -0.01  -0.05     0.05  -0.00  -0.00
    29   1    -0.01   0.02   0.17     0.04  -0.02   0.42    -0.01  -0.01   0.08
    30   6     0.01   0.01  -0.01    -0.06  -0.04  -0.08     0.01  -0.00   0.01
    31   1     0.00  -0.02   0.20     0.00   0.13   0.61     0.05   0.00   0.00
    32   1     0.01   0.02   0.17    -0.04  -0.02   0.42    -0.01   0.01  -0.08
                     28                     29                     30
                      A                      A                      A
 Frequencies --    812.9586               821.0310               866.7539
 Red. masses --      1.6433                 1.7006                 1.6831
 Frc consts  --      0.6399                 0.6754                 0.7450
 IR Inten    --     25.9373                 8.7563                 0.6906
  Atom  AN      X      Y      Z        X      Y      Z        X      Y      Z
     1   6    -0.05  -0.01   0.08     0.04   0.01  -0.01     0.00   0.01   0.01
     2   6    -0.06  -0.02   0.07     0.02  -0.01   0.01    -0.00  -0.01   0.02
     3   6     0.06  -0.01  -0.00     0.05  -0.02   0.02     0.03  -0.01  -0.01
     4   6    -0.05   0.01  -0.08    -0.04   0.01  -0.01    -0.00   0.01   0.01
     5   6    -0.06   0.02  -0.07    -0.02  -0.01   0.01     0.00  -0.01   0.02
     6   6     0.06   0.01   0.00    -0.05  -0.02   0.02    -0.03  -0.01  -0.01
     7   1     0.42   0.11   0.06    -0.07  -0.01  -0.01     0.02   0.04   0.00
     8   1     0.40  -0.15  -0.01    -0.23   0.04   0.04    -0.04  -0.00   0.02
     9   1     0.42  -0.11  -0.06     0.07  -0.01  -0.01    -0.02   0.04   0.00
    10   1     0.40   0.15   0.01     0.23   0.04   0.04     0.04  -0.00   0.02
    11   6     0.02  -0.04   0.01    -0.06   0.05  -0.01    -0.03   0.02  -0.05
    12   1    -0.10   0.08  -0.00     0.10  -0.11   0.01     0.09  -0.18  -0.02
    13   1    -0.05  -0.15  -0.12    -0.14   0.10   0.18    -0.09   0.11   0.17
    14   6     0.02   0.04  -0.01     0.06   0.05  -0.01     0.03   0.02  -0.05
    15   1    -0.05   0.15   0.12     0.14   0.10   0.18     0.09   0.11   0.17
    16   1    -0.10  -0.08   0.00    -0.10  -0.11   0.01    -0.09  -0.18  -0.02
    17   6    -0.02   0.04   0.02    -0.02   0.01  -0.05    -0.01   0.02  -0.00
    18   1    -0.12  -0.03   0.02     0.14   0.13  -0.06     0.11  -0.07  -0.02
    19   1    -0.03   0.09  -0.09    -0.02  -0.06   0.13    -0.04   0.04  -0.00
    20   6    -0.02  -0.04  -0.02     0.02   0.01  -0.05     0.01   0.02  -0.00
    21   1    -0.12   0.03  -0.02    -0.14   0.13  -0.06    -0.11  -0.07  -0.02
    22   1    -0.03  -0.09   0.09     0.02  -0.06   0.13     0.04   0.04  -0.00
    23   6    -0.01  -0.01   0.01    -0.02  -0.05   0.05    -0.01  -0.02   0.08
    24   6    -0.03  -0.00   0.00     0.00  -0.05   0.05    -0.00  -0.05  -0.18
    25   6     0.00   0.01   0.00    -0.06   0.03  -0.05    -0.02   0.02  -0.01
    26   6    -0.01   0.01  -0.01     0.02  -0.05   0.05     0.01  -0.02   0.08
    27   1    -0.03  -0.00  -0.00    -0.00  -0.05  -0.42     0.00   0.02   0.83
    28   6     0.04  -0.00  -0.00    -0.00   0.00  -0.05     0.00   0.00   0.03
    29   1    -0.01   0.00  -0.04    -0.04   0.05   0.25    -0.02   0.02  -0.03
    30   6     0.00  -0.01  -0.00     0.06   0.03  -0.05     0.02   0.02  -0.01
    31   1     0.04  -0.00  -0.00     0.00  -0.10   0.46    -0.00  -0.07  -0.11
    32   1    -0.01  -0.00   0.04     0.04   0.05   0.25     0.02   0.02  -0.03
                     31                     32                     33
                      A                      A                      A
 Frequencies --    903.4711               908.0720               913.5260
 Red. masses --      2.7560                 1.9199                 1.8564
 Frc consts  --      1.3254                 0.9327                 0.9128
 IR Inten    --      3.4827                15.5590                 3.6078
  Atom  AN      X      Y      Z        X      Y      Z        X      Y      Z
     1   6     0.01   0.03   0.03    -0.05  -0.01  -0.05     0.03   0.00   0.05
     2   6    -0.02   0.05  -0.03    -0.05   0.02  -0.04     0.03  -0.03   0.04
     3   6    -0.04  -0.04  -0.00     0.07  -0.03  -0.01    -0.04   0.01   0.00
     4   6    -0.01   0.03   0.03    -0.05   0.01   0.05     0.03  -0.00  -0.05
     5   6     0.02   0.05  -0.03    -0.05  -0.02   0.04     0.03   0.03  -0.04
     6   6     0.04  -0.04  -0.00     0.07   0.03   0.01    -0.04  -0.01  -0.00
     7   1    -0.20   0.02   0.03     0.20  -0.00  -0.04    -0.09   0.00   0.05
     8   1     0.23   0.05  -0.03     0.22   0.02  -0.04    -0.13  -0.05   0.03
     9   1     0.20   0.02   0.03     0.20   0.00   0.04    -0.09  -0.00  -0.05
    10   1    -0.23   0.05  -0.03     0.22  -0.02   0.04    -0.13   0.05  -0.03
    11   6    -0.12  -0.06   0.06    -0.02   0.09   0.01    -0.04  -0.07   0.04
    12   1    -0.23  -0.04   0.07     0.10   0.00   0.02    -0.17   0.03   0.03
    13   1    -0.26  -0.15   0.02    -0.04   0.14   0.11    -0.05  -0.13  -0.08
    14   6     0.12  -0.06   0.06    -0.02  -0.09  -0.01    -0.04   0.07  -0.04
    15   1     0.26  -0.15   0.02    -0.04  -0.14  -0.11    -0.05   0.13   0.08
    16   1     0.23  -0.04   0.07     0.10  -0.00  -0.02    -0.17  -0.03  -0.03
    17   6     0.17   0.09  -0.05    -0.04  -0.07  -0.02     0.09   0.03  -0.02
    18   1    -0.00  -0.12  -0.05     0.10   0.11  -0.02    -0.06  -0.03  -0.01
    19   1     0.23   0.13  -0.26     0.05  -0.20   0.16     0.08   0.07  -0.11
    20   6    -0.17   0.09  -0.05    -0.04   0.07   0.02     0.09  -0.03   0.02
    21   1     0.00  -0.12  -0.05     0.10  -0.11   0.02    -0.06   0.03   0.01
    22   1    -0.23   0.13  -0.26     0.05   0.20  -0.16     0.08  -0.07   0.11
    23   6    -0.02  -0.06   0.01     0.01   0.03   0.00     0.01   0.00   0.03
    24   6    -0.00  -0.07   0.01     0.03  -0.00  -0.00    -0.02   0.00   0.00
    25   6     0.01   0.01  -0.01     0.01  -0.03  -0.08    -0.01   0.01  -0.10
    26   6     0.02  -0.06   0.01     0.01  -0.03  -0.00     0.01  -0.00  -0.03
    27   1    -0.00  -0.06  -0.03     0.03  -0.00  -0.00    -0.01  -0.00  -0.00
    28   6    -0.00   0.03  -0.01    -0.01  -0.00  -0.00    -0.03   0.00  -0.00
    29   1     0.10   0.06   0.00     0.01  -0.00   0.49     0.00   0.05   0.59
    30   6    -0.01   0.01  -0.01     0.01   0.03   0.08    -0.01  -0.01   0.10
    31   1    -0.00   0.04   0.05    -0.01   0.00   0.00    -0.03   0.00   0.00
    32   1    -0.10   0.06   0.00     0.01   0.00  -0.49     0.00  -0.05  -0.59
                     34                     35                     36
                      A                      A                      A
 Frequencies --    925.3117               951.6770               960.5646
 Red. masses --      2.6185                 1.4557                 1.3755
 Frc consts  --      1.3209                 0.7768                 0.7478
 IR Inten    --      1.7211                 6.2721                 0.0375
  Atom  AN      X      Y      Z        X      Y      Z        X      Y      Z
     1   6     0.00  -0.01  -0.04     0.08  -0.00   0.02    -0.09  -0.01   0.01
     2   6     0.02   0.02  -0.05    -0.08   0.00  -0.02     0.09  -0.01  -0.01
     3   6    -0.04   0.04   0.01     0.02  -0.01  -0.00     0.00  -0.00   0.01
     4   6     0.00   0.01   0.04    -0.08  -0.00   0.02    -0.09   0.01  -0.01
     5   6     0.02  -0.02   0.05     0.08   0.00  -0.02     0.09   0.01   0.01
     6   6    -0.04  -0.04  -0.01    -0.02  -0.01  -0.00     0.00   0.00  -0.01
     7   1    -0.04  -0.04  -0.03    -0.44  -0.15   0.05     0.49   0.08   0.00
     8   1    -0.14   0.04  -0.05     0.46  -0.13  -0.10    -0.48   0.06   0.02
     9   1    -0.04   0.04   0.03     0.44  -0.15   0.05     0.49  -0.08  -0.00
    10   1    -0.14  -0.04   0.05    -0.46  -0.13  -0.10    -0.48  -0.06  -0.02
    11   6     0.17  -0.03  -0.02     0.04   0.04  -0.00    -0.01   0.00   0.01
    12   1     0.08   0.21  -0.06     0.06   0.07  -0.01     0.01   0.01   0.00
    13   1     0.25  -0.09  -0.22     0.01   0.02  -0.00    -0.02  -0.00   0.00
    14   6     0.17   0.03   0.02    -0.04   0.04  -0.00    -0.01  -0.00  -0.01
    15   1     0.25   0.09   0.22    -0.01   0.02  -0.00    -0.02   0.00  -0.00
    16   1     0.08  -0.21   0.06    -0.06   0.07  -0.01     0.01  -0.01  -0.00
    17   6    -0.14   0.04   0.05    -0.05   0.00   0.00     0.00  -0.01  -0.01
    18   1    -0.20   0.12   0.06    -0.01   0.06   0.00     0.03   0.02  -0.01
    19   1    -0.24   0.09   0.07    -0.03  -0.02   0.05     0.01  -0.02   0.03
    20   6    -0.14  -0.04  -0.05     0.05   0.00   0.00     0.00   0.01   0.01
    21   1    -0.20  -0.12  -0.06     0.01   0.06   0.00     0.03  -0.02   0.01
    22   1    -0.24  -0.09  -0.07     0.03  -0.02   0.05     0.01   0.02  -0.03
    23   6    -0.03  -0.05   0.02     0.00  -0.01   0.01     0.00   0.00  -0.01
    24   6    -0.02  -0.00   0.00    -0.00  -0.02  -0.00     0.00  -0.00  -0.00
    25   6     0.01  -0.00  -0.06    -0.02   0.01  -0.00     0.00  -0.00   0.01
    26   6    -0.03   0.05  -0.02    -0.00  -0.01   0.01     0.00  -0.00   0.01
    27   1    -0.02  -0.00  -0.00    -0.00   0.02   0.01     0.00   0.00   0.00
    28   6     0.09  -0.00  -0.00    -0.00  -0.01   0.00    -0.00  -0.00   0.00
    29   1    -0.01   0.00   0.30    -0.03   0.00   0.01     0.00  -0.00  -0.03
    30   6     0.01   0.00   0.06     0.02   0.01  -0.00     0.00   0.00  -0.01
    31   1     0.10  -0.00   0.00    -0.00  -0.06  -0.00    -0.00  -0.00  -0.00
    32   1    -0.01  -0.00  -0.30     0.03   0.00   0.01     0.00   0.00   0.03
                     37                     38                     39
                      A                      A                      A
 Frequencies --    970.0559               998.4064              1008.3986
 Red. masses --      1.2797                 2.9361                 2.1056
 Frc consts  --      0.7095                 1.7244                 1.2615
 IR Inten    --      0.1391                 0.6328                 3.6496
  Atom  AN      X      Y      Z        X      Y      Z        X      Y      Z
     1   6    -0.00  -0.00  -0.00     0.03   0.02   0.00    -0.03  -0.02  -0.03
     2   6    -0.00   0.00  -0.00    -0.01  -0.01   0.03    -0.02   0.03  -0.05
     3   6     0.00   0.00   0.00     0.06  -0.03  -0.01    -0.00   0.00   0.03
     4   6     0.00  -0.00  -0.00    -0.03   0.02   0.00     0.03  -0.02  -0.03
     5   6     0.00   0.00  -0.00     0.01  -0.01   0.03     0.02   0.03  -0.05
     6   6    -0.00   0.00   0.00    -0.06  -0.03  -0.01     0.00   0.00   0.03
     7   1     0.01  -0.00  -0.00    -0.16   0.03  -0.01     0.12  -0.07  -0.01
     8   1     0.01  -0.00  -0.00     0.09  -0.01   0.04     0.04   0.04  -0.04
     9   1    -0.01  -0.00  -0.00     0.16   0.03  -0.01    -0.12  -0.07  -0.01
    10   1    -0.01  -0.00  -0.00    -0.09  -0.01   0.04    -0.04   0.04  -0.04
    11   6    -0.00   0.00   0.01    -0.11   0.06  -0.02    -0.01  -0.00   0.12
    12   1    -0.00   0.02   0.00    -0.00  -0.22   0.03     0.04   0.33   0.05
    13   1     0.00  -0.01  -0.01    -0.01   0.22   0.19    -0.07  -0.18  -0.16
    14   6     0.00   0.00   0.01     0.11   0.06  -0.02     0.01  -0.00   0.12
    15   1    -0.00  -0.01  -0.01     0.01   0.22   0.19     0.07  -0.18  -0.16
    16   1     0.00   0.02   0.00     0.00  -0.22   0.03    -0.04   0.33   0.05
    17   6    -0.00  -0.01  -0.01     0.08  -0.15   0.01     0.01  -0.06  -0.12
    18   1     0.00   0.02  -0.00     0.19  -0.15  -0.00     0.15   0.25  -0.09
    19   1    -0.00  -0.02   0.02     0.16  -0.21   0.04     0.02  -0.20   0.23
    20   6     0.00  -0.01  -0.01    -0.08  -0.15   0.01    -0.01  -0.06  -0.12
    21   1    -0.00   0.02  -0.00    -0.19  -0.15  -0.00    -0.15   0.25  -0.09
    22   1     0.00  -0.02   0.02    -0.16  -0.21   0.04    -0.02  -0.20   0.23
    23   6     0.00   0.00   0.01     0.00   0.08  -0.04     0.01   0.03   0.07
    24   6    -0.00   0.00  -0.03    -0.00   0.17   0.01     0.00   0.04  -0.06
    25   6     0.00   0.00   0.07     0.08  -0.05   0.01     0.01  -0.01  -0.02
    26   6    -0.00   0.00   0.01    -0.00   0.08  -0.04    -0.01   0.03   0.07
    27   1     0.00   0.02   0.09    -0.00   0.28  -0.07     0.00   0.11   0.27
    28   6    -0.00  -0.01  -0.11    -0.00   0.02   0.00     0.00   0.00   0.01
    29   1    -0.00  -0.03  -0.47     0.04  -0.08   0.00    -0.02  -0.02   0.11
    30   6    -0.00   0.00   0.07    -0.08  -0.05   0.01    -0.01  -0.01  -0.02
    31   1     0.00   0.03   0.72    -0.00   0.33  -0.05    -0.00   0.06  -0.05
    32   1     0.00  -0.03  -0.47    -0.04  -0.08   0.00     0.02  -0.02   0.11
                     40                     41                     42
                      A                      A                      A
 Frequencies --   1016.7649              1027.3303              1032.6415
 Red. masses --      2.0015                 2.7949                 5.9191
 Frc consts  --      1.2191                 1.7379                 3.7188
 IR Inten    --      3.1862                 0.5622                 0.0047
  Atom  AN      X      Y      Z        X      Y      Z        X      Y      Z
     1   6     0.02  -0.02   0.01    -0.01   0.01   0.20    -0.01   0.01  -0.01
     2   6    -0.02  -0.01  -0.03     0.01   0.04  -0.18    -0.01   0.00   0.00
     3   6    -0.01   0.01   0.02     0.02  -0.04  -0.01    -0.00  -0.01  -0.01
     4   6     0.02   0.02  -0.01     0.01   0.01   0.20    -0.01  -0.01   0.01
     5   6    -0.02   0.01   0.03    -0.01   0.04  -0.18    -0.01  -0.00  -0.00
     6   6    -0.01  -0.01  -0.02    -0.02  -0.04  -0.01    -0.00   0.01   0.01
     7   1    -0.03  -0.10   0.04     0.20  -0.21   0.30     0.03   0.03  -0.01
     8   1     0.02  -0.09  -0.09    -0.23  -0.20  -0.37     0.02   0.02   0.02
     9   1    -0.03   0.10  -0.04    -0.20  -0.21   0.30     0.03  -0.03   0.01
    10   1     0.02   0.09   0.09     0.23  -0.20  -0.37     0.02  -0.02  -0.02
    11   6     0.01  -0.02   0.14     0.00   0.02  -0.02     0.00   0.02  -0.03
    12   1    -0.01   0.37   0.06     0.05  -0.03  -0.01     0.01  -0.07  -0.01
    13   1    -0.06  -0.23  -0.21     0.02   0.07   0.04     0.06   0.09   0.04
    14   6     0.01   0.02  -0.14    -0.00   0.02  -0.02     0.00  -0.02   0.03
    15   1    -0.06   0.23   0.21    -0.02   0.07   0.04     0.06  -0.09  -0.04
    16   1    -0.01  -0.37  -0.06    -0.05  -0.03  -0.01     0.01   0.07   0.01
    17   6    -0.00  -0.02  -0.12    -0.01  -0.01   0.02    -0.01   0.00   0.03
    18   1     0.08   0.30  -0.09     0.01  -0.03   0.01    -0.02  -0.05   0.02
    19   1     0.02  -0.16   0.21     0.02  -0.03   0.00     0.01   0.01  -0.03
    20   6    -0.00   0.02   0.12     0.01  -0.01   0.02    -0.01  -0.00  -0.03
    21   1     0.08  -0.30   0.09    -0.01  -0.03   0.01    -0.02   0.05  -0.02
    22   1     0.02   0.16  -0.21    -0.02  -0.03   0.00     0.01  -0.01   0.03
    23   6    -0.01  -0.01  -0.07     0.00   0.01  -0.01     0.00  -0.04   0.02
    24   6     0.04  -0.00   0.00     0.00   0.02   0.00     0.38   0.00  -0.00
    25   6    -0.01   0.02   0.03     0.00  -0.00   0.00    -0.17   0.34  -0.02
    26   6    -0.01   0.01   0.07    -0.00   0.01  -0.01     0.00   0.04  -0.02
    27   1     0.04  -0.00  -0.00    -0.00   0.01  -0.03     0.37  -0.00  -0.00
    28   6     0.01  -0.00  -0.00    -0.00  -0.00  -0.00     0.00   0.00   0.00
    29   1    -0.02   0.01  -0.12    -0.01  -0.01  -0.01    -0.07   0.42   0.01
    30   6    -0.01  -0.02  -0.03    -0.00  -0.00   0.00    -0.17  -0.34   0.02
    31   1     0.01  -0.00   0.00    -0.00   0.01   0.00    -0.02   0.00  -0.00
    32   1    -0.02  -0.01   0.12     0.01  -0.01  -0.01    -0.07  -0.42  -0.01
                     43                     44                     45
                      A                      A                      A
 Frequencies --   1094.4589              1127.5223              1167.1143
 Red. masses --      1.8408                 1.4056                 1.5816
 Frc consts  --      1.2992                 1.0528                 1.2694
 IR Inten    --      4.2703                 3.3126                 1.3835
  Atom  AN      X      Y      Z        X      Y      Z        X      Y      Z
     1   6    -0.00  -0.01  -0.01     0.01   0.06   0.04    -0.00   0.01  -0.01
     2   6    -0.00   0.01  -0.01     0.01  -0.07   0.03    -0.00  -0.02  -0.00
     3   6     0.01   0.02   0.00     0.01   0.02  -0.05     0.02   0.03   0.01
     4   6    -0.00   0.01   0.01    -0.01   0.06   0.04     0.00   0.01  -0.01
     5   6    -0.00  -0.01   0.01    -0.01  -0.07   0.03     0.00  -0.02  -0.00
     6   6     0.01  -0.02  -0.00    -0.01   0.02  -0.05    -0.02   0.03   0.01
     7   1     0.00  -0.01  -0.01    -0.06   0.42  -0.10     0.02   0.05  -0.02
     8   1     0.00  -0.01  -0.02    -0.05  -0.41  -0.21    -0.02  -0.12  -0.08
     9   1     0.00   0.01   0.01     0.06   0.42  -0.10    -0.02   0.05  -0.02
    10   1     0.00   0.01   0.02     0.05  -0.41  -0.21     0.02  -0.12  -0.08
    11   6     0.00   0.00   0.00    -0.00  -0.01   0.03     0.00  -0.00   0.01
    12   1     0.04   0.03  -0.00    -0.17  -0.00   0.04     0.10   0.06  -0.01
    13   1     0.00  -0.01  -0.01     0.11  -0.00  -0.06    -0.08  -0.05   0.00
    14   6     0.00  -0.00  -0.00     0.00  -0.01   0.03    -0.00  -0.00   0.01
    15   1     0.00   0.01   0.01    -0.11  -0.00  -0.06     0.08  -0.05   0.00
    16   1     0.04  -0.03   0.00     0.17  -0.00   0.04    -0.10   0.06  -0.01
    17   6    -0.02   0.00  -0.01     0.01  -0.00  -0.03    -0.02   0.03   0.00
    18   1     0.00   0.03  -0.01    -0.09   0.12  -0.01     0.03  -0.01  -0.01
    19   1    -0.14   0.05   0.05     0.04  -0.05   0.03    -0.26   0.17   0.04
    20   6    -0.02  -0.00   0.01    -0.01  -0.00  -0.03     0.02   0.03   0.00
    21   1     0.00  -0.03   0.01     0.09   0.12  -0.01    -0.03  -0.01  -0.01
    22   1    -0.14  -0.05  -0.05    -0.04  -0.05   0.03     0.26   0.17   0.04
    23   6     0.05   0.02  -0.00     0.01   0.01   0.02    -0.11  -0.07   0.00
    24   6    -0.13  -0.00   0.00    -0.00  -0.00  -0.01     0.00   0.01   0.00
    25   6     0.08   0.09  -0.00    -0.01   0.00  -0.00     0.04  -0.06   0.00
    26   6     0.05  -0.02   0.00    -0.01   0.01   0.02     0.11  -0.07   0.00
    27   1    -0.12   0.00   0.00    -0.00  -0.05   0.01    -0.00   0.52  -0.04
    28   6    -0.15   0.00   0.00    -0.00  -0.00  -0.00     0.00   0.05  -0.00
    29   1     0.52   0.37  -0.02    -0.02  -0.00   0.02     0.16   0.01  -0.00
    30   6     0.08  -0.09   0.00     0.01   0.00  -0.00    -0.04  -0.06   0.00
    31   1    -0.16   0.00   0.00    -0.00  -0.04   0.01     0.00   0.58  -0.02
    32   1     0.52  -0.37   0.02     0.02  -0.00   0.02    -0.16   0.01  -0.00
                     46                     47                     48
                      A                      A                      A
 Frequencies --   1190.8724              1193.3804              1193.6125
 Red. masses --      1.5989                 1.2776                 1.1970
 Frc consts  --      1.3360                 1.0720                 1.0048
 IR Inten    --      0.0158                 3.2011                 0.8289
  Atom  AN      X      Y      Z        X      Y      Z        X      Y      Z
     1   6    -0.00  -0.02  -0.05     0.01  -0.01   0.04     0.00  -0.01   0.01
     2   6    -0.01   0.03  -0.05     0.00  -0.01   0.01     0.01   0.01   0.01
     3   6     0.05   0.11   0.03    -0.04  -0.05   0.03    -0.01  -0.01  -0.02
     4   6    -0.00   0.02   0.05     0.01   0.01  -0.04    -0.00  -0.01   0.01
     5   6    -0.01  -0.03   0.05     0.00   0.01  -0.01    -0.01   0.01   0.01
     6   6     0.05  -0.11  -0.03    -0.04   0.05  -0.03     0.01  -0.01  -0.02
     7   1    -0.03   0.24  -0.15     0.02  -0.29   0.16    -0.01  -0.06   0.03
     8   1    -0.04  -0.30  -0.30    -0.01   0.06   0.06    -0.01   0.09   0.07
     9   1    -0.03  -0.24   0.15     0.02   0.29  -0.16     0.01  -0.06   0.03
    10   1    -0.04   0.30   0.30    -0.01  -0.06  -0.06     0.01   0.09   0.07
    11   6    -0.03  -0.04   0.00     0.02   0.02   0.01     0.01  -0.00  -0.01
    12   1     0.15   0.02  -0.03     0.37   0.18  -0.05    -0.17  -0.07   0.02
    13   1    -0.21  -0.12   0.02    -0.31  -0.12   0.05     0.07   0.03  -0.01
    14   6    -0.03   0.04  -0.00     0.02  -0.02  -0.01    -0.01  -0.00  -0.01
    15   1    -0.21   0.12  -0.02    -0.31   0.12  -0.05    -0.07   0.03  -0.01
    16   1     0.15  -0.02   0.03     0.37  -0.18   0.05     0.17  -0.07   0.02
    17   6     0.01   0.01   0.02    -0.02   0.02   0.04    -0.01   0.01  -0.01
    18   1     0.14  -0.15  -0.02     0.21  -0.18  -0.01    -0.14   0.11   0.01
    19   1    -0.20   0.14   0.01    -0.04   0.05  -0.03     0.12  -0.07  -0.02
    20   6     0.01  -0.01  -0.02    -0.02  -0.02  -0.04     0.01   0.01  -0.01
    21   1     0.14   0.15   0.02     0.21   0.18   0.01     0.14   0.11   0.01
    22   1    -0.20  -0.14  -0.01    -0.04  -0.05   0.03    -0.12  -0.07  -0.02
    23   6     0.03   0.03   0.02     0.02   0.03   0.03     0.02  -0.02   0.02
    24   6     0.01   0.00   0.00     0.01  -0.00  -0.00    -0.00  -0.02  -0.01
    25   6    -0.02   0.00  -0.00    -0.00   0.00  -0.01    -0.05  -0.02  -0.00
    26   6     0.03  -0.03  -0.02     0.02  -0.03  -0.03    -0.02  -0.02   0.02
    27   1     0.01  -0.00  -0.00     0.01  -0.00   0.00    -0.00  -0.04   0.03
    28   6    -0.01  -0.00   0.00    -0.01   0.00  -0.00     0.00   0.08  -0.01
    29   1    -0.14  -0.07   0.02    -0.05  -0.02   0.02    -0.39  -0.23   0.02
    30   6    -0.02  -0.00   0.00    -0.00  -0.00   0.01     0.05  -0.02  -0.00
    31   1    -0.02  -0.00   0.00    -0.02   0.00  -0.00     0.00   0.59  -0.02
    32   1    -0.14   0.07  -0.02    -0.05   0.02  -0.02     0.39  -0.23   0.02
                     49                     50                     51
                      A                      A                      A
 Frequencies --   1195.4435              1204.2394              1213.1075
 Red. masses --      1.2587                 1.6764                 1.8932
 Frc consts  --      1.0598                 1.4323                 1.6415
 IR Inten    --      3.5725                 4.3229                 0.5241
  Atom  AN      X      Y      Z        X      Y      Z        X      Y      Z
     1   6    -0.01   0.03  -0.01    -0.01  -0.09  -0.02     0.01  -0.01  -0.04
     2   6    -0.01  -0.02  -0.03    -0.01   0.08   0.01    -0.02  -0.02   0.02
     3   6    -0.03  -0.04   0.03     0.04   0.09   0.00     0.06   0.15   0.04
     4   6     0.01   0.03  -0.01    -0.01   0.09   0.02    -0.01  -0.01  -0.04
     5   6     0.01  -0.02  -0.03    -0.01  -0.08  -0.01     0.02  -0.02   0.02
     6   6     0.03  -0.04   0.03     0.04  -0.09  -0.00    -0.06   0.15   0.04
     7   1     0.01   0.27  -0.11     0.07  -0.38   0.09     0.05  -0.32   0.09
     8   1     0.02  -0.07  -0.06     0.07   0.39   0.23    -0.01  -0.29  -0.18
     9   1    -0.01   0.27  -0.11     0.07   0.38  -0.09    -0.05  -0.32   0.09
    10   1    -0.02  -0.07  -0.06     0.07  -0.39  -0.23     0.01  -0.29  -0.18
    11   6     0.01   0.02   0.01    -0.04  -0.04   0.01    -0.05  -0.05   0.00
    12   1     0.34   0.15  -0.05    -0.09  -0.05   0.01     0.03  -0.04  -0.01
    13   1    -0.29  -0.12   0.04     0.09   0.01  -0.02    -0.08  -0.08  -0.01
    14   6    -0.01   0.02   0.01    -0.04   0.04  -0.01     0.05  -0.05   0.00
    15   1     0.29  -0.12   0.04     0.09  -0.01   0.02     0.08  -0.08  -0.01
    16   1    -0.34   0.15  -0.05    -0.09   0.05  -0.01    -0.03  -0.04  -0.01
    17   6    -0.01   0.00   0.04     0.02  -0.00  -0.02     0.04  -0.01   0.00
    18   1     0.20  -0.18  -0.00     0.01  -0.00  -0.01     0.14  -0.14  -0.02
    19   1     0.08  -0.02  -0.05    -0.21   0.13   0.04    -0.19   0.13   0.02
    20   6     0.01   0.00   0.04     0.02   0.00   0.02    -0.04  -0.01   0.00
    21   1    -0.20  -0.18  -0.00     0.01   0.00   0.01    -0.14  -0.14  -0.02
    22   1    -0.08  -0.02  -0.05    -0.21  -0.13  -0.04     0.19   0.13   0.02
    23   6     0.03   0.01  -0.03     0.02   0.01   0.00     0.03   0.03  -0.02
    24   6    -0.00  -0.00   0.01     0.00  -0.00  -0.00     0.00  -0.03   0.01
    25   6    -0.03   0.00   0.00    -0.01   0.00   0.00    -0.02   0.01   0.00
    26   6    -0.03   0.01  -0.03     0.02  -0.01  -0.00    -0.03   0.03  -0.02
    27   1    -0.00  -0.13  -0.02    -0.00   0.00   0.00    -0.00  -0.38   0.00
    28   6     0.00   0.03   0.00    -0.01   0.00   0.00    -0.00   0.01  -0.00
    29   1    -0.22  -0.11  -0.01    -0.12  -0.06   0.00    -0.19  -0.10  -0.00
    30   6     0.03   0.00   0.00    -0.01  -0.00  -0.00     0.02   0.01   0.00
    31   1     0.00   0.14  -0.01    -0.01   0.00   0.00    -0.00   0.09  -0.01
    32   1     0.22  -0.11  -0.01    -0.12   0.06  -0.00     0.19  -0.10  -0.00
                     52                     53                     54
                      A                      A                      A
 Frequencies --   1233.3429              1237.6265              1244.8580
 Red. masses --      1.3821                 1.2165                 2.5742
 Frc consts  --      1.2386                 1.0979                 2.3504
 IR Inten    --      0.2010                 6.8983                 2.4752
  Atom  AN      X      Y      Z        X      Y      Z        X      Y      Z
     1   6    -0.00  -0.04  -0.02    -0.00   0.00   0.01     0.00   0.00  -0.00
     2   6    -0.00   0.04  -0.01    -0.00   0.00  -0.01     0.00  -0.00   0.00
     3   6     0.01   0.07   0.01    -0.01  -0.06  -0.00    -0.02   0.00  -0.02
     4   6    -0.00   0.04   0.02     0.00   0.00   0.01     0.00  -0.00   0.00
     5   6    -0.00  -0.04   0.01     0.00   0.00  -0.01     0.00   0.00  -0.00
     6   6     0.01  -0.07  -0.01     0.01  -0.06  -0.00    -0.02  -0.00   0.02
     7   1    -0.01  -0.07  -0.01    -0.03   0.11  -0.03    -0.03   0.07  -0.03
     8   1    -0.00   0.05  -0.00     0.04   0.10   0.06    -0.01   0.05   0.04
     9   1    -0.01   0.07   0.01     0.03   0.11  -0.03    -0.03  -0.07   0.03
    10   1    -0.00  -0.05   0.00    -0.04   0.10   0.06    -0.01  -0.05  -0.04
    11   6     0.02  -0.03  -0.03    -0.04   0.02   0.03     0.07   0.01  -0.03
    12   1    -0.04  -0.09  -0.02     0.08   0.09   0.01    -0.23  -0.08   0.01
    13   1    -0.37  -0.18   0.07     0.39   0.18  -0.07    -0.23  -0.09   0.06
    14   6     0.02   0.03   0.03     0.04   0.02   0.03     0.07  -0.01   0.03
    15   1    -0.37   0.18  -0.07    -0.39   0.18  -0.07    -0.23   0.09  -0.06
    16   1    -0.04   0.09   0.02    -0.08   0.09   0.01    -0.23   0.08  -0.01
    17   6    -0.02  -0.01   0.02     0.03  -0.01  -0.02    -0.06   0.06  -0.02
    18   1    -0.08   0.01   0.03     0.13  -0.05  -0.04    -0.32   0.24   0.04
    19   1     0.41  -0.25  -0.07    -0.35   0.21   0.06     0.14  -0.06  -0.02
    20   6    -0.02   0.01  -0.02    -0.03  -0.01  -0.02    -0.06  -0.06   0.02
    21   1    -0.08  -0.01  -0.03    -0.13  -0.05  -0.04    -0.32  -0.24  -0.04
    22   1     0.41   0.25   0.07     0.35   0.21   0.06     0.14   0.06   0.02
    23   6    -0.06  -0.03  -0.00    -0.01   0.02  -0.01     0.11   0.19  -0.05
    24   6     0.02   0.00  -0.00     0.00  -0.04   0.01     0.04   0.00  -0.00
    25   6     0.01  -0.01   0.00    -0.00   0.00   0.00     0.01   0.02   0.00
    26   6    -0.06   0.03   0.00     0.01   0.02  -0.01     0.11  -0.19   0.05
    27   1     0.01   0.00  -0.00     0.00  -0.33   0.01     0.04  -0.00  -0.00
    28   6     0.04  -0.00  -0.00     0.00   0.00  -0.00    -0.11   0.00   0.00
    29   1     0.20   0.10  -0.00    -0.06  -0.04   0.00    -0.29  -0.16  -0.01
    30   6     0.01   0.01  -0.00     0.00   0.00   0.00     0.01  -0.02  -0.00
    31   1     0.04  -0.00  -0.00     0.00   0.12  -0.01    -0.12  -0.00   0.00
    32   1     0.20  -0.10   0.00     0.06  -0.04   0.00    -0.29   0.16   0.01
                     55                     56                     57
                      A                      A                      A
 Frequencies --   1320.7986              1322.6834              1342.8411
 Red. masses --      2.1856                 1.2565                 1.4490
 Frc consts  --      2.2464                 1.2951                 1.5395
 IR Inten    --      8.9086                 1.6761                 0.7812
  Atom  AN      X      Y      Z        X      Y      Z        X      Y      Z
     1   6     0.03  -0.10   0.06     0.01  -0.02   0.01    -0.01   0.05  -0.01
     2   6     0.03   0.08   0.07    -0.00  -0.02  -0.01    -0.01  -0.04  -0.02
     3   6    -0.01   0.02  -0.14    -0.01   0.01  -0.07     0.02   0.00   0.04
     4   6    -0.03  -0.10   0.06     0.01   0.02  -0.01     0.01   0.05  -0.01
     5   6    -0.03   0.08   0.07    -0.00   0.02   0.01     0.01  -0.04  -0.02
     6   6     0.01   0.02  -0.14    -0.01  -0.01   0.07    -0.02   0.00   0.04
     7   1    -0.11   0.03  -0.00    -0.05   0.33  -0.14     0.06  -0.04   0.02
     8   1    -0.12  -0.01   0.00     0.03   0.27   0.20     0.04   0.02   0.03
     9   1     0.11   0.03  -0.00    -0.05  -0.33   0.14    -0.06  -0.04   0.02
    10   1     0.12  -0.01   0.00     0.03  -0.27  -0.20    -0.04   0.02   0.03
    11   6     0.05   0.01   0.05     0.04   0.01   0.04    -0.02  -0.03   0.02
    12   1    -0.24   0.06   0.06    -0.20   0.02   0.05    -0.11  -0.02   0.02
    13   1    -0.13  -0.10   0.01    -0.11  -0.08   0.01     0.27   0.08  -0.05
    14   6    -0.05   0.01   0.05     0.04  -0.01  -0.04     0.02  -0.03   0.02
    15   1     0.13  -0.10   0.01    -0.11   0.08  -0.01    -0.27   0.08  -0.05
    16   1     0.24   0.06   0.06    -0.20  -0.02  -0.05     0.11  -0.02   0.02
    17   6    -0.04   0.01  -0.01    -0.03   0.01  -0.01    -0.03   0.04  -0.01
    18   1     0.49  -0.25  -0.10     0.38  -0.18  -0.08     0.27  -0.16  -0.06
    19   1    -0.08   0.02   0.02    -0.04   0.01   0.00     0.06  -0.00  -0.04
    20   6     0.04   0.01  -0.01    -0.03  -0.01   0.01     0.03   0.04  -0.01
    21   1    -0.49  -0.25  -0.10     0.38   0.18   0.08    -0.27  -0.16  -0.06
    22   1     0.08   0.02   0.02    -0.04  -0.01  -0.00    -0.06  -0.00  -0.04
    23   6     0.01  -0.01  -0.02    -0.00   0.00   0.02     0.07  -0.05  -0.01
    24   6     0.00   0.00   0.00     0.00  -0.00  -0.00     0.00   0.01   0.00
    25   6     0.00   0.01   0.00    -0.00  -0.00  -0.00     0.00   0.00   0.00
    26   6    -0.01  -0.01  -0.02    -0.00  -0.00  -0.02    -0.07  -0.05  -0.01
    27   1    -0.00   0.06  -0.04     0.00  -0.00   0.00    -0.00   0.61  -0.04
    28   6     0.00  -0.00   0.00     0.01   0.00  -0.00     0.00   0.05  -0.00
    29   1    -0.04  -0.02  -0.01     0.02   0.01   0.01    -0.17  -0.10  -0.00
    30   6    -0.00   0.01   0.00    -0.00   0.00   0.00    -0.00   0.00   0.00
    31   1     0.00  -0.04  -0.01     0.01   0.00   0.00     0.00  -0.30   0.01
    32   1     0.04  -0.02  -0.01     0.02  -0.01  -0.01     0.17  -0.10  -0.00
                     58                     59                     60
                      A                      A                      A
 Frequencies --   1347.9094              1353.5631              1356.7746
 Red. masses --      2.6358                 1.7248                 1.1904
 Frc consts  --      2.8215                 1.8618                 1.2910
 IR Inten    --      0.1062                 3.7452                 1.1570
  Atom  AN      X      Y      Z        X      Y      Z        X      Y      Z
     1   6    -0.00   0.02  -0.00     0.02  -0.09   0.01     0.00  -0.03   0.02
     2   6    -0.00  -0.01  -0.00     0.02   0.07   0.04    -0.00  -0.02  -0.02
     3   6    -0.00  -0.00   0.01     0.02   0.02  -0.05     0.00   0.01  -0.05
     4   6     0.00   0.02  -0.00    -0.02  -0.09   0.01     0.00   0.03  -0.02
     5   6     0.00  -0.01  -0.00    -0.02   0.07   0.04    -0.00   0.02   0.02
     6   6     0.00  -0.00   0.01    -0.02   0.02  -0.05     0.00  -0.01   0.05
     7   1     0.01  -0.04   0.02    -0.08   0.06  -0.05    -0.04   0.28  -0.10
     8   1     0.02   0.00   0.01    -0.07  -0.08  -0.08     0.04   0.23   0.16
     9   1    -0.01  -0.04   0.02     0.08   0.06  -0.05    -0.04  -0.28   0.10
    10   1    -0.02   0.00   0.01     0.07  -0.08  -0.08     0.04  -0.23  -0.16
    11   6    -0.00  -0.01   0.01    -0.08  -0.04   0.00    -0.04  -0.01   0.00
    12   1    -0.06  -0.00   0.01     0.50   0.13  -0.09     0.42   0.10  -0.07
    13   1     0.09   0.02  -0.02     0.18   0.03  -0.11    -0.05  -0.04  -0.05
    14   6     0.00  -0.01   0.01     0.08  -0.04   0.00    -0.04   0.01  -0.00
    15   1    -0.09   0.02  -0.02    -0.18   0.03  -0.11    -0.05   0.04   0.05
    16   1     0.06  -0.00   0.01    -0.50   0.13  -0.09     0.42  -0.10   0.07
    17   6    -0.02   0.02  -0.00     0.03   0.02   0.02     0.04  -0.02   0.01
    18   1     0.13  -0.07  -0.03    -0.25   0.05   0.05    -0.31   0.13   0.07
    19   1     0.04  -0.01  -0.04     0.07  -0.00  -0.01    -0.01   0.01   0.01
    20   6     0.02   0.02  -0.00    -0.03   0.02   0.02     0.04   0.02  -0.01
    21   1    -0.13  -0.07  -0.03     0.25   0.05   0.05    -0.31  -0.13  -0.07
    22   1    -0.04  -0.01  -0.04    -0.07  -0.00  -0.01    -0.01  -0.01  -0.01
    23   6     0.07  -0.05  -0.00     0.05  -0.03   0.01     0.00  -0.01  -0.01
    24   6    -0.00   0.18  -0.01    -0.00   0.02  -0.00    -0.01   0.00   0.00
    25   6    -0.16  -0.12   0.01    -0.02  -0.01   0.00    -0.00   0.00   0.00
    26   6    -0.07  -0.05  -0.00    -0.05  -0.03   0.01     0.00   0.01   0.01
    27   1    -0.00  -0.45   0.05    -0.00   0.27  -0.01    -0.01  -0.00   0.00
    28   6     0.00   0.13  -0.00    -0.00   0.05  -0.00    -0.00  -0.00   0.00
    29   1     0.45   0.26  -0.03    -0.03  -0.02   0.00    -0.02  -0.01  -0.01
    30   6     0.16  -0.12   0.01     0.02  -0.01   0.00    -0.00  -0.00  -0.00
    31   1     0.00   0.14  -0.01    -0.00  -0.15   0.01    -0.00   0.00  -0.00
    32   1    -0.45   0.26  -0.03     0.03  -0.02   0.00    -0.02   0.01   0.01
                     61                     62                     63
                      A                      A                      A
 Frequencies --   1373.4160              1380.2481              1439.8899
 Red. masses --      1.5585                 1.5678                 2.4063
 Frc consts  --      1.7321                 1.7598                 2.9394
 IR Inten    --      6.6698                 0.1321                 4.5916
  Atom  AN      X      Y      Z        X      Y      Z        X      Y      Z
     1   6    -0.00  -0.01  -0.00     0.00   0.00  -0.01     0.00  -0.12  -0.05
     2   6    -0.00   0.01  -0.00    -0.00   0.00   0.01     0.00   0.13  -0.02
     3   6     0.02   0.02  -0.00     0.01   0.01   0.00     0.00  -0.03   0.16
     4   6    -0.00   0.01   0.00    -0.00   0.00  -0.01    -0.00  -0.12  -0.05
     5   6    -0.00  -0.01   0.00     0.00   0.00   0.01    -0.00   0.13  -0.02
     6   6     0.02  -0.02   0.00    -0.01   0.01   0.00    -0.00  -0.03   0.16
     7   1     0.00   0.02  -0.01     0.01  -0.05   0.01    -0.04   0.28  -0.23
     8   1     0.01   0.01   0.00    -0.00  -0.04  -0.02    -0.05  -0.22  -0.30
     9   1     0.00  -0.02   0.01    -0.01  -0.05   0.01     0.04   0.28  -0.23
    10   1     0.01  -0.01  -0.00     0.00  -0.04  -0.02     0.05  -0.22  -0.30
    11   6    -0.07  -0.06   0.02    -0.04  -0.04   0.01     0.02  -0.00  -0.05
    12   1     0.22   0.08  -0.04     0.13   0.04  -0.03    -0.31  -0.07   0.01
    13   1     0.40   0.10  -0.13     0.27   0.06  -0.08     0.11   0.14   0.14
    14   6    -0.07   0.06  -0.02     0.04  -0.04   0.01    -0.02  -0.00  -0.05
    15   1     0.40  -0.10   0.13    -0.27   0.06  -0.08    -0.11   0.14   0.14
    16   1     0.22  -0.08   0.04    -0.13   0.04  -0.03     0.31  -0.07   0.01
    17   6    -0.07   0.08   0.01    -0.08   0.05   0.01    -0.01   0.00  -0.01
    18   1     0.19  -0.12  -0.05     0.21  -0.08  -0.04     0.04  -0.01  -0.01
    19   1     0.37  -0.16  -0.09     0.42  -0.23  -0.08     0.02  -0.01  -0.01
    20   6    -0.07  -0.08  -0.01     0.08   0.05   0.01     0.01   0.00  -0.01
    21   1     0.19   0.12   0.05    -0.21  -0.08  -0.04    -0.04  -0.01  -0.01
    22   1     0.37   0.16   0.09    -0.42  -0.23  -0.08    -0.02  -0.01  -0.01
    23   6     0.00   0.06  -0.00    -0.08   0.03   0.00    -0.00   0.00   0.00
    24   6     0.02  -0.00  -0.00     0.00  -0.04   0.00    -0.00   0.00  -0.00
    25   6     0.01  -0.00  -0.00     0.02   0.02  -0.00    -0.00  -0.00   0.00
    26   6     0.00  -0.06   0.00     0.08   0.03   0.00     0.00   0.00   0.00
    27   1     0.02  -0.00  -0.00     0.00  -0.22   0.01     0.00  -0.01   0.02
    28   6    -0.02  -0.00   0.00     0.00  -0.08   0.00    -0.00  -0.00   0.00
    29   1     0.00  -0.01   0.00     0.10   0.07  -0.01     0.01   0.01  -0.00
    30   6     0.01   0.00   0.00    -0.02   0.02  -0.00     0.00  -0.00   0.00
    31   1    -0.02   0.00   0.00    -0.00   0.30  -0.01    -0.00   0.02  -0.00
    32   1     0.00   0.01  -0.00    -0.10   0.07  -0.01    -0.01   0.01  -0.00
                     64                     65                     66
                      A                      A                      A
 Frequencies --   1472.5312              1484.8121              1492.8194
 Red. masses --      1.8347                 1.0850                 1.3512
 Frc consts  --      2.3440                 1.4094                 1.7741
 IR Inten    --      8.3660                 7.1901                10.8745
  Atom  AN      X      Y      Z        X      Y      Z        X      Y      Z
     1   6    -0.00   0.00   0.00     0.00   0.00   0.01     0.00   0.00   0.00
     2   6    -0.00  -0.00  -0.00    -0.00  -0.01  -0.01    -0.00  -0.00  -0.00
     3   6    -0.00  -0.00   0.00     0.00   0.01  -0.00     0.00  -0.00   0.00
     4   6    -0.00  -0.00  -0.00    -0.00   0.00   0.01     0.00  -0.00  -0.00
     5   6    -0.00   0.00   0.00     0.00  -0.01  -0.01    -0.00   0.00   0.00
     6   6    -0.00   0.00  -0.00    -0.00   0.01  -0.00     0.00   0.00  -0.00
     7   1     0.00   0.01   0.00    -0.00   0.02   0.00    -0.00   0.01   0.00
     8   1     0.01   0.01   0.01     0.01   0.03   0.02     0.01   0.01   0.01
     9   1     0.00  -0.01  -0.00     0.00   0.02   0.00    -0.00  -0.01  -0.00
    10   1     0.01  -0.01  -0.01    -0.01   0.03   0.02     0.01  -0.01  -0.01
    11   6     0.01  -0.01  -0.01     0.01  -0.02  -0.01     0.01  -0.02  -0.02
    12   1    -0.04   0.12  -0.02    -0.05   0.16  -0.04    -0.07   0.21  -0.05
    13   1     0.01   0.06   0.10    -0.01   0.07   0.15    -0.01   0.09   0.21
    14   6     0.01   0.01   0.01    -0.01  -0.02  -0.01     0.01   0.02   0.02
    15   1     0.01  -0.06  -0.10     0.01   0.07   0.15    -0.01  -0.09  -0.21
    16   1    -0.04  -0.12   0.02     0.05   0.16  -0.04    -0.07  -0.21   0.05
    17   6     0.04   0.05  -0.03     0.02   0.04  -0.03    -0.00   0.02  -0.02
    18   1    -0.23  -0.31  -0.02    -0.23  -0.41  -0.04    -0.17  -0.34  -0.03
    19   1    -0.16   0.01   0.35     0.00  -0.15   0.44     0.10  -0.20   0.37
    20   6     0.04  -0.05   0.03    -0.02   0.04  -0.03    -0.00  -0.02   0.02
    21   1    -0.23   0.31   0.02     0.23  -0.41  -0.04    -0.17   0.34   0.03
    22   1    -0.16  -0.01  -0.35    -0.00  -0.15   0.44     0.10   0.20  -0.37
    23   6    -0.08   0.12  -0.00    -0.00  -0.00  -0.00     0.05  -0.08   0.01
    24   6     0.09   0.00  -0.00    -0.00   0.01   0.00    -0.06  -0.00   0.00
    25   6    -0.04  -0.07   0.00    -0.00   0.00  -0.00     0.03   0.04  -0.00
    26   6    -0.08  -0.12   0.00     0.00  -0.00  -0.00     0.05   0.08  -0.01
    27   1     0.09  -0.00  -0.00    -0.00  -0.03  -0.01    -0.06   0.00   0.00
    28   6     0.05  -0.00  -0.00    -0.00  -0.01  -0.00    -0.04   0.00   0.00
    29   1     0.32   0.15  -0.01     0.00   0.00   0.00    -0.20  -0.10   0.00
    30   6    -0.04   0.07  -0.00     0.00   0.00  -0.00     0.03  -0.04   0.00
    31   1     0.07   0.00  -0.00    -0.00   0.02  -0.00    -0.04  -0.00   0.00
    32   1     0.32  -0.15   0.01    -0.00   0.00   0.00    -0.20   0.10  -0.00
                     67                     68                     69
                      A                      A                      A
 Frequencies --   1497.4409              1498.2897              1524.5885
 Red. masses --      1.1107                 1.1192                 2.4036
 Frc consts  --      1.4675                 1.4803                 3.2917
 IR Inten    --      0.0023                 2.2399                10.2513
  Atom  AN      X      Y      Z        X      Y      Z        X      Y      Z
     1   6     0.00  -0.01   0.01     0.00   0.00   0.01    -0.01   0.05  -0.04
     2   6    -0.00  -0.00  -0.01    -0.00  -0.01  -0.00     0.01   0.04   0.06
     3   6     0.01   0.00   0.01     0.01   0.01  -0.02    -0.03  -0.07  -0.01
     4   6     0.00   0.01  -0.01    -0.00   0.00   0.01     0.01   0.05  -0.04
     5   6    -0.00   0.00   0.01     0.00  -0.01  -0.00    -0.01   0.04   0.06
     6   6     0.01  -0.00  -0.01    -0.01   0.01  -0.02     0.03  -0.07  -0.01
     7   1    -0.01   0.03  -0.00     0.01  -0.01   0.01     0.04  -0.23   0.06
     8   1     0.00   0.02   0.01     0.00   0.02   0.03    -0.04  -0.20  -0.12
     9   1    -0.01  -0.03   0.00    -0.01  -0.01   0.01    -0.04  -0.23   0.06
    10   1     0.00  -0.02  -0.01    -0.00   0.02   0.03     0.04  -0.20  -0.12
    11   6    -0.00  -0.05  -0.02    -0.00  -0.06  -0.02     0.01   0.01   0.00
    12   1    -0.11   0.42  -0.10    -0.10   0.46  -0.10     0.02   0.02  -0.00
    13   1     0.01   0.19   0.40    -0.01   0.18   0.41     0.02   0.02   0.00
    14   6    -0.00   0.05   0.02     0.00  -0.06  -0.02    -0.01   0.01   0.00
    15   1     0.01  -0.19  -0.40     0.01   0.18   0.41    -0.02   0.02   0.00
    16   1    -0.11  -0.42   0.10     0.10   0.46  -0.10    -0.02   0.02  -0.00
    17   6     0.00  -0.02   0.01     0.00  -0.02   0.01    -0.02   0.01  -0.00
    18   1     0.07   0.20   0.02     0.06   0.16   0.02    -0.02  -0.01  -0.00
    19   1    -0.00   0.07  -0.21     0.01   0.05  -0.17     0.05  -0.05   0.03
    20   6     0.00   0.02  -0.01    -0.00  -0.02   0.01     0.02   0.01  -0.00
    21   1     0.07  -0.20  -0.02    -0.06   0.16   0.02     0.02  -0.01  -0.00
    22   1    -0.00  -0.07   0.21    -0.01   0.05  -0.17    -0.05  -0.05   0.03
    23   6    -0.01   0.01  -0.00    -0.00  -0.00   0.00    -0.11  -0.03   0.01
    24   6     0.01   0.00  -0.00    -0.00   0.00  -0.00     0.00   0.08  -0.01
    25   6    -0.01  -0.01   0.00     0.00  -0.00   0.00     0.09  -0.05   0.00
    26   6    -0.01  -0.01   0.00     0.00  -0.00   0.00     0.11  -0.03   0.01
    27   1     0.01  -0.00   0.00    -0.00  -0.01   0.00     0.00  -0.39   0.03
    28   6     0.01   0.00  -0.00    -0.00   0.01  -0.00     0.00   0.19  -0.01
    29   1     0.03   0.02   0.00    -0.01  -0.01  -0.00    -0.15  -0.22   0.01
    30   6    -0.01   0.01  -0.00    -0.00  -0.00   0.00    -0.09  -0.05   0.00
    31   1     0.01  -0.00   0.00    -0.00  -0.03   0.00     0.00  -0.58   0.02
    32   1     0.03  -0.02  -0.00     0.01  -0.01  -0.00     0.15  -0.22   0.01
                     70                     71                     72
                      A                      A                      A
 Frequencies --   1533.9017              1589.5942              1624.5833
 Red. masses --      2.3787                 5.5977                 5.6986
 Frc consts  --      3.2975                 8.3336                 8.8614
 IR Inten    --      1.1736                 0.1436                 0.3274
  Atom  AN      X      Y      Z        X      Y      Z        X      Y      Z
     1   6     0.02  -0.09   0.07     0.03  -0.12   0.18    -0.01   0.11  -0.01
     2   6    -0.02  -0.06  -0.10    -0.03  -0.06  -0.21    -0.01  -0.10  -0.04
     3   6     0.04   0.12   0.02     0.01  -0.04   0.33     0.02   0.07   0.01
     4   6    -0.02  -0.09   0.07     0.03   0.12  -0.18    -0.01  -0.11   0.01
     5   6     0.02  -0.06  -0.10    -0.03   0.06   0.21    -0.01   0.10   0.04
     6   6    -0.04   0.12   0.02     0.01   0.04  -0.33     0.02  -0.07  -0.01
     7   1    -0.08   0.37  -0.10    -0.08   0.28   0.03     0.04  -0.11   0.08
     8   1     0.07   0.33   0.18     0.08   0.29   0.04     0.04   0.09   0.10
     9   1     0.08   0.37  -0.10    -0.08  -0.28  -0.03     0.04   0.11  -0.08
    10   1    -0.07   0.33   0.18     0.08  -0.29  -0.04     0.04  -0.09  -0.10
    11   6    -0.01  -0.01  -0.00     0.00   0.02  -0.04    -0.00  -0.01   0.00
    12   1    -0.00  -0.10   0.01    -0.17  -0.25   0.04    -0.02  -0.00   0.00
    13   1    -0.02  -0.05  -0.07     0.11   0.06  -0.05    -0.02  -0.02  -0.00
    14   6     0.01  -0.01  -0.00     0.00  -0.02   0.04    -0.00   0.01  -0.00
    15   1     0.02  -0.05  -0.07     0.11  -0.06   0.05    -0.02   0.02   0.00
    16   1     0.00  -0.10   0.01    -0.17   0.25  -0.04    -0.02   0.00  -0.00
    17   6    -0.02   0.01   0.00    -0.00   0.01  -0.00     0.03  -0.01   0.00
    18   1     0.02   0.02  -0.00    -0.01  -0.01  -0.01     0.02  -0.01   0.00
    19   1     0.06  -0.03  -0.03     0.02  -0.01   0.01    -0.11   0.10  -0.03
    20   6     0.02   0.01   0.00    -0.00  -0.01   0.00     0.03   0.01  -0.00
    21   1    -0.02   0.02  -0.00    -0.01   0.01   0.01     0.02   0.01  -0.00
    22   1    -0.06  -0.03  -0.03     0.02   0.01  -0.01    -0.11  -0.10   0.03
    23   6    -0.07  -0.01   0.00    -0.00   0.00  -0.00    -0.27   0.03   0.00
    24   6     0.00   0.04  -0.00     0.00  -0.00   0.00     0.13  -0.00  -0.00
    25   6     0.05  -0.03   0.00     0.00   0.00  -0.00     0.28   0.10  -0.01
    26   6     0.07  -0.01   0.00    -0.00  -0.00   0.00    -0.27  -0.03  -0.00
    27   1     0.00  -0.28   0.02     0.00   0.00  -0.00     0.12   0.00  -0.00
    28   6     0.00   0.11  -0.00    -0.00  -0.00   0.00    -0.15   0.00   0.00
    29   1    -0.07  -0.12   0.01    -0.00  -0.00  -0.00    -0.34  -0.29   0.02
    30   6    -0.05  -0.03   0.00     0.00  -0.00   0.00     0.28  -0.10   0.01
    31   1     0.00  -0.32   0.01    -0.00   0.00   0.00    -0.17   0.00   0.00
    32   1     0.07  -0.12   0.01    -0.00   0.00   0.00    -0.34   0.29  -0.02
                     73                     74                     75
                      A                      A                      A
 Frequencies --   1627.3256              1670.8463              3018.0179
 Red. masses --      5.5959                 6.2594                 1.0659
 Frc consts  --      8.7310                10.2957                 5.7202
 IR Inten    --     11.5331                 4.2724                30.8787
  Atom  AN      X      Y      Z        X      Y      Z        X      Y      Z
     1   6    -0.03   0.26  -0.03    -0.00  -0.00   0.00    -0.00   0.00   0.00
     2   6    -0.03  -0.25  -0.10    -0.00  -0.00  -0.00    -0.00  -0.00   0.00
     3   6     0.06   0.18   0.02    -0.00   0.00   0.00    -0.00  -0.00   0.00
     4   6    -0.03  -0.26   0.03     0.00  -0.00   0.00     0.00   0.00   0.00
     5   6    -0.03   0.25   0.10     0.00  -0.00  -0.00     0.00  -0.00   0.00
     6   6     0.06  -0.18  -0.02     0.00   0.00   0.00     0.00  -0.00   0.00
     7   1     0.10  -0.27   0.19    -0.00   0.01  -0.00     0.00  -0.00  -0.00
     8   1     0.10   0.23   0.26     0.00   0.01   0.00     0.00   0.00  -0.00
     9   1     0.10   0.27  -0.19     0.00   0.01  -0.00    -0.00  -0.00  -0.00
    10   1     0.10  -0.23  -0.26    -0.00   0.01   0.00    -0.00   0.00  -0.00
    11   6    -0.01  -0.02  -0.00    -0.00  -0.00   0.00     0.01  -0.01   0.00
    12   1     0.01  -0.02  -0.00     0.02  -0.01   0.00     0.00  -0.00   0.01
    13   1    -0.04  -0.03  -0.01     0.03   0.00  -0.02    -0.07   0.14  -0.07
    14   6    -0.01   0.02   0.00     0.00  -0.00   0.00    -0.01  -0.01   0.00
    15   1    -0.04   0.03   0.01    -0.03   0.00  -0.02     0.07   0.14  -0.07
    16   1     0.01   0.02   0.00    -0.02  -0.01   0.00    -0.00  -0.00   0.01
    17   6    -0.02   0.00   0.00     0.00   0.02  -0.00     0.01   0.02  -0.04
    18   1     0.01   0.01   0.00    -0.02   0.06   0.01     0.08  -0.06   0.62
    19   1     0.06  -0.05  -0.01    -0.06   0.08  -0.06    -0.14  -0.22  -0.10
    20   6    -0.02  -0.00  -0.00    -0.00   0.02  -0.00    -0.01   0.02  -0.04
    21   1     0.01  -0.01  -0.00     0.02   0.06   0.01    -0.08  -0.06   0.62
    22   1     0.06   0.05   0.01     0.06   0.08  -0.06     0.14  -0.22  -0.10
    23   6     0.11  -0.01  -0.00     0.03  -0.27   0.02     0.00   0.00  -0.00
    24   6    -0.04   0.00   0.00     0.00   0.42  -0.03     0.00  -0.00   0.00
    25   6    -0.11  -0.04   0.00     0.10   0.17  -0.01    -0.00  -0.00   0.00
    26   6     0.11   0.01   0.00    -0.03  -0.27   0.02    -0.00   0.00  -0.00
    27   1    -0.06  -0.00   0.00     0.00  -0.51   0.05     0.00   0.00  -0.00
    28   6     0.06  -0.00  -0.00    -0.00  -0.27   0.01     0.00   0.00  -0.00
    29   1     0.13   0.11  -0.01    -0.26  -0.04   0.01    -0.00   0.01  -0.00
    30   6    -0.11   0.04  -0.00    -0.10   0.17  -0.01     0.00  -0.00   0.00
    31   1     0.06  -0.00  -0.00    -0.00   0.28  -0.01    -0.00   0.00   0.00
    32   1     0.13  -0.11   0.01     0.26  -0.04   0.01     0.00   0.01  -0.00
                     76                     77                     78
                      A                      A                      A
 Frequencies --   3018.1729              3034.1973              3034.7257
 Red. masses --      1.0659                 1.0630                 1.0632
 Frc consts  --      5.7210                 5.7657                 5.7692
 IR Inten    --      3.0249                97.2728                10.0115
  Atom  AN      X      Y      Z        X      Y      Z        X      Y      Z
     1   6     0.00  -0.00   0.00    -0.00   0.00   0.00     0.00  -0.00  -0.00
     2   6    -0.00  -0.00   0.00    -0.00   0.00  -0.00     0.00   0.00  -0.00
     3   6    -0.00  -0.00   0.00     0.00   0.00  -0.00     0.00   0.00  -0.00
     4   6     0.00   0.00  -0.00     0.00   0.00   0.00     0.00   0.00   0.00
     5   6    -0.00   0.00  -0.00     0.00   0.00  -0.00     0.00  -0.00   0.00
     6   6    -0.00   0.00  -0.00    -0.00   0.00  -0.00     0.00  -0.00   0.00
     7   1    -0.00   0.00   0.00     0.00  -0.00  -0.01    -0.00   0.00   0.01
     8   1     0.00   0.00  -0.00     0.00  -0.01   0.01     0.00  -0.01   0.01
     9   1    -0.00  -0.00  -0.00    -0.00  -0.00  -0.01    -0.00  -0.00  -0.01
    10   1     0.00  -0.00   0.00    -0.00  -0.01   0.01     0.00   0.01  -0.01
    11   6     0.01  -0.01   0.00     0.02  -0.04  -0.01     0.02  -0.04  -0.01
    12   1     0.00  -0.00   0.02     0.04   0.06   0.35     0.04   0.06   0.35
    13   1    -0.07   0.14  -0.08    -0.24   0.47  -0.26    -0.24   0.46  -0.25
    14   6     0.01   0.01  -0.00    -0.02  -0.04  -0.01     0.02   0.04   0.01
    15   1    -0.07  -0.14   0.08     0.24   0.47  -0.26    -0.24  -0.46   0.25
    16   1     0.00   0.00  -0.02    -0.04   0.06   0.35     0.04  -0.06  -0.35
    17   6     0.01   0.02  -0.04     0.00  -0.00   0.01     0.00  -0.00   0.02
    18   1     0.08  -0.06   0.62    -0.02   0.02  -0.17    -0.02   0.02  -0.18
    19   1    -0.14  -0.22  -0.10    -0.01  -0.02  -0.00    -0.01  -0.02  -0.00
    20   6     0.01  -0.02   0.04    -0.00  -0.00   0.01     0.00   0.00  -0.02
    21   1     0.08   0.06  -0.62     0.02   0.02  -0.17    -0.02  -0.02   0.18
    22   1    -0.14   0.22   0.10     0.01  -0.02  -0.00    -0.01   0.02   0.00
    23   6    -0.00  -0.00   0.00     0.00   0.00   0.00     0.00  -0.00  -0.00
    24   6    -0.00  -0.00   0.00     0.00   0.00  -0.00    -0.00   0.00  -0.00
    25   6    -0.00   0.00  -0.00     0.00  -0.00  -0.00     0.00  -0.00   0.00
    26   6    -0.00   0.00  -0.00    -0.00   0.00   0.00     0.00   0.00   0.00
    27   1    -0.00   0.00  -0.00    -0.00   0.00   0.00     0.00   0.00   0.00
    28   6    -0.00   0.00  -0.00    -0.00  -0.00   0.00     0.00  -0.00   0.00
    29   1     0.00  -0.01   0.00     0.00  -0.00   0.00    -0.00   0.00  -0.00
    30   6    -0.00  -0.00   0.00    -0.00  -0.00  -0.00     0.00   0.00  -0.00
    31   1     0.00   0.00   0.00     0.00  -0.00   0.00    -0.00  -0.00   0.00
    32   1     0.00   0.01  -0.00    -0.00  -0.00   0.00    -0.00  -0.00   0.00
                     79                     80                     81
                      A                      A                      A
 Frequencies --   3064.2776              3064.5611              3087.3202
 Red. masses --      1.0964                 1.0960                 1.1017
 Frc consts  --      6.0656                 6.0647                 6.1867
 IR Inten    --     60.2636                 5.3655                 2.1095
  Atom  AN      X      Y      Z        X      Y      Z        X      Y      Z
     1   6    -0.00  -0.00  -0.00    -0.00  -0.00   0.00     0.00   0.00   0.00
     2   6    -0.00  -0.00   0.00    -0.00  -0.00   0.00    -0.00   0.00  -0.00
     3   6     0.00   0.00   0.00     0.00   0.00   0.00    -0.00  -0.00   0.00
     4   6     0.00  -0.00  -0.00    -0.00   0.00  -0.00     0.00  -0.00  -0.00
     5   6     0.00  -0.00   0.00    -0.00   0.00  -0.00    -0.00  -0.00   0.00
     6   6    -0.00   0.00   0.00     0.00  -0.00  -0.00    -0.00   0.00  -0.00
     7   1    -0.00   0.00   0.00     0.00  -0.00  -0.00     0.00  -0.01  -0.02
     8   1     0.00   0.00  -0.00     0.00   0.00  -0.00    -0.00  -0.01   0.01
     9   1     0.00   0.00   0.00     0.00   0.00   0.00     0.00   0.01   0.02
    10   1    -0.00   0.00  -0.00     0.00  -0.00   0.00    -0.00   0.01  -0.01
    11   6     0.01  -0.01   0.02     0.01  -0.01   0.02     0.02  -0.01   0.06
    12   1    -0.01  -0.02  -0.12    -0.01  -0.02  -0.12    -0.05  -0.11  -0.58
    13   1    -0.07   0.13  -0.07    -0.07   0.14  -0.07    -0.13   0.25  -0.13
    14   6    -0.01  -0.01   0.02     0.01   0.01  -0.02     0.02   0.01  -0.06
    15   1     0.07   0.13  -0.07    -0.07  -0.14   0.07    -0.13  -0.25   0.13
    16   1     0.01  -0.02  -0.12    -0.01   0.02   0.12    -0.05   0.11   0.58
    17   6    -0.03  -0.04  -0.03    -0.03  -0.04  -0.03     0.01   0.01   0.02
    18   1     0.02  -0.03   0.22     0.02  -0.03   0.22    -0.01   0.02  -0.14
    19   1     0.33   0.51   0.19     0.33   0.51   0.19    -0.08  -0.12  -0.04
    20   6     0.03  -0.04  -0.03    -0.03   0.04   0.03     0.01  -0.01  -0.02
    21   1    -0.02  -0.03   0.22     0.02   0.03  -0.22    -0.01  -0.02   0.14
    22   1    -0.33   0.51   0.19     0.33  -0.51  -0.19    -0.08   0.12   0.04
    23   6     0.00   0.00  -0.00    -0.00  -0.00   0.00     0.00  -0.00  -0.00
    24   6    -0.00   0.00  -0.00     0.00   0.00  -0.00    -0.00  -0.00   0.00
    25   6    -0.00   0.00   0.00     0.00  -0.00  -0.00    -0.00   0.00   0.00
    26   6    -0.00   0.00  -0.00    -0.00   0.00  -0.00     0.00   0.00   0.00
    27   1    -0.00   0.00  -0.00     0.00   0.00  -0.00    -0.00   0.00  -0.00
    28   6    -0.00  -0.00   0.00     0.00  -0.00   0.00    -0.00   0.00   0.00
    29   1     0.00  -0.01  -0.00    -0.00   0.01   0.00     0.00  -0.00  -0.00
    30   6     0.00   0.00   0.00     0.00   0.00   0.00    -0.00  -0.00  -0.00
    31   1    -0.00  -0.00  -0.00     0.00  -0.00  -0.00     0.00  -0.00  -0.00
    32   1    -0.00  -0.01  -0.00    -0.00  -0.01  -0.00     0.00   0.00   0.00
                     82                     83                     84
                      A                      A                      A
 Frequencies --   3087.4004              3162.0441              3167.1139
 Red. masses --      1.1016                 1.0857                 1.0865
 Frc consts  --      6.1870                 6.3958                 6.4209
 IR Inten    --     50.2424                 0.2362                16.0545
  Atom  AN      X      Y      Z        X      Y      Z        X      Y      Z
     1   6     0.00   0.00   0.00     0.00  -0.00   0.00     0.00  -0.01  -0.04
     2   6     0.00  -0.00   0.00     0.00  -0.00   0.00    -0.00  -0.02   0.04
     3   6     0.00   0.00  -0.00    -0.00   0.00  -0.00    -0.00  -0.00  -0.00
     4   6    -0.00   0.00   0.00     0.00   0.00  -0.00    -0.00  -0.01  -0.04
     5   6    -0.00  -0.00   0.00     0.00   0.00  -0.00     0.00  -0.02   0.04
     6   6    -0.00   0.00  -0.00    -0.00  -0.00   0.00     0.00  -0.00  -0.00
     7   1     0.00  -0.01  -0.01     0.00  -0.00  -0.00    -0.02   0.17   0.44
     8   1    -0.00   0.00  -0.00     0.00   0.00  -0.00     0.02   0.30  -0.42
     9   1    -0.00  -0.01  -0.01     0.00   0.00   0.00     0.02   0.17   0.44
    10   1     0.00   0.00  -0.00     0.00  -0.00   0.00    -0.02   0.30  -0.42
    11   6    -0.02   0.01  -0.06     0.00  -0.00   0.00    -0.00  -0.00  -0.00
    12   1     0.05   0.11   0.58    -0.00  -0.00  -0.00     0.00   0.00   0.01
    13   1     0.13  -0.25   0.13     0.00  -0.00   0.00    -0.00   0.00  -0.00
    14   6     0.02   0.01  -0.06     0.00   0.00  -0.00     0.00  -0.00  -0.00
    15   1    -0.13  -0.25   0.13     0.00   0.00  -0.00     0.00   0.00  -0.00
    16   1    -0.05   0.11   0.58    -0.00   0.00   0.00    -0.00   0.00   0.01
    17   6    -0.01  -0.01  -0.02     0.00   0.00   0.00     0.00   0.00   0.00
    18   1     0.01  -0.02   0.14     0.00  -0.00   0.00    -0.00   0.00  -0.01
    19   1     0.08   0.12   0.04    -0.00  -0.01  -0.00    -0.00  -0.00  -0.00
    20   6     0.01  -0.01  -0.02     0.00  -0.00  -0.00    -0.00   0.00   0.00
    21   1    -0.01  -0.02   0.14     0.00   0.00  -0.00     0.00   0.00  -0.01
    22   1    -0.08   0.12   0.04    -0.00   0.01   0.00     0.00  -0.00  -0.00
    23   6     0.00   0.00  -0.00    -0.00  -0.00   0.00    -0.00  -0.00   0.00
    24   6     0.00  -0.00   0.00    -0.00   0.00  -0.00     0.00   0.00   0.00
    25   6    -0.00   0.00   0.00     0.03  -0.04   0.00    -0.00   0.00  -0.00
    26   6    -0.00   0.00  -0.00    -0.00   0.00  -0.00     0.00  -0.00   0.00
    27   1     0.00   0.00  -0.00     0.00  -0.00  -0.00    -0.00   0.00   0.00
    28   6     0.00   0.00   0.00    -0.05   0.00   0.00     0.00  -0.00   0.00
    29   1     0.00  -0.00  -0.00    -0.31   0.49  -0.02     0.00  -0.00   0.00
    30   6     0.00   0.00   0.00     0.03   0.04  -0.00     0.00   0.00  -0.00
    31   1    -0.00  -0.00  -0.00     0.56  -0.00  -0.00    -0.00   0.00   0.00
    32   1    -0.00  -0.00  -0.00    -0.31  -0.49   0.02    -0.00  -0.00   0.00
                     85                     86                     87
                      A                      A                      A
 Frequencies --   3167.9738              3169.8849              3183.1985
 Red. masses --      1.0864                 1.0905                 1.0937
 Frc consts  --      6.4241                 6.4560                 6.5296
 IR Inten    --      0.0053                27.5008                30.0787
  Atom  AN      X      Y      Z        X      Y      Z        X      Y      Z
     1   6     0.00  -0.01  -0.04    -0.00  -0.00  -0.00     0.00  -0.02  -0.04
     2   6    -0.00  -0.03   0.04     0.00  -0.00   0.00     0.00   0.03  -0.03
     3   6    -0.00   0.00  -0.00     0.00   0.00  -0.00    -0.00  -0.00   0.00
     4   6     0.00   0.01   0.04     0.00  -0.00  -0.00    -0.00  -0.02  -0.04
     5   6    -0.00   0.03  -0.04    -0.00  -0.00   0.00    -0.00   0.03  -0.03
     6   6    -0.00  -0.00   0.00    -0.00   0.00  -0.00     0.00  -0.00   0.00
     7   1    -0.02   0.17   0.44    -0.00   0.00   0.00    -0.02   0.19   0.48
     8   1     0.01   0.31  -0.42     0.00   0.00  -0.00    -0.01  -0.28   0.38
     9   1    -0.02  -0.17  -0.44     0.00   0.00   0.00     0.02   0.19   0.48
    10   1     0.01  -0.31   0.42    -0.00   0.00  -0.00     0.01  -0.28   0.38
    11   6     0.00  -0.00   0.00    -0.00   0.00  -0.00    -0.00   0.00  -0.00
    12   1    -0.00  -0.00  -0.01     0.00   0.00   0.00     0.00   0.00   0.01
    13   1    -0.00   0.01  -0.00    -0.00   0.00   0.00     0.00  -0.00   0.00
    14   6     0.00   0.00  -0.00     0.00   0.00  -0.00     0.00   0.00  -0.00
    15   1    -0.00  -0.01   0.00     0.00   0.00   0.00    -0.00  -0.00   0.00
    16   1    -0.00   0.00   0.01    -0.00   0.00   0.00    -0.00   0.00   0.01
    17   6     0.00   0.00   0.00    -0.00  -0.00  -0.00    -0.00  -0.00  -0.00
    18   1    -0.00   0.00  -0.01    -0.00   0.00  -0.00     0.00  -0.00   0.01
    19   1    -0.00  -0.00  -0.00     0.00   0.01   0.00     0.00   0.00   0.00
    20   6     0.00  -0.00  -0.00     0.00  -0.00  -0.00     0.00  -0.00  -0.00
    21   1    -0.00  -0.00   0.01     0.00   0.00  -0.00    -0.00  -0.00   0.01
    22   1    -0.00   0.00   0.00    -0.00   0.01   0.00    -0.00   0.00   0.00
    23   6     0.00   0.00  -0.00    -0.00  -0.00   0.00     0.00   0.00  -0.00
    24   6    -0.00  -0.00   0.00     0.00   0.00  -0.00     0.00  -0.00   0.00
    25   6    -0.00   0.00  -0.00     0.03  -0.05   0.00    -0.00   0.00   0.00
    26   6     0.00  -0.00   0.00     0.00  -0.00   0.00    -0.00   0.00  -0.00
    27   1     0.00   0.00  -0.00    -0.00  -0.00   0.00    -0.00  -0.00   0.00
    28   6     0.00  -0.00  -0.00     0.00   0.00  -0.00    -0.00   0.00  -0.00
    29   1     0.00  -0.00   0.00    -0.37   0.60  -0.03     0.00  -0.00  -0.00
    30   6    -0.00  -0.00   0.00    -0.03  -0.05   0.00     0.00   0.00   0.00
    31   1    -0.00   0.00   0.00    -0.00  -0.00   0.00     0.00  -0.00  -0.00
    32   1     0.00   0.00  -0.00     0.37   0.60  -0.03    -0.00  -0.00  -0.00
                     88                     89                     90
                      A                      A                      A
 Frequencies --   3185.9658              3189.1104              3616.6279
 Red. masses --      1.0946                 1.0955                 1.0797
 Frc consts  --      6.5461                 6.5647                 8.3209
 IR Inten    --      4.8018                38.7368                25.7636
  Atom  AN      X      Y      Z        X      Y      Z        X      Y      Z
     1   6     0.00  -0.02  -0.04    -0.00   0.00   0.00    -0.00   0.00  -0.00
     2   6     0.00   0.03  -0.03    -0.00  -0.00   0.00    -0.00   0.00  -0.00
     3   6     0.00   0.00   0.00     0.00  -0.00  -0.00    -0.00   0.00   0.00
     4   6     0.00   0.02   0.04    -0.00  -0.00  -0.00    -0.00  -0.00   0.00
     5   6     0.00  -0.03   0.03    -0.00   0.00  -0.00    -0.00  -0.00   0.00
     6   6     0.00  -0.00  -0.00     0.00   0.00   0.00    -0.00  -0.00  -0.00
     7   1    -0.02   0.19   0.48     0.00  -0.01  -0.02     0.00   0.00   0.00
     8   1    -0.01  -0.28   0.38     0.00   0.01  -0.01     0.00  -0.00   0.00
     9   1    -0.02  -0.19  -0.48     0.00   0.01   0.02     0.00  -0.00  -0.00
    10   1    -0.01   0.28  -0.38     0.00  -0.01   0.01     0.00   0.00  -0.00
    11   6     0.00   0.00   0.00    -0.00  -0.00  -0.00     0.00   0.00   0.00
    12   1    -0.00  -0.00  -0.01     0.00   0.00   0.00    -0.00  -0.00  -0.00
    13   1     0.00  -0.01   0.00    -0.00   0.00  -0.00    -0.00  -0.00   0.00
    14   6     0.00  -0.00  -0.00    -0.00   0.00   0.00     0.00  -0.00  -0.00
    15   1     0.00   0.01  -0.00    -0.00  -0.00   0.00    -0.00   0.00  -0.00
    16   1    -0.00   0.00   0.01     0.00  -0.00  -0.00    -0.00   0.00   0.00
    17   6    -0.00  -0.00  -0.00    -0.00  -0.00   0.00    -0.00  -0.00  -0.00
    18   1     0.00  -0.00   0.00    -0.00   0.00  -0.00    -0.00   0.00   0.00
    19   1    -0.00   0.00   0.00     0.00   0.01   0.00    -0.00  -0.00   0.00
    20   6    -0.00   0.00   0.00    -0.00   0.00  -0.00    -0.00   0.00   0.00
    21   1     0.00   0.00  -0.00    -0.00  -0.00   0.00    -0.00  -0.00  -0.00
    22   1    -0.00  -0.00  -0.00     0.00  -0.01  -0.00    -0.00   0.00  -0.00
    23   6     0.00   0.00  -0.00     0.00   0.00  -0.00     0.00  -0.00   0.00
    24   6     0.00  -0.00  -0.00     0.00   0.00  -0.00    -0.08   0.00   0.00
    25   6    -0.00   0.00  -0.00    -0.02   0.03  -0.00     0.00  -0.00  -0.00
    26   6     0.00  -0.00   0.00     0.00  -0.00   0.00     0.00   0.00  -0.00
    27   1    -0.01  -0.00   0.00     0.00   0.00  -0.00     1.00   0.00  -0.00
    28   6    -0.00  -0.00   0.00    -0.07  -0.00   0.00     0.00   0.00  -0.00
    29   1     0.01  -0.01   0.00     0.20  -0.34   0.02     0.00  -0.00   0.00
    30   6    -0.00  -0.00   0.00    -0.02  -0.03   0.00     0.00   0.00   0.00
    31   1     0.03  -0.00  -0.00     0.83   0.00  -0.00    -0.00   0.00   0.00
    32   1     0.01   0.01  -0.00     0.20   0.34  -0.02     0.00   0.00  -0.00

 -------------------
 - Thermochemistry -
 -------------------
 Temperature   298.150 Kelvin.  Pressure   1.00000 Atm.
 Atom     1 has atomic number  6 and mass  12.00000
 Atom     2 has atomic number  6 and mass  12.00000
 Atom     3 has atomic number  6 and mass  12.00000
 Atom     4 has atomic number  6 and mass  12.00000
 Atom     5 has atomic number  6 and mass  12.00000
 Atom     6 has atomic number  6 and mass  12.00000
 Atom     7 has atomic number  1 and mass   1.00783
 Atom     8 has atomic number  1 and mass   1.00783
 Atom     9 has atomic number  1 and mass   1.00783
 Atom    10 has atomic number  1 and mass   1.00783
 Atom    11 has atomic number  6 and mass  12.00000
 Atom    12 has atomic number  1 and mass   1.00783
 Atom    13 has atomic number  1 and mass   1.00783
 Atom    14 has atomic number  6 and mass  12.00000
 Atom    15 has atomic number  1 and mass   1.00783
 Atom    16 has atomic number  1 and mass   1.00783
 Atom    17 has atomic number  6 and mass  12.00000
 Atom    18 has atomic number  1 and mass   1.00783
 Atom    19 has atomic number  1 and mass   1.00783
 Atom    20 has atomic number  6 and mass  12.00000
 Atom    21 has atomic number  1 and mass   1.00783
 Atom    22 has atomic number  1 and mass   1.00783
 Atom    23 has atomic number  6 and mass  12.00000
 Atom    24 has atomic number  6 and mass  12.00000
 Atom    25 has atomic number  6 and mass  12.00000
 Atom    26 has atomic number  6 and mass  12.00000
 Atom    27 has atomic number  1 and mass   1.00783
 Atom    28 has atomic number  6 and mass  12.00000
 Atom    29 has atomic number  1 and mass   1.00783
 Atom    30 has atomic number  6 and mass  12.00000
 Atom    31 has atomic number  1 and mass   1.00783
 Atom    32 has atomic number  1 and mass   1.00783
 Molecular mass:   208.12520 amu.
 Principal axes and moments of inertia in atomic units:
                           1         2         3
     Eigenvalues --  2333.037253035.259104654.92682
           X            1.00000   0.00000   0.00000
           Y           -0.00000   1.00000  -0.00293
           Z           -0.00000   0.00293   1.00000
 This molecule is an asymmetric top.
 Rotational symmetry number  1.
 Warning -- assumption of classical behavior for rotation
           may cause significant error
 Rotational temperatures (Kelvin)      0.03712     0.02854     0.01861
 Rotational constants (GHZ):           0.77356     0.59459     0.38771
    1 imaginary frequencies ignored.
 Zero-point vibrational energy     721156.5 (Joules/Mol)
                                  172.36055 (Kcal/Mol)
 Warning -- explicit consideration of  17 degrees of freedom as
           vibrations may cause significant error
 Vibrational temperatures:    196.37   275.10   297.64   347.24   356.46
          (Kelvin)            398.95   458.69   477.52   485.35   577.37
                              631.93   654.24   682.64   706.96   714.40
                              805.79   826.58   908.75   922.76   990.02
                             1009.97  1033.98  1042.50  1120.01  1129.46
                             1149.78  1169.67  1181.28  1247.07  1299.89
                             1306.51  1314.36  1331.32  1369.25  1382.04
                             1395.69  1436.48  1450.86  1462.90  1478.10
                             1485.74  1574.68  1622.25  1679.22  1713.40
                             1717.01  1717.34  1719.98  1732.63  1745.39
                             1774.51  1780.67  1791.07  1900.33  1903.05
                             1932.05  1939.34  1947.48  1952.10  1976.04
                             1985.87  2071.68  2118.64  2136.31  2147.83
                             2154.48  2155.70  2193.54  2206.94  2287.07
                             2337.41  2341.36  2403.98  4342.25  4342.48
                             4365.53  4366.29  4408.81  4409.22  4441.97
                             4442.08  4549.48  4556.77  4558.01  4560.76
                             4579.91  4583.89  4588.42  5203.52
 
 Zero-point correction=                           0.274674 (Hartree/Particle)
 Thermal correction to Energy=                    0.285810
 Thermal correction to Enthalpy=                  0.286754
 Thermal correction to Gibbs Free Energy=         0.238887
 Sum of electronic and zero-point Energies=           -619.036598
 Sum of electronic and thermal Energies=              -619.025462
 Sum of electronic and thermal Enthalpies=            -619.024518
 Sum of electronic and thermal Free Energies=         -619.072385
 
                     E (Thermal)             CV                S
                      KCal/Mol        Cal/Mol-Kelvin    Cal/Mol-Kelvin
 Total                  179.348             50.244            100.745
 Electronic               0.000              0.000              0.000
 Translational            0.889              2.981             41.903
 Rotational               0.889              2.981             31.867
 Vibrational            177.571             44.282             26.975
 Vibration     1          0.614              1.917              2.853
 Vibration     2          0.634              1.852              2.216
 Vibration     3          0.641              1.830              2.071
 Vibration     4          0.658              1.777              1.793
 Vibration     5          0.661              1.766              1.747
 Vibration     6          0.678              1.715              1.550
 Vibration     7          0.705              1.638              1.316
 Vibration     8          0.714              1.612              1.251
 Vibration     9          0.718              1.601              1.225
 Vibration    10          0.767              1.467              0.958
 Vibration    11          0.799              1.385              0.829
 Vibration    12          0.813              1.350              0.782
 Vibration    13          0.831              1.307              0.725
 Vibration    14          0.847              1.269              0.680
 Vibration    15          0.852              1.258              0.667
 Vibration    16          0.916              1.118              0.524
 Vibration    17          0.931              1.086              0.496
                       Q            Log10(Q)             Ln(Q)
 Total Bot       0.131777-109       -109.880159       -253.008417
 Total V=0       0.289073D+17         16.461008         37.902871
 Vib (Bot)       0.543299-124       -124.264961       -286.130646
 Vib (Bot)    1  0.149123D+01          0.173545          0.399602
 Vib (Bot)    2  0.104629D+01          0.019652          0.045251
 Vib (Bot)    3  0.961293D+00         -0.017144         -0.039476
 Vib (Bot)    4  0.811953D+00         -0.090469         -0.208313
 Vib (Bot)    5  0.788600D+00         -0.103143         -0.237496
 Vib (Bot)    6  0.694366D+00         -0.158412         -0.364757
 Vib (Bot)    7  0.590072D+00         -0.229095         -0.527511
 Vib (Bot)    8  0.562309D+00         -0.250025         -0.575704
 Vib (Bot)    9  0.551366D+00         -0.258560         -0.595357
 Vib (Bot)   10  0.443734D+00         -0.352877         -0.812530
 Vib (Bot)   11  0.393837D+00         -0.404683         -0.931817
 Vib (Bot)   12  0.375680D+00         -0.425182         -0.979018
 Vib (Bot)   13  0.354168D+00         -0.450791         -1.037983
 Vib (Bot)   14  0.337041D+00         -0.472318         -1.087552
 Vib (Bot)   15  0.332016D+00         -0.478841         -1.102573
 Vib (Bot)   16  0.277500D+00         -0.556737         -1.281935
 Vib (Bot)   17  0.266702D+00         -0.573974         -1.321624
 Vib (V=0)       0.119181D+03          2.076206          4.780641
 Vib (V=0)    1  0.207282D+01          0.316562          0.728911
 Vib (V=0)    2  0.165962D+01          0.220009          0.506590
 Vib (V=0)    3  0.158355D+01          0.199632          0.459670
 Vib (V=0)    4  0.145356D+01          0.162431          0.374012
 Vib (V=0)    5  0.143375D+01          0.156473          0.360294
 Vib (V=0)    6  0.135565D+01          0.132149          0.304284
 Vib (V=0)    7  0.127342D+01          0.104973          0.241709
 Vib (V=0)    8  0.125246D+01          0.097763          0.225107
 Vib (V=0)    9  0.124431D+01          0.094930          0.218585
 Vib (V=0)   10  0.116851D+01          0.067631          0.155726
 Vib (V=0)   11  0.113648D+01          0.055562          0.127936
 Vib (V=0)   12  0.112541D+01          0.051310          0.118146
 Vib (V=0)   13  0.111273D+01          0.046389          0.106814
 Vib (V=0)   14  0.110299D+01          0.042571          0.098024
 Vib (V=0)   15  0.110020D+01          0.041470          0.095488
 Vib (V=0)   16  0.107184D+01          0.030132          0.069381
 Vib (V=0)   17  0.106668D+01          0.028035          0.064554
 Electronic      0.100000D+01          0.000000          0.000000
 Translational   0.118016D+09          8.071941         18.586331
 Rotational      0.205523D+07          6.312861         14.535899
 
                                                         Title Card Required
                                                             IR Spectrum
 
     3       333333333333333                           111111111111111111111111111111111111                                          
     6       111111100000000                           666555444444333333332222211111100000999999998887777776665544444433322221 1    
     1       888766688663311                           722932999874875544224331099996293210976521006219872108437699753033174409 3    
     7       963087277545488                           175045873530037483315833454317843778801254837139585928125071459172978171 6    
 
     X       XXXX XXXXXXXXXX                           XXXXXXX XXXXXXXXXXXXXXXXXXXX XXX XXXXX XXXXXXXXXXXXXXXXXXX XX XXXXXXXXXX      
     X       X XX X X  XXX X                            X   X  X X        X                      X  XX XXX                           
     X       X XX X X  X X X                                                                     X   X X X                           
     X       X XX   X  X X X                                                                         X   X                           
     X       X XX   X  X X X                                                                         X                               
             X XX   X  X X X                                                                                                         
             X      X  X X                                                                                                           
             X      X  X X                                                                                                           
                    X  X X                                                                                                           
                    X  X X                                                                                                           
                       X X                                                                                                           
                       X X                                                                                                           
                         X                                                                                                           
                         X                                                                                                           
                         X                                                                                                           
                         X                                                                                                           
                         X                                                                                                           
                         X                                                                                                           
                         X                                                                                                           
                         X                                                                                                           
 
 ***** Axes restored to original set *****
 -------------------------------------------------------------------
 Center     Atomic                   Forces (Hartrees/Bohr)
 Number     Number              X              Y              Z
 -------------------------------------------------------------------
      1        6           0.000000000    0.000000824   -0.000000344
      2        6          -0.000000000    0.000000708    0.000000551
      3        6          -0.000000000   -0.000000117    0.000000899
      4        6          -0.000000000   -0.000000826    0.000000345
      5        6           0.000000000   -0.000000709   -0.000000553
      6        6           0.000000000    0.000000118   -0.000000898
      7        1          -0.000000000    0.000001479   -0.000000602
      8        1           0.000000000    0.000001276    0.000000968
      9        1           0.000000000   -0.000001479    0.000000602
     10        1          -0.000000000   -0.000001276   -0.000000968
     11        6           0.000000000   -0.000000232    0.000001701
     12        1          -0.000000000   -0.000000925    0.000001839
     13        1          -0.000000000    0.000000066    0.000002277
     14        6          -0.000000001    0.000000233   -0.000001701
     15        1           0.000000000   -0.000000065   -0.000002277
     16        1          -0.000000000    0.000000925   -0.000001839
     17        6           0.000000000    0.000000177    0.000001619
     18        1          -0.000000000    0.000000879    0.000001699
     19        1           0.000000000   -0.000000037    0.000002188
     20        6           0.000000001   -0.000000177   -0.000001619
     21        1           0.000000000   -0.000000879   -0.000001699
     22        1          -0.000000000    0.000000037   -0.000002188
     23        6          -0.000000001   -0.000000041   -0.000000803
     24        6          -0.000000000    0.000000000   -0.000000000
     25        6          -0.000000001   -0.000000036   -0.000000794
     26        6           0.000000000    0.000000041    0.000000803
     27        1          -0.000000000   -0.000000000   -0.000000000
     28        6          -0.000000000    0.000000006   -0.000000000
     29        1          -0.000000000   -0.000000062   -0.000001393
     30        6           0.000000001    0.000000031    0.000000794
     31        1           0.000000000    0.000000000   -0.000000000
     32        1           0.000000000    0.000000062    0.000001393
 -------------------------------------------------------------------
 Cartesian Forces:  Max     0.000002277 RMS     0.000000845
 FormGI is forming the generalized inverse of G from B-inverse, IUseBI=4.
 Leave Link  716 at Mon Jul 28 11:57:18 2025, MaxMem=  6174015488 cpu:               1.1 elap:               0.0
 (Enter /opt/linux/rocky/8/software/gaussian/16c01_avx2/g16/l103.exe)

 GradGradGradGradGradGradGradGradGradGradGradGradGradGradGradGradGradGrad
 Berny optimization.
 Red2BG is reusing G-inverse.
 Internal  Forces:  Max     0.000000003 RMS     0.000000000
 Search for a saddle point.
 Step number   1 out of a maximum of    2
 All quantities printed in internal units (Hartrees-Bohrs-Radians)
 Swapping is turned off.
 Second derivative matrix not updated -- analytic derivatives used.
 ITU=  0
     Eigenvalues ---   -0.00899   0.00303   0.00329   0.01268   0.01566
     Eigenvalues ---    0.01573   0.01747   0.01828   0.01863   0.01904
     Eigenvalues ---    0.01986   0.02041   0.02120   0.02243   0.02418
     Eigenvalues ---    0.02486   0.02511   0.02819   0.02828   0.03232
     Eigenvalues ---    0.03412   0.03688   0.04165   0.04397   0.04412
     Eigenvalues ---    0.04786   0.04788   0.04953   0.07333   0.07487
     Eigenvalues ---    0.08021   0.08483   0.08709   0.08810   0.09565
     Eigenvalues ---    0.11063   0.11083   0.11122   0.11126   0.11249
     Eigenvalues ---    0.11702   0.11891   0.12240   0.12248   0.12566
     Eigenvalues ---    0.13476   0.17220   0.17310   0.17974   0.18850
     Eigenvalues ---    0.18864   0.19352   0.19481   0.20358   0.21142
     Eigenvalues ---    0.21373   0.22707   0.24021   0.25727   0.26775
     Eigenvalues ---    0.28319   0.29620   0.31371   0.31843   0.32502
     Eigenvalues ---    0.32523   0.32912   0.32992   0.33433   0.33456
     Eigenvalues ---    0.33766   0.34028   0.35098   0.35500   0.35547
     Eigenvalues ---    0.35635   0.35684   0.35790   0.35851   0.38038
     Eigenvalues ---    0.39117   0.39732   0.41765   0.41804   0.44388
     Eigenvalues ---    0.45509   0.48125   0.48506   0.50233   0.53083
 Eigenvectors required to have negative eigenvalues:
                          D62       D56       D64       D58       D61
   1                    0.28136  -0.28136   0.23987  -0.23987   0.23136
                          D55       D66       D60       D63       D57
   1                   -0.23136   0.22033  -0.22033   0.18988  -0.18988
 Angle between quadratic step and forces=  90.00 degrees.
 Linear search not attempted -- option 19 set.
 Iteration  1 RMS(Cart)=  0.00000000 RMS(Int)=  0.00000000
 ITry= 1 IFail=0 DXMaxC= 1.92D-08 DCOld= 1.00D+10 DXMaxT= 3.00D-01 DXLimC= 3.00D+00 Rises=F
 Variable       Old X    -DE/DX   Delta X   Delta X   Delta X     New X
                                 (Linear)    (Quad)   (Total)
    R1        2.63950  -0.00000   0.00000  -0.00000  -0.00000   2.63950
    R2        2.66093  -0.00000   0.00000  -0.00000  -0.00000   2.66093
    R3        2.05482  -0.00000   0.00000  -0.00000  -0.00000   2.05482
    R4        2.65864   0.00000   0.00000   0.00000   0.00000   2.65864
    R5        2.05502   0.00000   0.00000   0.00000   0.00000   2.05502
    R6        2.66093   0.00000   0.00000   0.00000   0.00000   2.66093
    R7        2.87799   0.00000   0.00000   0.00000   0.00000   2.87799
    R8        2.63950  -0.00000   0.00000  -0.00000  -0.00000   2.63950
    R9        2.05482   0.00000   0.00000   0.00000   0.00000   2.05482
   R10        2.65864  -0.00000   0.00000  -0.00000  -0.00000   2.65864
   R11        2.05502  -0.00000   0.00000  -0.00000  -0.00000   2.05502
   R12        2.87799  -0.00000   0.00000  -0.00000  -0.00000   2.87799
   R13        2.07027   0.00000   0.00000   0.00000   0.00000   2.07027
   R14        2.07418   0.00000   0.00000   0.00000   0.00000   2.07418
   R15        2.99649   0.00000   0.00000   0.00000   0.00000   2.99649
   R16        2.07418  -0.00000   0.00000  -0.00000  -0.00000   2.07418
   R17        2.07027  -0.00000   0.00000  -0.00000  -0.00000   2.07027
   R18        2.99649   0.00000   0.00000   0.00000   0.00000   2.99649
   R19        2.07697   0.00000   0.00000   0.00000   0.00000   2.07697
   R20        2.07296   0.00000   0.00000  -0.00000  -0.00000   2.07296
   R21        2.90208  -0.00000   0.00000   0.00000   0.00000   2.90208
   R22        2.07697  -0.00000   0.00000  -0.00000  -0.00000   2.07697
   R23        2.07296  -0.00000   0.00000  -0.00000  -0.00000   2.07296
   R24        2.90208  -0.00000   0.00000  -0.00000  -0.00000   2.90208
   R25        2.62603  -0.00000   0.00000   0.00000   0.00000   2.62603
   R26        2.64942   0.00000   0.00000  -0.00000  -0.00000   2.64942
   R27        2.62603   0.00000   0.00000  -0.00000  -0.00000   2.62603
   R28        1.98461   0.00000   0.00000  -0.00000  -0.00000   1.98461
   R29        2.65041   0.00000   0.00000   0.00000   0.00000   2.65041
   R30        2.05568   0.00000   0.00000   0.00000   0.00000   2.05568
   R31        2.64942  -0.00000   0.00000   0.00000   0.00000   2.64942
   R32        2.65041  -0.00000   0.00000  -0.00000  -0.00000   2.65041
   R33        2.05391   0.00000   0.00000   0.00000   0.00000   2.05391
   R34        2.05568   0.00000   0.00000   0.00000   0.00000   2.05568
    A1        2.10043   0.00000   0.00000   0.00000   0.00000   2.10043
    A2        2.07435  -0.00000   0.00000  -0.00000  -0.00000   2.07435
    A3        2.08456   0.00000   0.00000   0.00000   0.00000   2.08456
    A4        2.08469  -0.00000   0.00000  -0.00000  -0.00000   2.08469
    A5        2.07492   0.00000   0.00000   0.00000   0.00000   2.07492
    A6        2.09498  -0.00000   0.00000  -0.00000  -0.00000   2.09498
    A7        2.03105  -0.00000   0.00000  -0.00000  -0.00000   2.03105
    A8        2.11361   0.00000   0.00000   0.00000   0.00000   2.11361
    A9        2.09301  -0.00000   0.00000  -0.00000  -0.00000   2.09301
   A10        2.10043  -0.00000   0.00000  -0.00000  -0.00000   2.10043
   A11        2.08456  -0.00000   0.00000  -0.00000  -0.00000   2.08456
   A12        2.07435   0.00000   0.00000   0.00000   0.00000   2.07435
   A13        2.08469   0.00000   0.00000   0.00000   0.00000   2.08469
   A14        2.07492  -0.00000   0.00000  -0.00000  -0.00000   2.07492
   A15        2.09498   0.00000   0.00000   0.00000   0.00000   2.09498
   A16        2.03105   0.00000   0.00000   0.00000   0.00000   2.03105
   A17        2.09301  -0.00000   0.00000  -0.00000  -0.00000   2.09301
   A18        2.11361   0.00000   0.00000   0.00000   0.00000   2.11361
   A19        1.89702  -0.00000   0.00000  -0.00000  -0.00000   1.89702
   A20        1.95895  -0.00000   0.00000   0.00000   0.00000   1.95895
   A21        1.99016   0.00000   0.00000   0.00000   0.00000   1.99016
   A22        1.86233   0.00000   0.00000  -0.00000  -0.00000   1.86233
   A23        1.90401   0.00000   0.00000  -0.00000  -0.00000   1.90401
   A24        1.84651  -0.00000   0.00000   0.00000   0.00000   1.84651
   A25        1.95895   0.00000   0.00000   0.00000   0.00000   1.95895
   A26        1.89702  -0.00000   0.00000  -0.00000  -0.00000   1.89702
   A27        1.99016  -0.00000   0.00000   0.00000   0.00000   1.99016
   A28        1.86233  -0.00000   0.00000  -0.00000  -0.00000   1.86233
   A29        1.84651  -0.00000   0.00000   0.00000   0.00000   1.84651
   A30        1.90401   0.00000   0.00000  -0.00000  -0.00000   1.90401
   A31        1.85921  -0.00000   0.00000  -0.00000  -0.00000   1.85921
   A32        1.86310   0.00000   0.00000   0.00000   0.00000   1.86310
   A33        2.11573  -0.00000   0.00000  -0.00000  -0.00000   2.11573
   A34        1.83731  -0.00000   0.00000   0.00000   0.00000   1.83731
   A35        1.86225   0.00000   0.00000  -0.00000  -0.00000   1.86225
   A36        1.90764   0.00000   0.00000   0.00000   0.00000   1.90764
   A37        1.85921  -0.00000   0.00000  -0.00000  -0.00000   1.85921
   A38        1.86310   0.00000   0.00000   0.00000   0.00000   1.86310
   A39        2.11573  -0.00000   0.00000  -0.00000  -0.00000   2.11573
   A40        1.83731  -0.00000   0.00000   0.00000   0.00000   1.83731
   A41        1.86225  -0.00000   0.00000  -0.00000  -0.00000   1.86225
   A42        1.90764   0.00000   0.00000  -0.00000  -0.00000   1.90764
   A43        2.08428   0.00000   0.00000   0.00000   0.00000   2.08428
   A44        2.17011  -0.00000   0.00000  -0.00000  -0.00000   2.17011
   A45        2.02414  -0.00000   0.00000  -0.00000  -0.00000   2.02414
   A46        2.21360  -0.00000   0.00000  -0.00000  -0.00000   2.21360
   A47        2.03479  -0.00000   0.00000  -0.00000  -0.00000   2.03479
   A48        2.03479   0.00000   0.00000   0.00000   0.00000   2.03479
   A49        2.08580  -0.00000   0.00000  -0.00000  -0.00000   2.08580
   A50        2.11120  -0.00000   0.00000   0.00000   0.00000   2.11120
   A51        2.08611   0.00000   0.00000   0.00000   0.00000   2.08611
   A52        2.08428  -0.00000   0.00000   0.00000   0.00000   2.08428
   A53        2.17011  -0.00000   0.00000  -0.00000  -0.00000   2.17011
   A54        2.02414   0.00000   0.00000   0.00000   0.00000   2.02414
   A55        2.13270  -0.00000   0.00000  -0.00000  -0.00000   2.13270
   A56        2.07524   0.00000   0.00000   0.00000   0.00000   2.07524
   A57        2.07524  -0.00000   0.00000   0.00000   0.00000   2.07524
   A58        2.08580   0.00000   0.00000   0.00000   0.00000   2.08580
   A59        2.11120   0.00000   0.00000  -0.00000  -0.00000   2.11120
   A60        2.08611  -0.00000   0.00000  -0.00000  -0.00000   2.08611
    D1        0.02442   0.00000   0.00000  -0.00000  -0.00000   0.02442
    D2        2.91157   0.00000   0.00000  -0.00000  -0.00000   2.91157
    D3       -2.88300  -0.00000   0.00000  -0.00000  -0.00000  -2.88300
    D4        0.00415  -0.00000   0.00000  -0.00000  -0.00000   0.00415
    D5        0.37338  -0.00000   0.00000   0.00000   0.00000   0.37338
    D6       -2.45230  -0.00000   0.00000  -0.00000  -0.00000  -2.45230
    D7       -3.00375   0.00000   0.00000  -0.00000  -0.00000  -3.00375
    D8        0.45375  -0.00000   0.00000  -0.00000  -0.00000   0.45375
    D9       -0.39592   0.00000   0.00000   0.00000   0.00000  -0.39592
   D10        2.42576   0.00000   0.00000   0.00000   0.00000   2.42576
   D11        3.00308   0.00000   0.00000   0.00000   0.00000   3.00308
   D12       -0.45842   0.00000   0.00000  -0.00000  -0.00000  -0.45842
   D13        0.37338  -0.00000   0.00000  -0.00000  -0.00000   0.37338
   D14       -3.00375  -0.00000   0.00000  -0.00000  -0.00000  -3.00375
   D15       -2.45230  -0.00000   0.00000   0.00000   0.00000  -2.45230
   D16        0.45375  -0.00000   0.00000  -0.00000  -0.00000   0.45375
   D17       -3.10045   0.00000   0.00000   0.00000   0.00000  -3.10045
   D18        1.12701   0.00000   0.00000   0.00000   0.00000   1.12701
   D19       -0.97237   0.00000   0.00000   0.00000   0.00000  -0.97237
   D20       -0.28995  -0.00000   0.00000  -0.00000  -0.00000  -0.28995
   D21       -2.34569   0.00000   0.00000   0.00000   0.00000  -2.34569
   D22        1.83812   0.00000   0.00000  -0.00000  -0.00000   1.83812
   D23        0.02442  -0.00000   0.00000  -0.00000  -0.00000   0.02442
   D24        2.91157   0.00000   0.00000   0.00000   0.00000   2.91157
   D25       -2.88300  -0.00000   0.00000  -0.00000  -0.00000  -2.88300
   D26        0.00415   0.00000   0.00000   0.00000   0.00000   0.00415
   D27       -0.39592   0.00000   0.00000   0.00000   0.00000  -0.39592
   D28        2.42576   0.00000   0.00000   0.00000   0.00000   2.42576
   D29        3.00308  -0.00000   0.00000  -0.00000  -0.00000   3.00308
   D30       -0.45842   0.00000   0.00000   0.00000   0.00000  -0.45842
   D31       -2.34569   0.00000   0.00000   0.00000   0.00000  -2.34569
   D32       -0.28995   0.00000   0.00000   0.00000   0.00000  -0.28995
   D33        1.83812   0.00000   0.00000   0.00000   0.00000   1.83812
   D34        1.12701   0.00000   0.00000  -0.00000  -0.00000   1.12701
   D35       -3.10045  -0.00000   0.00000  -0.00000  -0.00000  -3.10045
   D36       -0.97237   0.00000   0.00000  -0.00000  -0.00000  -0.97237
   D37        1.33841  -0.00000   0.00000   0.00000   0.00000   1.33841
   D38       -2.98832   0.00000   0.00000   0.00000   0.00000  -2.98832
   D39       -0.79138   0.00000   0.00000   0.00000   0.00000  -0.79138
   D40       -2.82055  -0.00000   0.00000   0.00000   0.00000  -2.82055
   D41       -0.86410  -0.00000   0.00000   0.00000   0.00000  -0.86410
   D42        1.33284   0.00000   0.00000   0.00000   0.00000   1.33284
   D43       -0.82289  -0.00000   0.00000   0.00000   0.00000  -0.82289
   D44        1.13356   0.00000   0.00000   0.00000   0.00000   1.13356
   D45       -2.95269   0.00000   0.00000   0.00000   0.00000  -2.95269
   D46        1.33841  -0.00000   0.00000   0.00000   0.00000   1.33841
   D47       -2.98832   0.00000   0.00000   0.00000   0.00000  -2.98832
   D48       -0.79138   0.00000   0.00000   0.00000   0.00000  -0.79138
   D49       -0.82289  -0.00000   0.00000   0.00000   0.00000  -0.82289
   D50        1.13356  -0.00000   0.00000   0.00000   0.00000   1.13356
   D51       -2.95269   0.00000   0.00000   0.00000   0.00000  -2.95269
   D52       -2.82055  -0.00000   0.00000   0.00000   0.00000  -2.82055
   D53       -0.86410  -0.00000   0.00000   0.00000   0.00000  -0.86410
   D54        1.33284   0.00000   0.00000   0.00000   0.00000   1.33284
   D55        0.61078  -0.00000   0.00000  -0.00000  -0.00000   0.61078
   D56       -2.63870  -0.00000   0.00000  -0.00000  -0.00000  -2.63870
   D57       -1.51756  -0.00000   0.00000  -0.00000  -0.00000  -1.51756
   D58        1.51615   0.00000   0.00000  -0.00000  -0.00000   1.51615
   D59        2.78724  -0.00000   0.00000  -0.00000  -0.00000   2.78724
   D60       -0.46224  -0.00000   0.00000  -0.00000  -0.00000  -0.46224
   D61        0.61078  -0.00000   0.00000  -0.00000  -0.00000   0.61078
   D62       -2.63870  -0.00000   0.00000  -0.00000  -0.00000  -2.63870
   D63       -1.51756  -0.00000   0.00000  -0.00000  -0.00000  -1.51756
   D64        1.51615  -0.00000   0.00000  -0.00000  -0.00000   1.51615
   D65        2.78724  -0.00000   0.00000  -0.00000  -0.00000   2.78724
   D66       -0.46224  -0.00000   0.00000  -0.00000  -0.00000  -0.46224
   D67        3.03373  -0.00000   0.00000   0.00000   0.00000   3.03373
   D68       -0.10786  -0.00000   0.00000   0.00000   0.00000  -0.10786
   D69       -0.00880  -0.00000   0.00000   0.00000   0.00000  -0.00880
   D70        3.13279  -0.00000   0.00000   0.00000   0.00000   3.13279
   D71       -3.01966  -0.00000   0.00000  -0.00000  -0.00000  -3.01966
   D72        0.10849  -0.00000   0.00000  -0.00000  -0.00000   0.10849
   D73        0.01742   0.00000   0.00000  -0.00000  -0.00000   0.01742
   D74       -3.13762   0.00000   0.00000  -0.00000  -0.00000  -3.13762
   D75        3.03373   0.00000   0.00000   0.00000   0.00000   3.03373
   D76       -0.00880   0.00000   0.00000   0.00000   0.00000  -0.00880
   D77       -0.10786   0.00000   0.00000   0.00000   0.00000  -0.10786
   D78        3.13279  -0.00000   0.00000   0.00000   0.00000   3.13279
   D79       -0.00920  -0.00000   0.00000   0.00000   0.00000  -0.00920
   D80        3.13239  -0.00000   0.00000   0.00000   0.00000   3.13239
   D81       -3.13755  -0.00000   0.00000  -0.00000  -0.00000  -3.13755
   D82        0.00404   0.00000   0.00000   0.00000   0.00000   0.00404
   D83       -3.01966  -0.00000   0.00000  -0.00000  -0.00000  -3.01966
   D84        0.10849  -0.00000   0.00000  -0.00000  -0.00000   0.10849
   D85        0.01742  -0.00000   0.00000  -0.00000  -0.00000   0.01742
   D86       -3.13762  -0.00000   0.00000  -0.00000  -0.00000  -3.13762
   D87       -0.00920   0.00000   0.00000   0.00000   0.00000  -0.00920
   D88       -3.13755   0.00000   0.00000   0.00000   0.00000  -3.13755
   D89        3.13239   0.00000   0.00000   0.00000   0.00000   3.13239
   D90        0.00404  -0.00000   0.00000  -0.00000  -0.00000   0.00404
         Item               Value     Threshold  Converged?
 Maximum Force            0.000000     0.000002     YES
 RMS     Force            0.000000     0.000001     YES
 Maximum Displacement     0.000000     0.000006     YES
 RMS     Displacement     0.000000     0.000004     YES
 Predicted change in Energy=-5.030142D-17
 Optimization completed.
    -- Stationary point found.
                           ----------------------------
                           !   Optimized Parameters   !
                           ! (Angstroms and Degrees)  !
 --------------------------                            --------------------------
 ! Name  Definition              Value          Derivative Info.                !
 --------------------------------------------------------------------------------
 ! R1    R(1,2)                  1.3968         -DE/DX =    0.0                 !
 ! R2    R(1,6)                  1.4081         -DE/DX =    0.0                 !
 ! R3    R(1,7)                  1.0874         -DE/DX =    0.0                 !
 ! R4    R(2,3)                  1.4069         -DE/DX =    0.0                 !
 ! R5    R(2,8)                  1.0875         -DE/DX =    0.0                 !
 ! R6    R(3,4)                  1.4081         -DE/DX =    0.0                 !
 ! R7    R(3,11)                 1.523          -DE/DX =    0.0                 !
 ! R8    R(4,5)                  1.3968         -DE/DX =    0.0                 !
 ! R9    R(4,9)                  1.0874         -DE/DX =    0.0                 !
 ! R10   R(5,6)                  1.4069         -DE/DX =    0.0                 !
 ! R11   R(5,10)                 1.0875         -DE/DX =    0.0                 !
 ! R12   R(6,14)                 1.523          -DE/DX =    0.0                 !
 ! R13   R(11,12)                1.0955         -DE/DX =    0.0                 !
 ! R14   R(11,13)                1.0976         -DE/DX =    0.0                 !
 ! R15   R(11,17)                1.5857         -DE/DX =    0.0                 !
 ! R16   R(14,15)                1.0976         -DE/DX =    0.0                 !
 ! R17   R(14,16)                1.0955         -DE/DX =    0.0                 !
 ! R18   R(14,20)                1.5857         -DE/DX =    0.0                 !
 ! R19   R(17,18)                1.0991         -DE/DX =    0.0                 !
 ! R20   R(17,19)                1.097          -DE/DX =    0.0                 !
 ! R21   R(17,26)                1.5357         -DE/DX =    0.0                 !
 ! R22   R(20,21)                1.0991         -DE/DX =    0.0                 !
 ! R23   R(20,22)                1.097          -DE/DX =    0.0                 !
 ! R24   R(20,23)                1.5357         -DE/DX =    0.0                 !
 ! R25   R(23,24)                1.3896         -DE/DX =    0.0                 !
 ! R26   R(23,25)                1.402          -DE/DX =    0.0                 !
 ! R27   R(24,26)                1.3896         -DE/DX =    0.0                 !
 ! R28   R(24,27)                1.0502         -DE/DX =    0.0                 !
 ! R29   R(25,28)                1.4025         -DE/DX =    0.0                 !
 ! R30   R(25,29)                1.0878         -DE/DX =    0.0                 !
 ! R31   R(26,30)                1.402          -DE/DX =    0.0                 !
 ! R32   R(28,30)                1.4025         -DE/DX =    0.0                 !
 ! R33   R(28,31)                1.0869         -DE/DX =    0.0                 !
 ! R34   R(30,32)                1.0878         -DE/DX =    0.0                 !
 ! A1    A(2,1,6)              120.3456         -DE/DX =    0.0                 !
 ! A2    A(2,1,7)              118.8514         -DE/DX =    0.0                 !
 ! A3    A(6,1,7)              119.4365         -DE/DX =    0.0                 !
 ! A4    A(1,2,3)              119.4439         -DE/DX =    0.0                 !
 ! A5    A(1,2,8)              118.8844         -DE/DX =    0.0                 !
 ! A6    A(3,2,8)              120.0332         -DE/DX =    0.0                 !
 ! A7    A(2,3,4)              116.3705         -DE/DX =    0.0                 !
 ! A8    A(2,3,11)             121.1011         -DE/DX =    0.0                 !
 ! A9    A(4,3,11)             119.9204         -DE/DX =    0.0                 !
 ! A10   A(3,4,5)              120.3456         -DE/DX =    0.0                 !
 ! A11   A(3,4,9)              119.4365         -DE/DX =    0.0                 !
 ! A12   A(5,4,9)              118.8514         -DE/DX =    0.0                 !
 ! A13   A(4,5,6)              119.4439         -DE/DX =    0.0                 !
 ! A14   A(4,5,10)             118.8844         -DE/DX =    0.0                 !
 ! A15   A(6,5,10)             120.0332         -DE/DX =    0.0                 !
 ! A16   A(1,6,5)              116.3705         -DE/DX =    0.0                 !
 ! A17   A(1,6,14)             119.9204         -DE/DX =    0.0                 !
 ! A18   A(5,6,14)             121.1011         -DE/DX =    0.0                 !
 ! A19   A(3,11,12)            108.6912         -DE/DX =    0.0                 !
 ! A20   A(3,11,13)            112.2398         -DE/DX =    0.0                 !
 ! A21   A(3,11,17)            114.028          -DE/DX =    0.0                 !
 ! A22   A(12,11,13)           106.7039         -DE/DX =    0.0                 !
 ! A23   A(12,11,17)           109.0917         -DE/DX =    0.0                 !
 ! A24   A(13,11,17)           105.7972         -DE/DX =    0.0                 !
 ! A25   A(6,14,15)            112.2398         -DE/DX =    0.0                 !
 ! A26   A(6,14,16)            108.6912         -DE/DX =    0.0                 !
 ! A27   A(6,14,20)            114.028          -DE/DX =    0.0                 !
 ! A28   A(15,14,16)           106.7039         -DE/DX =    0.0                 !
 ! A29   A(15,14,20)           105.7972         -DE/DX =    0.0                 !
 ! A30   A(16,14,20)           109.0917         -DE/DX =    0.0                 !
 ! A31   A(11,17,18)           106.5251         -DE/DX =    0.0                 !
 ! A32   A(11,17,19)           106.7479         -DE/DX =    0.0                 !
 ! A33   A(11,17,26)           121.2225         -DE/DX =    0.0                 !
 ! A34   A(18,17,19)           105.2702         -DE/DX =    0.0                 !
 ! A35   A(18,17,26)           106.6992         -DE/DX =    0.0                 !
 ! A36   A(19,17,26)           109.3            -DE/DX =    0.0                 !
 ! A37   A(14,20,21)           106.5251         -DE/DX =    0.0                 !
 ! A38   A(14,20,22)           106.7479         -DE/DX =    0.0                 !
 ! A39   A(14,20,23)           121.2225         -DE/DX =    0.0                 !
 ! A40   A(21,20,22)           105.2702         -DE/DX =    0.0                 !
 ! A41   A(21,20,23)           106.6992         -DE/DX =    0.0                 !
 ! A42   A(22,20,23)           109.3            -DE/DX =    0.0                 !
 ! A43   A(20,23,24)           119.4207         -DE/DX =    0.0                 !
 ! A44   A(20,23,25)           124.338          -DE/DX =    0.0                 !
 ! A45   A(24,23,25)           115.9744         -DE/DX =    0.0                 !
 ! A46   A(23,24,26)           126.8298         -DE/DX =    0.0                 !
 ! A47   A(23,24,27)           116.5851         -DE/DX =    0.0                 !
 ! A48   A(26,24,27)           116.5851         -DE/DX =    0.0                 !
 ! A49   A(23,25,28)           119.5073         -DE/DX =    0.0                 !
 ! A50   A(23,25,29)           120.9629         -DE/DX =    0.0                 !
 ! A51   A(28,25,29)           119.5253         -DE/DX =    0.0                 !
 ! A52   A(17,26,24)           119.4207         -DE/DX =    0.0                 !
 ! A53   A(17,26,30)           124.338          -DE/DX =    0.0                 !
 ! A54   A(24,26,30)           115.9744         -DE/DX =    0.0                 !
 ! A55   A(25,28,30)           122.1946         -DE/DX =    0.0                 !
 ! A56   A(25,28,31)           118.9027         -DE/DX =    0.0                 !
 ! A57   A(30,28,31)           118.9027         -DE/DX =    0.0                 !
 ! A58   A(26,30,28)           119.5073         -DE/DX =    0.0                 !
 ! A59   A(26,30,32)           120.9629         -DE/DX =    0.0                 !
 ! A60   A(28,30,32)           119.5253         -DE/DX =    0.0                 !
 ! D1    D(6,1,2,3)              1.3991         -DE/DX =    0.0                 !
 ! D2    D(6,1,2,8)            166.8205         -DE/DX =    0.0                 !
 ! D3    D(7,1,2,3)           -165.1838         -DE/DX =    0.0                 !
 ! D4    D(7,1,2,8)              0.2377         -DE/DX =    0.0                 !
 ! D5    D(2,1,6,5)             21.3929         -DE/DX =    0.0                 !
 ! D6    D(2,1,6,14)          -140.5067         -DE/DX =    0.0                 !
 ! D7    D(7,1,6,5)           -172.1024         -DE/DX =    0.0                 !
 ! D8    D(7,1,6,14)            25.9981         -DE/DX =    0.0                 !
 ! D9    D(1,2,3,4)            -22.6847         -DE/DX =    0.0                 !
 ! D10   D(1,2,3,11)           138.9859         -DE/DX =    0.0                 !
 ! D11   D(8,2,3,4)            172.0637         -DE/DX =    0.0                 !
 ! D12   D(8,2,3,11)           -26.2658         -DE/DX =    0.0                 !
 ! D13   D(2,3,4,5)             21.3929         -DE/DX =    0.0                 !
 ! D14   D(2,3,4,9)           -172.1024         -DE/DX =    0.0                 !
 ! D15   D(11,3,4,5)          -140.5067         -DE/DX =    0.0                 !
 ! D16   D(11,3,4,9)            25.9981         -DE/DX =    0.0                 !
 ! D17   D(2,3,11,12)         -177.6425         -DE/DX =    0.0                 !
 ! D18   D(2,3,11,13)           64.5728         -DE/DX =    0.0                 !
 ! D19   D(2,3,11,17)          -55.7129         -DE/DX =    0.0                 !
 ! D20   D(4,3,11,12)          -16.6131         -DE/DX =    0.0                 !
 ! D21   D(4,3,11,13)         -134.3979         -DE/DX =    0.0                 !
 ! D22   D(4,3,11,17)          105.3165         -DE/DX =    0.0                 !
 ! D23   D(3,4,5,6)              1.3991         -DE/DX =    0.0                 !
 ! D24   D(3,4,5,10)           166.8205         -DE/DX =    0.0                 !
 ! D25   D(9,4,5,6)           -165.1838         -DE/DX =    0.0                 !
 ! D26   D(9,4,5,10)             0.2377         -DE/DX =    0.0                 !
 ! D27   D(4,5,6,1)            -22.6847         -DE/DX =    0.0                 !
 ! D28   D(4,5,6,14)           138.9859         -DE/DX =    0.0                 !
 ! D29   D(10,5,6,1)           172.0637         -DE/DX =    0.0                 !
 ! D30   D(10,5,6,14)          -26.2658         -DE/DX =    0.0                 !
 ! D31   D(1,6,14,15)         -134.3979         -DE/DX =    0.0                 !
 ! D32   D(1,6,14,16)          -16.6131         -DE/DX =    0.0                 !
 ! D33   D(1,6,14,20)          105.3165         -DE/DX =    0.0                 !
 ! D34   D(5,6,14,15)           64.5728         -DE/DX =    0.0                 !
 ! D35   D(5,6,14,16)         -177.6425         -DE/DX =    0.0                 !
 ! D36   D(5,6,14,20)          -55.7129         -DE/DX =    0.0                 !
 ! D37   D(3,11,17,18)          76.6855         -DE/DX =    0.0                 !
 ! D38   D(3,11,17,19)        -171.2179         -DE/DX =    0.0                 !
 ! D39   D(3,11,17,26)         -45.3426         -DE/DX =    0.0                 !
 ! D40   D(12,11,17,18)       -161.6059         -DE/DX =    0.0                 !
 ! D41   D(12,11,17,19)        -49.5092         -DE/DX =    0.0                 !
 ! D42   D(12,11,17,26)         76.3661         -DE/DX =    0.0                 !
 ! D43   D(13,11,17,18)        -47.1484         -DE/DX =    0.0                 !
 ! D44   D(13,11,17,19)         64.9482         -DE/DX =    0.0                 !
 ! D45   D(13,11,17,26)       -169.1764         -DE/DX =    0.0                 !
 ! D46   D(6,14,20,21)          76.6855         -DE/DX =    0.0                 !
 ! D47   D(6,14,20,22)        -171.2179         -DE/DX =    0.0                 !
 ! D48   D(6,14,20,23)         -45.3426         -DE/DX =    0.0                 !
 ! D49   D(15,14,20,21)        -47.1484         -DE/DX =    0.0                 !
 ! D50   D(15,14,20,22)         64.9482         -DE/DX =    0.0                 !
 ! D51   D(15,14,20,23)       -169.1764         -DE/DX =    0.0                 !
 ! D52   D(16,14,20,21)       -161.6059         -DE/DX =    0.0                 !
 ! D53   D(16,14,20,22)        -49.5092         -DE/DX =    0.0                 !
 ! D54   D(16,14,20,23)         76.3661         -DE/DX =    0.0                 !
 ! D55   D(11,17,26,24)         34.9951         -DE/DX =    0.0                 !
 ! D56   D(11,17,26,30)       -151.1861         -DE/DX =    0.0                 !
 ! D57   D(18,17,26,24)        -86.9497         -DE/DX =    0.0                 !
 ! D58   D(18,17,26,30)         86.8691         -DE/DX =    0.0                 !
 ! D59   D(19,17,26,24)        159.697          -DE/DX =    0.0                 !
 ! D60   D(19,17,26,30)        -26.4842         -DE/DX =    0.0                 !
 ! D61   D(14,20,23,24)         34.9951         -DE/DX =    0.0                 !
 ! D62   D(14,20,23,25)       -151.1861         -DE/DX =    0.0                 !
 ! D63   D(21,20,23,24)        -86.9497         -DE/DX =    0.0                 !
 ! D64   D(21,20,23,25)         86.8691         -DE/DX =    0.0                 !
 ! D65   D(22,20,23,24)        159.697          -DE/DX =    0.0                 !
 ! D66   D(22,20,23,25)        -26.4842         -DE/DX =    0.0                 !
 ! D67   D(20,23,24,26)        173.8201         -DE/DX =    0.0                 !
 ! D68   D(20,23,24,27)         -6.1799         -DE/DX =    0.0                 !
 ! D69   D(25,23,24,26)         -0.5041         -DE/DX =    0.0                 !
 ! D70   D(25,23,24,27)        179.4959         -DE/DX =    0.0                 !
 ! D71   D(20,23,25,28)       -173.0138         -DE/DX =    0.0                 !
 ! D72   D(20,23,25,29)          6.2162         -DE/DX =    0.0                 !
 ! D73   D(24,23,25,28)          0.9978         -DE/DX =    0.0                 !
 ! D74   D(24,23,25,29)       -179.7721         -DE/DX =    0.0                 !
 ! D75   D(23,24,26,17)        173.8201         -DE/DX =    0.0                 !
 ! D76   D(23,24,26,30)         -0.5041         -DE/DX =    0.0                 !
 ! D77   D(27,24,26,17)         -6.1799         -DE/DX =    0.0                 !
 ! D78   D(27,24,26,30)        179.4959         -DE/DX =    0.0                 !
 ! D79   D(23,25,28,30)         -0.527          -DE/DX =    0.0                 !
 ! D80   D(23,25,28,31)        179.473          -DE/DX =    0.0                 !
 ! D81   D(29,25,28,30)       -179.7683         -DE/DX =    0.0                 !
 ! D82   D(29,25,28,31)          0.2317         -DE/DX =    0.0                 !
 ! D83   D(17,26,30,28)       -173.0138         -DE/DX =    0.0                 !
 ! D84   D(17,26,30,32)          6.2162         -DE/DX =    0.0                 !
 ! D85   D(24,26,30,28)          0.9978         -DE/DX =    0.0                 !
 ! D86   D(24,26,30,32)       -179.7721         -DE/DX =    0.0                 !
 ! D87   D(25,28,30,26)         -0.527          -DE/DX =    0.0                 !
 ! D88   D(25,28,30,32)       -179.7683         -DE/DX =    0.0                 !
 ! D89   D(31,28,30,26)        179.473          -DE/DX =    0.0                 !
 ! D90   D(31,28,30,32)          0.2317         -DE/DX =    0.0                 !
 --------------------------------------------------------------------------------
 GradGradGradGradGradGradGradGradGradGradGradGradGradGradGradGradGradGrad

 Leave Link  103 at Mon Jul 28 11:57:18 2025, MaxMem=  6174015488 cpu:               1.7 elap:               0.1
 (Enter /opt/linux/rocky/8/software/gaussian/16c01_avx2/g16/l9999.exe)

 ----------------------------------------------------------------------

 Electric dipole moment (input orientation):
 (Debye = 10**-18 statcoulomb cm , SI units = C m)
                  (au)            (Debye)         (10**-30 SI)
   Tot        0.141773D-01      0.360350D-01      0.120200D+00
   x         -0.141773D-01     -0.360350D-01     -0.120200D+00
   y          0.000000D+00      0.000000D+00      0.000000D+00
   z          0.000000D+00      0.000000D+00      0.000000D+00

 Dipole polarizability, Alpha (input orientation).
 (esu units = cm**3 , SI units = C**2 m**2 J**-1)
 Alpha(0;0):
               (au)            (10**-24 esu)      (10**-40 SI)
   iso        0.154336D+03      0.228703D+02      0.254466D+02
   aniso      0.655262D+02      0.970998D+01      0.108038D+02
   xx         0.157312D+03      0.233112D+02      0.259372D+02
   yx         0.196244D-04      0.290803D-05      0.323562D-05
   yy         0.190526D+03      0.282330D+02      0.314135D+02
   zx         0.000000D+00      0.000000D+00      0.000000D+00
   zy        -0.223864D+01     -0.331732D+00     -0.369102D+00
   zz         0.115171D+03      0.170666D+02      0.189892D+02

 ----------------------------------------------------------------------

 Dipole orientation:
     6         -2.40867304         -1.00596361          3.85125310
     6         -2.07080491          1.61165622          3.88064399
     6          0.34231847          2.62330425          3.40972617
     6          2.40867361          1.00597437          3.85124968
     6          2.07080548         -1.61164538          3.88064807
     6         -0.34231801         -2.62329475          3.40973369
     1         -4.31843136         -1.75820089          3.75507233
     1         -3.72652783          2.82707554          3.81403366
     1          4.31843191          1.75821137          3.75506633
     1          3.72652839         -2.82706489          3.81404079
     6          0.67821487          4.96798944          1.77496454
     1          2.70149125          5.36961844          1.59872479
     1         -0.19139306          6.64852241          2.62455675
     6         -0.67821480         -4.96798456          1.77497878
     1          0.19139334         -6.64851513          2.62457555
     1         -2.70149122         -5.36961407          1.59874065
     6         -0.51543319          4.72767430         -0.96298725
     1         -2.56669198          4.96114147         -0.73575040
     1          0.10781271          6.38930881         -2.03429740
     6          0.51543262         -4.72767719         -0.96297398
     1          2.56669146         -4.96114371         -0.73573695
     1         -0.10781354         -6.38931473         -2.03427927
     6          0.12052334         -2.34528707         -2.57241774
     6         -0.00000034         -0.00000206         -1.39720482
     6          0.09814782         -2.31820818         -5.22160327
     6         -0.12052429          2.34527962         -2.57242436
     1         -0.00000010          0.00000075          0.58740497
     6         -0.00000094         -0.00000930         -6.50261045
     1          0.17946066         -4.06773115         -6.29787696
     6         -0.09814940          2.31819322         -5.22160981
     1         -0.00000118         -0.00001221         -8.55651781
     1         -0.17946250          4.06771314         -6.29788844

 Electric dipole moment (dipole orientation):
 (Debye = 10**-18 statcoulomb cm , SI units = C m)
                  (au)            (Debye)         (10**-30 SI)
   Tot        0.141773D-01      0.360350D-01      0.120200D+00
   x          0.000000D+00      0.000000D+00      0.000000D+00
   y          0.000000D+00      0.000000D+00      0.000000D+00
   z          0.141773D-01      0.360350D-01      0.120200D+00

 Dipole polarizability, Alpha (dipole orientation).
 (esu units = cm**3 , SI units = C**2 m**2 J**-1)
 Alpha(0;0):
               (au)            (10**-24 esu)      (10**-40 SI)
   iso        0.154336D+03      0.228703D+02      0.254466D+02
   aniso      0.655262D+02      0.970998D+01      0.108038D+02
   xx         0.115171D+03      0.170666D+02      0.189892D+02
   yx        -0.223870D+01     -0.331741D+00     -0.369112D+00
   yy         0.190526D+03      0.282330D+02      0.314135D+02
   zx         0.000000D+00      0.000000D+00      0.000000D+00
   zy        -0.468603D-04     -0.694398D-05     -0.772622D-05
   zz         0.157312D+03      0.233112D+02      0.259372D+02

 ----------------------------------------------------------------------
 Unable to Open any file for archive entry.
 1\1\GINC-A003\Freq\RB3LYP\6-31G(d,p)\C16H16\DJO04747\28-Jul-2025\0\\#P
  Geom=AllCheck Guess=TCheck SCRF=Check GenChk RB3LYP/6-31G(d,p) Freq\\
 Title Card Required\\0,1\C,-2.0379948993,-0.5323336466,-1.2746153806\C
 ,-2.053549031,0.8528509559,-1.0958221248\C,-1.8043505301,1.3881911969,
 0.1811482221\C,-2.0379940387,0.5323359893,1.2746155611\C,-2.0535498516
 ,-0.8528485949,1.0958223092\C,-1.8043522153,-1.3881891335,-0.181148082
 8\H,-1.9870978721,-0.9303995961,-2.2852162875\H,-2.0183008683,1.496023
 9106,-1.9719924341\H,-1.9870963583,0.9304018776,2.285216459\H,-2.01830
 2298,-1.496021592,1.9719926123\C,-0.9392729571,2.6289457263,0.35889798
 78\H,-0.8460111054,2.84147784,1.4295699177\H,-1.3888585112,3.518245489
 1,-0.1012779969\C,-0.9392761489,-2.6289446926,-0.3588980026\H,-1.38886
 26799,-3.5182439206,0.1012780618\H,-0.8460147408,-2.8414769165,-1.4295
 699494\C,0.509588861,2.5017781422,-0.2727534262\H,0.3893402268,2.62532
 44405,-1.3582327334\H,1.0765010441,3.3810774536,0.0570548396\C,0.50958
 59326,-2.501778833,0.2727531539\H,0.3893373443,-2.6253249889,1.3582324
 827\H,1.0764970108,-3.3810788191,-0.0570552133\C,1.3612658642,-1.24107
 14025,0.0637772264\C,0.7393689506,-0.0000004829,-0.0000001561\C,2.7631
 544604,-1.2267407103,0.0519366623\C,1.361267329,1.2410696986,-0.063777
 6493\H,-0.3108413254,0.0000001434,-0.0000000629\C,3.4410332617,-0.0000
 020938,-0.0000003961\H,3.3326947317,-2.1525479635,0.0949648219\C,2.763
 1559098,1.2267373388,-0.0519373342\H,4.5279142298,-0.0000027419,-0.000
 0004927\H,3.3326972745,2.1525439144,-0.094965595\\Version=ES64L-G16Rev
 C.01\State=1-A\HF=-619.311272\RMSD=2.824e-11\RMSF=8.446e-07\ZeroPoint=
 0.274674\Thermal=0.2858096\ETot=-619.0254624\HTot=-619.0245182\GTot=-6
 19.0723853\Dipole=-0.0141773,0.,0.\DipoleDeriv=-0.2343819,0.0852592,0.
 006025,0.0880144,-0.0243719,0.0217469,0.0282931,0.1024496,0.1069747,-0
 .2282536,-0.0838676,-0.0198596,-0.097247,0.0003662,-0.0476799,-0.01560
 27,-0.1165738,0.070323,0.112132,0.3165759,0.0402897,0.1695116,-0.03933
 52,0.0023677,0.0370143,-0.0484378,-0.1003048,-0.2343821,-0.0852589,-0.
 0060249,-0.0880141,-0.0243717,0.0217469,-0.0282929,0.1024496,0.1069747
 ,-0.2282533,0.0838678,0.0198596,0.0972472,0.000366,-0.04768,0.0156026,
 -0.1165739,0.070323,0.1121315,-0.3165761,-0.0402898,-0.1695118,-0.0393
 346,0.0023678,-0.0370144,-0.0484377,-0.1003048,0.1076288,0.0676265,0.0
 340815,-0.0114717,0.0343948,-0.065513,-0.0191327,-0.0607153,-0.0657915
 ,0.1156538,-0.0650469,0.0206169,0.0208179,-0.0014335,0.0803226,-0.0137
 832,0.079742,-0.0316276,0.1076288,-0.0676266,-0.0340816,0.0114716,0.03
 43949,-0.065513,0.0191326,-0.0607153,-0.0657915,0.1156539,0.0650467,-0
 .0206168,-0.020818,-0.0014335,0.0803226,0.0137833,0.079742,-0.0316276,
 0.1096934,-0.0694239,0.0174957,-0.0011145,0.2347806,-0.0054863,0.02097
 72,0.0984094,0.1695123,0.0021409,-0.0260844,0.0070629,-0.0165159,0.020
 1062,0.000958,0.0244988,-0.0861926,-0.1347961,-0.0384316,0.0633856,-0.
 0249045,0.0483644,-0.1639071,0.0340837,-0.0339377,0.0875889,0.0212039,
 0.1096935,0.0694241,-0.0174957,0.0011146,0.2347805,-0.0054863,-0.02097
 71,0.0984094,0.1695123,-0.0384317,-0.0633858,0.0249046,-0.0483645,-0.1
 639069,0.0340837,0.0339378,0.0875888,0.0212039,0.0021409,0.0260844,-0.
 0070629,0.0165159,0.0201061,0.000958,-0.0244989,-0.0861926,-0.1347961,
 0.1749736,0.0296243,0.013771,-0.0335304,0.1061477,0.0086103,-0.1049464
 ,0.0093738,0.1253823,-0.0304626,0.0941794,-0.0382667,0.0717725,-0.0205
 017,0.0081553,-0.0030547,0.0487771,-0.1228924,-0.0837872,-0.1341214,-0
 .0152956,-0.0390313,-0.1206262,-0.0335928,0.0022189,-0.0464658,0.04809
 84,0.1749736,-0.0296244,-0.013771,0.0335303,0.1061477,0.0086103,0.1049
 464,0.0093737,0.1253823,-0.0304627,-0.0941794,0.0382667,-0.0717725,-0.
 0205015,0.0081552,0.0030547,0.0487771,-0.1228924,-0.083787,0.1341214,0
 .0152956,0.0390312,-0.1206264,-0.0335928,-0.0022189,-0.0464658,0.04809
 84,0.0001457,0.0680114,-0.0313593,0.2148853,0.1262007,-0.0282204,-0.12
 21543,-0.1117017,-0.0166108,-0.0721454,0.,0.,0.,-0.1996195,0.0305354,0
 .,0.0547361,-0.1043865,-0.0303943,-0.0939413,0.0044591,-0.1462139,0.03
 43955,-0.006729,0.0127062,0.0018156,-0.124344,0.0001454,-0.0680113,0.0
 313593,-0.2148852,0.126201,-0.0282204,0.1221542,-0.1117019,-0.0166108,
 0.1628965,0.,0.,0.,0.0082098,0.0090487,0.,0.0114207,0.0280166,0.096097
 6,0.,0.,-0.0000001,-0.0497991,0.0061345,0.,0.0064847,-0.1115122,0.0085
 216,0.0678562,-0.0039106,0.1022796,-0.0902738,0.006999,-0.0037286,0.00
 86991,0.0969071,-0.0303941,0.0939414,-0.0044591,0.146214,0.0343952,-0.
 006729,-0.0127063,0.0018156,-0.124344,-0.1572054,0.0000001,0.,0.000000
 1,0.0493233,0.0022375,0.,-0.006178,0.1038133,0.0085214,-0.0678564,0.00
 39106,-0.1022798,-0.0902736,0.006999,0.0037286,0.0086991,0.0969071\Pol
 ar=157.3116784,0.0000196,190.525881,-0.0000051,-2.2386396,115.1713426\
 Quadrupole=-4.4766221,4.5566743,-0.0800522,0.0000054,0.,-0.6232075\PG=
 C01 [X(C16H16)]\NImag=1\\0.15510177,-0.06439523,0.64543038,0.02980007,
 0.04018099,0.70140461,-0.04964079,-0.00990705,0.00711678,0.15635606,0.
 01305909,-0.32564458,-0.06327697,0.04608747,0.66808564,0.00961462,0.01
 196443,-0.12596149,0.05190434,-0.04874517,0.67848675,0.00275775,-0.004
 79762,-0.00695652,-0.06917816,-0.03277086,-0.04626972,0.23776909,-0.00
 266866,-0.01509434,-0.03091334,-0.02359747,-0.14252562,-0.08520644,0.1
 3886852,0.55407750,-0.00518188,-0.08479937,0.01934238,-0.04571195,-0.0
 2553017,-0.27493062,0.02279076,-0.01115884,0.63747334,-0.00557330,-0.0
 0036770,-0.00196841,0.00498640,-0.00051932,-0.00731978,-0.06813839,-0.
 03596706,0.03350100,0.15510191,0.00036764,-0.05550523,0.02017748,-0.00
 330280,0.06020725,0.03712538,-0.04278511,-0.17936367,0.05050462,0.0643
 9582,0.64543023,0.00196844,0.02017748,-0.01007479,0.00720422,-0.005970
 46,-0.05376104,0.03399294,0.11407141,-0.23537227,-0.02979993,0.0401810
 1,0.70140462,0.00498641,0.00330287,-0.00720424,-0.00492425,-0.00017455
 ,-0.00234309,0.00281660,-0.00338286,0.00587286,-0.04964080,0.00990672,
 -0.00711687,0.15635594,0.00051939,0.06020725,-0.00597045,0.00017450,-0
 .04136623,-0.02903035,-0.00561146,-0.03911233,0.06716315,-0.01305943,-
 0.32564458,-0.06327696,-0.04608687,0.66808575,0.00731981,0.03712537,-0
 .05376104,0.00234306,-0.02903035,-0.02297294,0.00605827,0.01481008,0.0
 4458241,-0.00961462,0.01196444,-0.12596149,-0.05190430,-0.04874510,0.6
 7848677,-0.06813831,0.04278498,-0.03399283,0.00281661,0.00561142,-0.00
 605825,-0.00926002,-0.00261827,-0.00006208,0.00275776,0.00479758,0.006
 95649,-0.06917808,0.03277077,0.04626958,0.23776875,0.03596694,-0.17936
 376,0.11407144,0.00338281,-0.03911234,0.01481009,0.00261828,-0.0017356
 4,0.00778269,0.00266863,-0.01509435,-0.03091335,0.02359737,-0.14252569
 ,-0.08520650,-0.13886814,0.55407782,-0.03350097,0.05050465,-0.23537226
 ,-0.00587277,0.06716316,0.04458241,0.00006208,0.00778269,-0.06679054,0
 .00518178,-0.08479938,0.01934238,0.04571188,-0.02553023,-0.27493063,-0
 .02279070,-0.01115878,0.63747334,-0.03709589,0.01944629,0.00924009,0.0
 0171043,-0.00640508,0.00002827,0.00769237,-0.00046781,0.00345566,-0.00
 086248,0.00468322,-0.00102072,0.00496481,-0.00017673,-0.00431881,0.003
 45245,-0.00459708,0.00492034,0.02591637,0.01009764,-0.09071451,-0.0943
 5700,0.00153738,-0.00958007,-0.03106554,-0.00041805,-0.00550496,0.0019
 6698,0.00022547,0.00007568,0.00036964,0.00165266,-0.00257782,0.0024432
 1,-0.00063626,0.00881133,0.01928975,-0.01011226,0.09715973,0.00947327,
 -0.09443879,-0.29712033,0.00004051,0.00111524,-0.00057899,0.00015925,-
 0.00025897,0.00177519,0.00003087,0.00061270,0.00058541,-0.00143012,0.0
 0423429,-0.00226061,0.00209929,-0.01124536,-0.01957869,-0.01160239,0.1
 0110956,0.31559899,0.00157777,0.00632556,0.00148326,-0.03663029,-0.018
 27400,0.00072760,0.00377983,0.00426786,0.00516618,0.00543613,0.0007090
 6,-0.00418536,-0.00087942,-0.00407857,-0.00184209,0.00749352,-0.000141
 64,0.00342440,-0.00421932,-0.00015226,-0.00018460,0.02537019,-0.001454
 68,-0.01606549,0.02723018,-0.00946165,-0.15185602,0.13159580,0.0007187
 0,0.01054302,-0.01141942,-0.00127688,-0.00074611,-0.00225925,-0.000206
 16,0.00019577,-0.00058596,0.00066070,-0.00454864,-0.00337043,0.0000665
 8,0.00107721,-0.00019240,0.00956822,0.16072404,-0.00028709,-0.00529830
 ,0.00617116,0.00329603,0.13311967,-0.23729424,0.00222329,0.01922335,-0
 .01927108,-0.00208916,-0.00386165,-0.00370908,-0.00002626,-0.00050610,
 0.00029363,0.00017905,-0.00141353,0.00089729,-0.00006102,0.00020253,0.
 00095864,-0.00491940,-0.14210916,0.25146744,-0.00086249,-0.00468322,0.
 00102072,0.00496481,0.00017673,0.00431881,0.00345246,0.00459708,-0.004
 92032,-0.03709593,-0.01944637,-0.00924025,0.00171043,0.00640507,-0.000
 02831,0.00769237,0.00046779,-0.00345566,-0.00051388,-0.00011780,0.0000
 1282,0.00082923,0.00033302,0.00049975,0.02591639,-0.00022547,0.0000756
 9,0.00036964,-0.00165266,-0.00257782,0.00244321,0.00063627,0.00881133,
 0.01928975,-0.01009772,-0.09071447,-0.09435698,-0.00153740,-0.00958008
 ,-0.03106554,0.00041804,-0.00550497,0.00196699,0.00011780,0.00011668,-
 0.00011088,0.00046340,0.00039395,0.00091711,0.01011236,0.09715971,-0.0
 0003087,0.00061270,0.00058541,0.00143012,0.00423429,-0.00226061,-0.002
 09931,-0.01124536,-0.01957869,-0.00947343,-0.09443878,-0.29712033,-0.0
 0004050,0.00111524,-0.00057899,-0.00015925,-0.00025897,0.00177520,-0.0
 0001282,-0.00011088,-0.00005538,-0.00045180,-0.00058613,-0.00104347,0.
 01160256,0.10110954,0.31559899,0.00543613,-0.00070907,0.00418536,-0.00
 087941,0.00407857,0.00184209,0.00749352,0.00014162,-0.00342441,0.00157
 776,-0.00632558,-0.00148323,-0.03663026,0.01827388,-0.00072748,0.00377
 982,-0.00426784,-0.00516620,0.00082923,-0.00046340,0.00045180,-0.00071
 958,0.00013524,0.00008575,-0.00421932,0.00015227,0.00018460,0.02537017
 ,0.00127687,-0.00074612,-0.00225925,0.00020616,0.00019577,-0.00058597,
 -0.00066072,-0.00454864,-0.00337042,0.00145467,-0.01606548,0.02723018,
 0.00946154,-0.15185605,0.13159580,-0.00071869,0.01054302,-0.01141941,-
 0.00033302,0.00039395,-0.00058613,-0.00013524,0.00008120,0.00015283,-0
 .00006657,0.00107721,-0.00019240,-0.00956809,0.16072407,0.00208916,-0.
 00386166,-0.00370908,0.00002626,-0.00050610,0.00029363,-0.00017905,-0.
 00141353,0.00089729,0.00028708,-0.00529830,0.00617116,-0.00329591,0.13
 311967,-0.23729423,-0.00222327,0.01922335,-0.01927108,-0.00049975,0.00
 091711,-0.00104347,-0.00008575,0.00015283,0.00001816,0.00006103,0.0002
 0253,0.00095864,0.00491927,-0.14210916,0.25146743,0.00421052,0.0046984
 6,-0.00099026,-0.00406494,-0.00862525,-0.00488683,-0.09569251,-0.05747
 235,-0.00767310,-0.00019723,-0.00751003,0.00110024,0.00494095,0.000653
 46,0.00014621,0.00004770,0.00017268,0.00156780,0.00021349,-0.00009604,
 0.00018817,-0.00240588,0.00032135,0.00107133,-0.00267102,0.00137908,-0
 .00146713,0.00029059,-0.00018645,-0.00020180,0.37333560,-0.00350744,0.
 00302796,-0.00015292,-0.00924278,-0.01130071,-0.00912107,-0.04709157,-
 0.15171275,-0.00669274,-0.01263819,-0.02254027,0.00247939,-0.00514109,
 0.00143443,0.00165477,0.00147425,-0.00180159,0.00024728,-0.00039734,0.
 00035025,0.00015890,0.00204639,0.00069047,0.00091869,0.00291992,0.0008
 1992,-0.00140996,-0.00008599,0.00008219,-0.00012479,-0.02012316,0.5275
 0662,-0.00198657,-0.00130303,-0.00600127,-0.01181157,-0.02901256,0.000
 85681,-0.01422682,-0.01360169,-0.09144303,0.01065141,0.02194166,0.0070
 8236,-0.00038888,0.00156878,-0.00387116,0.00050351,0.00089710,-0.00041
 625,0.00104659,-0.00135546,-0.00012611,0.00033715,0.00012202,0.0008842
 9,0.00124269,0.00127589,0.00032009,-0.00072036,0.00126688,0.00013367,0
 .04986605,-0.02250394,0.58243830,0.00004488,-0.00006453,-0.00102349,-0
 .00048533,-0.00412543,0.00080375,-0.00321364,-0.00411990,-0.01939932,-
 0.00013554,0.00096350,-0.00107802,0.00009279,0.00003266,0.00008444,-0.
 00009941,0.00003211,-0.00003818,0.00009490,-0.00035071,-0.00006544,-0.
 00011806,0.00017686,0.00019700,0.00014889,-0.00017965,0.00071688,-0.00
 005773,0.00001150,0.00000983,-0.04869967,-0.00319417,-0.02363017,0.056
 60035,-0.00031262,0.00065588,-0.00145754,-0.00265135,-0.00491908,0.000
 89820,-0.00420074,-0.00717550,-0.02721830,0.00007585,0.00143353,-0.001
 80198,0.00024268,-0.00036571,-0.00016437,-0.00025375,0.00000184,0.0004
 8884,0.00033977,-0.00034699,-0.00006492,0.00002895,0.00002741,-0.00015
 582,-0.00016239,-0.00006756,0.00095060,0.00001450,0.00002515,0.0000191
 0,-0.00331944,-0.05877534,-0.04561523,0.00957392,0.06298853,-0.0003049
 1,0.00053316,-0.00022567,-0.00001265,-0.00124057,0.00076720,-0.0007211
 1,-0.00057115,-0.00420349,0.00064182,0.00231769,0.00057822,0.00020627,
 -0.00041639,0.00015358,-0.00014678,-0.00005487,0.00027227,0.00000458,-
 0.00011363,-0.00000462,0.00011018,0.00012125,0.00018684,0.00000340,-0.
 00048133,0.00073683,0.00001614,-0.00004472,0.00000188,-0.02563480,-0.0
 4763984,-0.29822366,0.02412229,0.05115536,0.32245545,-0.00013214,-0.00
 043029,0.00047828,0.00006310,0.00118789,0.00054861,0.00866652,-0.01656
 271,0.01024774,-0.00111340,-0.00260099,-0.00091675,-0.00067126,-0.0003
 4850,0.00031730,-0.00024277,-0.00034037,-0.00019986,-0.00001946,0.0000
 4859,-0.00002724,0.00027109,0.00028853,-0.00019708,0.00024066,-0.00006
 057,0.00010083,0.00007989,-0.00016094,0.00003575,-0.08661310,0.0835633
 9,-0.04812320,-0.00148439,0.00194558,-0.00132583,0.10025662,-0.0003460
 2,-0.00068540,0.00030616,-0.00087294,0.00188745,0.00138887,0.00757822,
 -0.02026918,0.01232788,-0.00092271,-0.00338299,-0.00220237,-0.00083892
 ,-0.00024009,0.00045590,-0.00034542,-0.00026882,-0.00033576,0.00000402
 ,0.00003043,-0.00004332,0.00056249,-0.00012217,-0.00087169,0.00027516,
 -0.00002215,0.00010358,0.00006893,-0.00025867,0.00002157,0.08523976,-0
 .21303479,0.08746892,-0.00298414,0.00611054,-0.00241033,-0.09021179,0.
 23122499,0.00026001,0.00109528,0.00008564,-0.00046715,-0.00070647,-0.0
 0043983,0.00459773,-0.00274958,0.00260087,-0.00011592,0.00082611,0.000
 47541,0.00031793,-0.00019929,-0.00019779,0.00012911,-0.00039553,0.0005
 1999,-0.00010935,0.00004284,0.00001102,-0.00032106,0.00027833,-0.00005
 211,-0.00027024,0.00003608,0.00028480,-0.00004649,0.00001260,-0.000020
 77,-0.04950777,0.08605886,-0.09660439,-0.01314820,0.02600413,-0.012480
 26,0.04737318,-0.09743579,0.10098603,-0.00019721,0.00751000,-0.0011002
 3,0.00494096,-0.00065347,-0.00014620,0.00004770,-0.00017268,-0.0015678
 0,0.00421051,-0.00469846,0.00099026,-0.00406491,0.00862524,0.00488682,
 -0.09569238,0.05747228,0.00767309,-0.00267102,-0.00137907,0.00146713,0
 .00029060,0.00018645,0.00020180,0.00021349,0.00009604,-0.00018817,-0.0
 0240588,-0.00032135,-0.00107133,-0.00066810,0.00050541,0.00011097,-0.0
 0000387,-0.00001870,0.00001855,-0.00001178,0.00005087,-0.00012909,0.37
 333563,0.01263817,-0.02254029,0.00247939,0.00514108,0.00143443,0.00165
 476,-0.00147426,-0.00180158,0.00024728,0.00350744,0.00302796,-0.000152
 93,0.00924277,-0.01130073,-0.00912107,0.04709151,-0.15171287,-0.006692
 76,-0.00291991,0.00081992,-0.00140996,0.00008599,0.00008219,-0.0001247
 9,0.00039734,0.00035025,0.00015890,-0.00204639,0.00069047,0.00091870,-
 0.00050540,0.00054274,-0.00015004,0.00002545,0.00001011,0.00005115,0.0
 0011060,0.00017065,-0.00007675,0.02012334,0.52750658,-0.01065138,0.021
 94167,0.00708236,0.00038888,0.00156878,-0.00387116,-0.00050350,0.00089
 710,-0.00041625,0.00198656,-0.00130304,-0.00600127,0.01181153,-0.02901
 258,0.00085680,0.01422681,-0.01360171,-0.09144304,-0.00124269,0.001275
 89,0.00032009,0.00072036,0.00126688,0.00013367,-0.00104659,-0.00135545
 ,-0.00012611,-0.00033715,0.00012202,0.00088429,-0.00011097,-0.00015004
 ,-0.00006993,0.00008287,0.00009846,0.00011172,0.00002965,0.00008471,0.
 00002147,-0.04986604,-0.02250389,0.58243832,-0.00111340,0.00260099,0.0
 0091675,-0.00067125,0.00034850,-0.00031730,-0.00024277,0.00034037,0.00
 019986,-0.00013214,0.00043029,-0.00047828,0.00006310,-0.00118789,-0.00
 054861,0.00866653,0.01656268,-0.01024772,0.00024066,0.00006057,-0.0001
 0083,0.00007989,0.00016094,-0.00003575,-0.00001946,-0.00004859,0.00002
 724,0.00027109,-0.00028854,0.00019708,-0.00001178,-0.00011060,-0.00002
 965,0.00002899,0.00002812,0.00000357,0.00006898,0.00004485,0.00001744,
 -0.08661329,-0.08356353,0.04812330,0.10025682,0.00092271,-0.00338300,-
 0.00220237,0.00083892,-0.00024009,0.00045590,0.00034542,-0.00026882,-0
 .00033576,0.00034602,-0.00068540,0.00030617,0.00087295,0.00188745,0.00
 138887,-0.00757825,-0.02026919,0.01232789,-0.00027516,-0.00002215,0.00
 010358,-0.00006893,-0.00025867,0.00002157,-0.00000402,0.00003043,-0.00
 004332,-0.00056249,-0.00012217,-0.00087169,-0.00005087,0.00017065,0.00
 008471,-0.00003555,-0.00003518,-0.00003391,-0.00004485,-0.00007039,-0.
 00002247,-0.08523990,-0.21303458,0.08746887,0.09021193,0.23122478,0.00
 011592,0.00082611,0.00047541,-0.00031793,-0.00019929,-0.00019779,-0.00
 012911,-0.00039553,0.00051999,-0.00026001,0.00109528,0.00008564,0.0004
 6715,-0.00070647,-0.00043983,-0.00459773,-0.00274958,0.00260088,0.0002
 7025,0.00003608,0.00028480,0.00004649,0.00001260,-0.00002077,0.0001093
 5,0.00004284,0.00001102,0.00032106,0.00027833,-0.00005211,0.00012909,-
 0.00007675,0.00002147,0.00000664,-0.00000096,0.00000065,-0.00001744,-0
 .00002247,-0.00002792,0.04950787,0.08605881,-0.09660441,-0.04737329,-0
 .09743575,0.10098605,-0.00013554,-0.00096349,0.00107802,0.00009279,-0.
 00003266,-0.00008444,-0.00009941,-0.00003211,0.00003818,0.00004488,0.0
 0006453,0.00102349,-0.00048532,0.00412543,-0.00080375,-0.00321363,0.00
 411990,0.01939929,0.00014889,0.00017965,-0.00071688,-0.00005773,-0.000
 01150,-0.00000983,0.00009490,0.00035071,0.00006544,-0.00011806,-0.0001
 7686,-0.00019700,-0.00000387,-0.00002545,-0.00008287,-0.00001037,-0.00
 000920,-0.00001035,0.00002899,0.00003555,-0.00000664,-0.04869965,0.003
 19415,0.02363008,-0.00148439,0.00298415,0.01314822,0.05660032,-0.00007
 585,0.00143353,-0.00180198,-0.00024268,-0.00036571,-0.00016437,0.00025
 375,0.00000184,0.00048884,0.00031262,0.00065588,-0.00145754,0.00265135
 ,-0.00491909,0.00089820,0.00420073,-0.00717551,-0.02721833,0.00016239,
 -0.00006756,0.00095060,-0.00001450,0.00002515,0.00001910,-0.00033977,-
 0.00034699,-0.00006492,-0.00002895,0.00002741,-0.00015582,0.00001870,0
 .00001011,0.00009846,0.00000920,0.00001123,0.00002339,-0.00002812,-0.0
 0003518,-0.00000096,0.00331942,-0.05877534,-0.04561526,-0.00194556,0.0
 0611053,0.02600412,-0.00957391,0.06298855,-0.00064182,0.00231769,0.000
 57822,-0.00020627,-0.00041639,0.00015358,0.00014678,-0.00005487,0.0002
 7227,0.00030491,0.00053316,-0.00022567,0.00001265,-0.00124057,0.000767
 20,0.00072111,-0.00057115,-0.00420349,-0.00000340,-0.00048133,0.000736
 83,-0.00001614,-0.00004472,0.00000188,-0.00000458,-0.00011363,-0.00000
 462,-0.00011018,0.00012125,0.00018684,-0.00001855,0.00005115,0.0001117
 2,0.00001035,0.00002339,-0.00001064,-0.00000357,-0.00003391,0.00000065
 ,0.02563470,-0.04763987,-0.29822367,0.00132583,-0.00241034,-0.01248026
 ,-0.02412218,0.05115539,0.32245546,0.00006949,-0.00136047,0.00058434,0
 .00133173,0.00138768,0.00215572,-0.02128143,-0.01163439,0.00386365,-0.
 00060170,0.00203797,-0.00206754,-0.00004179,-0.00036821,-0.00011798,-0
 .00034726,0.00046582,-0.00016188,-0.00006700,0.00005348,0.00005778,0.0
 0006260,-0.00018041,-0.00006973,0.00012970,0.00000466,0.00021392,0.000
 11652,0.00004842,-0.00006310,-0.10959581,0.01096154,0.02205071,0.00040
 270,-0.00069427,-0.00004349,-0.01635891,0.00258352,0.00918949,0.000134
 16,-0.00034041,0.00001616,-0.00011796,0.00006526,-0.00003450,-0.000040
 48,0.00002769,-0.00001663,0.42833619,0.00152502,0.00074304,0.00003773,
 -0.00133184,-0.00010981,0.00043214,-0.02460336,0.00022905,0.01100889,-
 0.00057560,-0.00050876,-0.00215408,0.00174997,-0.00142495,-0.00004575,
 -0.00085043,-0.00032646,0.00072290,-0.00004793,-0.00011059,-0.00005772
 ,-0.00032711,0.00004826,0.00003561,-0.00062893,0.00015357,0.00004905,0
 .00023535,-0.00034906,0.00000927,-0.00057627,-0.07638305,0.00028330,0.
 00424200,-0.00095902,-0.00125406,0.02509150,-0.00299866,-0.01206307,-0
 .00010836,0.00011695,0.00007347,0.00011612,-0.00008827,0.00003637,0.00
 003864,-0.00005434,-0.00001867,0.05326499,0.51974274,0.00064555,0.0014
 9661,-0.00040082,-0.00201397,-0.00267890,0.00000196,-0.00196897,0.0045
 6460,0.00306381,-0.00066485,-0.00019597,-0.00083230,0.00055280,-0.0006
 2037,-0.00026427,-0.00078346,-0.00076592,0.00064579,-0.00002179,-0.000
 15631,-0.00008845,-0.00049061,0.00012553,-0.00023886,0.00003627,-0.000
 05603,0.00027907,0.00017033,-0.00012402,0.00003481,0.02243883,-0.00608
 860,-0.08720582,0.03014212,-0.00324463,-0.01146476,-0.01014081,0.00194
 264,0.00372920,-0.00014649,0.00030527,0.00013719,0.00010160,-0.0000943
 5,0.00001373,0.00003218,-0.00006349,-0.00003861,0.04564604,0.02546438,
 0.51969684,0.00030783,-0.00034352,-0.00011943,-0.00007745,0.00018097,0
 .00002317,0.00167345,0.00158157,0.00004878,0.00032163,-0.00059722,0.00
 038241,0.00015205,0.00015654,0.00000092,-0.00008154,-0.00002279,-0.000
 28798,0.00001962,-0.00002130,0.00000120,-0.00054723,-0.00012582,-0.000
 27276,-0.00009871,0.00006581,-0.00021203,-0.00002985,-0.00003082,0.000
 00865,-0.00290318,-0.00065482,0.03218156,-0.00558957,0.00016569,0.0027
 7681,0.00169939,-0.00039716,-0.00021121,-0.00007054,-0.00001234,-0.000
 04830,0.00004030,-0.00001017,0.00000885,0.00001533,-0.00000578,0.00001
 097,-0.04583834,-0.00038764,-0.03244492,0.05802499,0.00008370,-0.00014
 841,-0.00004407,0.00003597,0.00005213,0.00007000,0.00024791,0.00019357
 ,0.00064840,-0.00000921,-0.00005098,0.00000723,-0.00005345,0.00015550,
 -0.00002731,0.00012353,-0.00001661,-0.00007719,-0.00006730,-0.00002339
 ,0.00000495,-0.00033042,0.00012080,-0.00018728,0.00000177,-0.00004355,
 -0.00002115,-0.00001210,0.00001491,-0.00002617,0.00007251,-0.00035917,
 -0.00105080,0.00068307,0.00098485,-0.00022628,0.00035357,0.00029388,-0
 .00084161,0.00004318,-0.00006280,0.00002655,-0.00005016,0.00001936,-0.
 00002181,-0.00002181,0.00000368,-0.00001639,0.00083144,-0.04834808,0.0
 2908901,-0.00785193,0.05373329,-0.00005315,0.00018119,0.00017144,-0.00
 010842,0.00034568,-0.00031325,-0.00058552,-0.00104607,0.00037680,0.000
 04611,0.00037156,-0.00018217,0.00004271,-0.00016430,-0.00000150,0.0000
 4806,0.00003217,0.00018262,-0.00002322,0.00004842,0.00000765,0.0000894
 1,-0.00020425,0.00035808,0.00003200,-0.00006012,0.00011166,-0.00001286
 ,0.00001550,0.00000285,0.00093198,0.00040336,-0.01447360,0.00293674,-0
 .00033106,0.00031399,0.00004588,-0.00034374,0.00116162,0.00001672,0.00
 000582,-0.00000312,0.00000785,0.00000906,0.00000463,-0.00000133,0.0000
 0793,0.00001476,-0.02932597,0.02382900,-0.29315885,0.03079513,-0.02729
 266,0.31823535,0.00044569,0.00030101,0.00001109,-0.00037447,-0.0002759
 2,0.00047841,-0.00417302,0.00125360,0.00262013,-0.00069459,-0.00007248
 ,-0.00081495,0.00057984,-0.00033212,-0.00001076,-0.00045551,-0.0002243
 6,0.00025243,0.00002503,-0.00006499,-0.00005297,-0.00002531,0.00004886
 ,-0.00004020,-0.00014577,0.00004944,0.00006418,0.00012074,-0.00013441,
 0.00002398,-0.01656744,-0.02163251,-0.00776893,0.00142316,-0.00031799,
 0.00018763,0.00049983,0.00033428,-0.00064959,-0.00006257,0.00011983,0.
 00006081,0.00006532,-0.00007479,0.00001962,0.00003191,-0.00003323,-0.0
 0001942,-0.11635944,-0.10675098,-0.04256635,-0.00209015,-0.00276273,-0
 .00143213,0.12926838,-0.00008524,-0.00008968,0.00013799,0.00003038,0.0
 0020739,0.00013161,0.00046472,0.00028542,-0.00013643,-0.00002111,0.000
 28947,-0.00006117,-0.00008496,-0.00005115,-0.00015867,-0.00003137,-0.0
 0000115,0.00002814,0.00002159,0.00002315,0.00000516,-0.00001433,-0.000
 03161,-0.00001100,0.00001412,-0.00002146,0.00001146,0.00000583,0.00002
 071,-0.00000302,0.00162806,0.00144366,-0.00000238,0.00001741,0.0003541
 3,0.00046114,-0.00045939,0.00031671,0.00023639,0.00007676,0.00002762,0
 .00004395,-0.00002870,-0.00001444,-0.00000307,-0.00000448,0.00000285,-
 0.00001300,-0.10546067,-0.21150264,-0.06487598,0.00185524,0.00274366,0
 .00048544,0.11279515,0.23099143,-0.00035040,0.00021776,0.00002490,0.00
 003112,0.00007206,-0.00019187,0.00261029,-0.00074071,-0.00075332,0.000
 13028,0.00038341,0.00027636,-0.00028974,-0.00006282,-0.00006108,0.0002
 3115,0.00007253,0.00012910,-0.00002792,0.00005826,0.00001792,0.0003117
 4,-0.00010028,0.00019238,0.00012200,-0.00003525,-0.00002002,-0.0000145
 9,0.00007363,-0.00000270,0.01040627,0.01163774,0.00306280,-0.00047349,
 0.00067997,0.00070503,-0.00072275,-0.00006673,0.00016977,0.00000322,-0
 .00001007,-0.00002211,-0.00002315,0.00002679,-0.00000208,-0.00000760,0
 .00001411,0.00001132,-0.04268139,-0.06502864,-0.07160518,-0.01767657,-
 0.02666984,-0.01052133,0.04485410,0.07075767,0.07600255,-0.00060170,-0
 .00203797,0.00206754,-0.00004179,0.00036821,0.00011798,-0.00034726,-0.
 00046582,0.00016189,0.00006949,0.00136048,-0.00058434,0.00133173,-0.00
 138769,-0.00215572,-0.02128139,0.01163442,-0.00386363,0.00012970,-0.00
 000466,-0.00021392,0.00011652,-0.00004842,0.00006310,-0.00006700,-0.00
 005348,-0.00005778,0.00006260,0.00018041,0.00006973,0.00013416,0.00034
 041,-0.00001616,-0.00004048,-0.00002769,0.00001663,-0.00011796,-0.0000
 6527,0.00003450,-0.10959583,-0.01096150,-0.02205070,-0.01635895,-0.002
 58350,-0.00918950,0.00040269,0.00069427,0.00004348,0.00062098,0.000386
 58,0.00021598,-0.00006931,0.00009065,-0.00004737,-0.00025112,0.0003075
 2,0.00002640,0.42833604,0.00057560,-0.00050876,-0.00215408,-0.00174997
 ,-0.00142495,-0.00004575,0.00085043,-0.00032646,0.00072290,-0.00152502
 ,0.00074304,0.00003773,0.00133184,-0.00010981,0.00043214,0.02460339,0.
 00022901,0.01100889,0.00062893,0.00015357,0.00004905,-0.00023535,-0.00
 034906,0.00000927,0.00004793,-0.00011059,-0.00005772,0.00032711,0.0000
 4826,0.00003561,0.00010836,0.00011695,0.00007347,-0.00003864,-0.000054
 34,-0.00001867,-0.00011612,-0.00008827,0.00003637,0.00057631,-0.076383
 04,0.00028332,-0.02509149,-0.00299863,-0.01206306,-0.00424200,-0.00095
 901,-0.00125406,-0.00038658,-0.00098201,-0.00040597,-0.00010136,0.0001
 4858,-0.00000449,-0.00002730,-0.00025548,0.00011361,-0.05326488,0.5197
 4286,0.00066485,-0.00019597,-0.00083230,-0.00055280,-0.00062037,-0.000
 26427,0.00078346,-0.00076592,0.00064579,-0.00064555,0.00149661,-0.0004
 0082,0.00201397,-0.00267890,0.00000196,0.00196898,0.00456460,0.0030638
 1,-0.00003627,-0.00005603,0.00027907,-0.00017033,-0.00012402,0.0000348
 1,0.00002179,-0.00015631,-0.00008845,0.00049061,0.00012553,-0.00023886
 ,0.00014649,0.00030527,0.00013719,-0.00003218,-0.00006349,-0.00003861,
 -0.00010161,-0.00009435,0.00001373,-0.02243883,-0.00608858,-0.08720581
 ,0.01014081,0.00194263,0.00372920,-0.03014213,-0.00324460,-0.01146476,
 -0.00021598,-0.00040597,-0.00026618,-0.00000037,0.00012541,-0.00001611
 ,-0.00008883,-0.00012338,-0.00000754,-0.04564599,0.02546444,0.51969686
 ,0.00032163,0.00059722,-0.00038241,0.00015205,-0.00015654,-0.00000092,
 -0.00008154,0.00002279,0.00028798,0.00030783,0.00034352,0.00011943,-0.
 00007745,-0.00018097,-0.00002317,0.00167345,-0.00158157,-0.00004878,-0
 .00009871,-0.00006581,0.00021203,-0.00002985,0.00003083,-0.00000865,0.
 00001962,0.00002130,-0.00000120,-0.00054723,0.00012582,0.00027276,-0.0
 0007054,0.00001234,0.00004830,0.00001533,0.00000578,-0.00001097,0.0000
 4030,0.00001017,-0.00000885,-0.00290318,0.00065482,-0.03218157,0.00169
 939,0.00039715,0.00021121,-0.00558957,-0.00016568,-0.00277681,-0.00006
 931,0.00010136,0.00000037,0.00003866,-0.00002444,0.00000654,0.00000821
 ,-0.00001795,0.00000269,-0.04583833,0.00038764,0.03244491,0.05802500,0
 .00000921,-0.00005098,0.00000723,0.00005345,0.00015551,-0.00002731,-0.
 00012353,-0.00001661,-0.00007719,-0.00008370,-0.00014841,-0.00004407,-
 0.00003597,0.00005213,0.00007000,-0.00024791,0.00019357,0.00064840,-0.
 00000177,-0.00004355,-0.00002115,0.00001210,0.00001491,-0.00002617,0.0
 0006730,-0.00002339,0.00000495,0.00033042,0.00012080,-0.00018728,-0.00
 004318,-0.00006280,0.00002655,0.00002181,0.00000368,-0.00001639,0.0000
 5016,0.00001936,-0.00002181,-0.00007251,-0.00035918,-0.00105077,-0.000
 35358,0.00029388,-0.00084161,-0.00068306,0.00098485,-0.00022628,-0.000
 09065,0.00014858,0.00012541,0.00002444,-0.00006064,0.00000891,0.000042
 51,-0.00001835,0.00000585,-0.00083143,-0.04834808,0.02908898,0.0078519
 2,0.05373327,-0.00004611,0.00037156,-0.00018217,-0.00004271,-0.0001643
 0,-0.00000150,-0.00004806,0.00003217,0.00018262,0.00005315,0.00018119,
 0.00017144,0.00010842,0.00034568,-0.00031325,0.00058551,-0.00104607,0.
 00037680,-0.00003200,-0.00006012,0.00011166,0.00001286,0.00001550,0.00
 000285,0.00002322,0.00004842,0.00000765,-0.00008941,-0.00020425,0.0003
 5808,-0.00001672,0.00000582,-0.00000312,0.00000133,0.00000793,0.000014
 76,-0.00000785,0.00000906,0.00000463,-0.00093198,0.00040336,-0.0144736
 0,-0.00004588,-0.00034374,0.00116162,-0.00293674,-0.00033106,0.0003139
 9,0.00004737,-0.00000449,-0.00001611,-0.00000654,0.00000891,-0.0000061
 5,-0.00001400,0.00003633,-0.00001584,0.02932596,0.02382896,-0.29315886
 ,-0.03079512,-0.02729262,0.31823536,-0.00069459,0.00007248,0.00081495,
 0.00057984,0.00033212,0.00001076,-0.00045551,0.00022436,-0.00025243,0.
 00044569,-0.00030101,-0.00001109,-0.00037447,0.00027592,-0.00047841,-0
 .00417302,-0.00125360,-0.00262013,-0.00014577,-0.00004944,-0.00006418,
 0.00012074,0.00013441,-0.00002398,0.00002503,0.00006499,0.00005297,-0.
 00002531,-0.00004886,0.00004020,-0.00006257,-0.00011983,-0.00006081,0.
 00003191,0.00003323,0.00001942,0.00006532,0.00007479,-0.00001962,-0.01
 656741,0.02163253,0.00776893,0.00049983,-0.00033428,0.00064959,0.00142
 317,0.00031798,-0.00018762,-0.00025112,0.00002730,0.00008883,0.0000082
 1,-0.00004251,0.00001400,0.00013385,-0.00005945,-0.00001986,-0.1163591
 7,0.10675085,0.04256628,-0.00209014,0.00276273,0.00143213,0.12926809,0
 .00002111,0.00028947,-0.00006117,0.00008495,-0.00005115,-0.00015867,0.
 00003137,-0.00000115,0.00002814,0.00008524,-0.00008968,0.00013799,-0.0
 0003038,0.00020739,0.00013161,-0.00046471,0.00028543,-0.00013643,-0.00
 001412,-0.00002146,0.00001146,-0.00000583,0.00002071,-0.00000302,-0.00
 002159,0.00002315,0.00000516,0.00001433,-0.00003161,-0.00001100,-0.000
 07676,0.00002763,0.00004395,0.00000448,0.00000285,-0.00001300,0.000028
 70,-0.00001444,-0.00000307,-0.00162804,0.00144363,-0.00000239,0.000459
 39,0.00031671,0.00023639,-0.00001741,0.00035413,0.00046114,-0.00030752
 ,-0.00025548,-0.00012338,0.00001795,-0.00001835,0.00003633,0.00005945,
 -0.00017106,0.00002344,0.10546054,-0.21150289,-0.06487604,-0.00185524,
 0.00274366,0.00048543,-0.11279501,0.23099170,-0.00013028,0.00038341,0.
 00027636,0.00028974,-0.00006282,-0.00006108,-0.00023115,0.00007253,0.0
 0012910,0.00035040,0.00021776,0.00002490,-0.00003112,0.00007206,-0.000
 19187,-0.00261029,-0.00074071,-0.00075332,-0.00012200,-0.00003525,-0.0
 0002002,0.00001459,0.00007363,-0.00000270,0.00002792,0.00005826,0.0000
 1792,-0.00031174,-0.00010028,0.00019238,-0.00000322,-0.00001007,-0.000
 02211,0.00000760,0.00001411,0.00001132,0.00002315,0.00002679,-0.000002
 08,-0.01040626,0.01163774,0.00306280,0.00072275,-0.00006673,0.00016977
 ,0.00047349,0.00067997,0.00070503,-0.00002640,0.00011361,-0.00000754,-
 0.00000269,0.00000585,-0.00001584,0.00001986,0.00002344,-0.00002576,0.
 04268132,-0.06502871,-0.07160520,0.01767654,-0.02666987,-0.01052134,-0
 .04485403,0.07075774,0.07600257,-0.00030010,0.00116995,-0.00068973,-0.
 00147671,-0.00017864,-0.00044608,0.00024652,-0.00052553,-0.00012881,-0
 .00136253,-0.00043718,0.00057817,-0.00039452,0.00135077,0.00110466,0.0
 0284621,-0.00113994,0.00054414,-0.00005006,0.00000851,-0.00002595,-0.0
 0011305,-0.00004493,-0.00004369,-0.00013728,0.00000403,0.00006189,-0.0
 0013250,-0.00010261,0.00011119,-0.00043506,-0.00023975,0.00020329,-0.0
 0000936,0.00005670,0.00002906,0.00010096,0.00003606,-0.00003898,-0.014
 79269,-0.02003516,0.00780542,-0.00418926,-0.00060134,-0.00260759,0.001
 45421,0.00040473,0.00018941,-0.00148089,-0.00357444,-0.00030553,-0.000
 86178,-0.00026063,-0.00021858,0.00055951,-0.00132405,-0.00023615,-0.11
 422245,-0.03681809,0.00782030,-0.00364416,-0.00807595,0.00323652,0.009
 18227,0.01365646,-0.00368601,0.65591469,0.00072458,0.00028425,-0.00019
 666,-0.00095542,-0.00005587,-0.00019610,0.00111099,-0.00061161,-0.0004
 6148,-0.00028951,-0.00040736,0.00036256,-0.00007250,-0.00005488,0.0002
 6183,-0.00065083,0.00093680,-0.00017085,0.00004224,0.00012160,-0.00004
 084,-0.00012712,-0.00009026,0.00004882,-0.00009448,-0.00007665,-0.0000
 7747,-0.00012017,-0.00001756,0.00020062,0.00051588,0.00017207,0.000067
 86,-0.00000056,-0.00011201,-0.00000610,-0.00013396,-0.00003897,-0.0000
 3254,-0.00540159,0.00354970,-0.00317130,0.00284289,0.00123535,0.000558
 73,0.00104550,0.00006921,0.00033207,-0.00372187,-0.00060409,-0.0015030
 0,0.00033747,0.00047923,0.00037198,0.00029808,-0.00022499,0.00069552,-
 0.03384354,-0.15074805,0.01457150,-0.00577039,-0.00732621,0.00326788,-
 0.01431140,-0.02281649,0.00800677,-0.03909893,0.63396819,-0.00016926,-
 0.00004996,0.00008274,-0.00002006,0.00018267,0.00005125,-0.00036137,-0
 .00003269,0.00005813,0.00023135,0.00012152,0.00012910,0.00000617,0.000
 26665,0.00000024,0.00121380,-0.00043653,0.00052222,0.00001242,-0.00004
 206,0.00000947,-0.00000569,0.00004000,-0.00004341,-0.00001849,0.000036
 29,0.00002317,-0.00006827,0.00001156,-0.00003664,-0.00026257,0.0003037
 2,-0.00027100,0.00006907,0.00005747,-0.00005911,-0.00003204,0.00004656
 ,-0.00002113,-0.00154007,-0.01097086,0.00314675,-0.00279120,-0.0003496
 6,-0.00038831,-0.00016738,-0.00036976,0.00024558,0.00032510,0.00150993
 ,0.00762031,0.00063386,-0.00163750,0.00016031,-0.00048792,0.00076965,-
 0.00003354,0.00527164,0.01186590,-0.07273171,0.01597358,0.02782671,-0.
 00319156,-0.00579667,-0.00773916,0.00174236,-0.01133059,-0.04062527,0.
 17462599,0.00012042,-0.00063902,0.00080362,0.00003292,0.00076836,0.001
 04825,-0.00607529,0.00368561,0.00041721,0.00012042,0.00063901,-0.00080
 362,0.00003292,-0.00076836,-0.00104825,-0.00607530,-0.00368561,-0.0004
 1721,-0.00000066,-0.00003781,0.00005421,-0.00004389,0.00006569,0.00007
 039,-0.00000066,0.00003781,-0.00005421,-0.00004389,-0.00006569,-0.0000
 7039,0.00007662,0.00049084,0.00005447,-0.00002943,-0.00006458,0.000109
 63,-0.00006177,-0.00033067,-0.00000745,0.00007662,-0.00049084,-0.00005
 447,-0.00006176,0.00033067,0.00000745,-0.00002943,0.00006458,-0.000109
 63,0.01323341,0.01507142,-0.00019715,-0.00042787,0.00096279,-0.0005883
 5,-0.00214437,0.00419785,-0.00069231,0.01323340,-0.01507147,0.00019715
 ,-0.00042787,-0.00096279,0.00058835,-0.00214438,-0.00419785,0.00069231
 ,-0.17116470,0.12294635,-0.00540649,0.82363673,-0.00239841,-0.00197843
 ,0.00022954,0.00360515,-0.00135083,-0.00031176,0.00497377,-0.00104008,
 -0.00016078,0.00239840,-0.00197843,0.00022954,-0.00360515,-0.00135082,
 -0.00031176,-0.00497376,-0.00104007,-0.00016078,-0.00004586,0.00003702
 ,0.00002898,0.00004864,0.00004636,-0.00005491,0.00004586,0.00003702,0.
 00002898,-0.00004864,0.00004636,-0.00005491,-0.00241356,0.00172662,0.0
 0007864,0.00020308,-0.00001236,-0.00015748,-0.00015612,0.00029549,0.00
 017848,0.00241356,0.00172662,0.00007864,0.00015612,0.00029549,0.000178
 48,-0.00020308,-0.00001236,-0.00015749,-0.00811567,-0.03076446,0.00309
 331,-0.00128310,-0.00092067,-0.00077023,0.00262299,-0.00374611,0.00064
 604,0.00811562,-0.03076445,0.00309330,0.00128310,-0.00092068,-0.000770
 23,-0.00262299,-0.00374610,0.00064604,0.05482942,-0.29638494,0.0130549
 0,-0.00000007,0.72098420,-0.00450957,0.00168519,-0.00115422,-0.0039155
 0,-0.00190914,-0.00147184,0.00095568,-0.00017152,-0.00078162,0.0045095
 7,0.00168518,-0.00115422,0.00391550,-0.00190914,-0.00147184,-0.0009556
 8,-0.00017152,-0.00078162,-0.00004816,0.00002283,0.00013628,0.00000841
 ,-0.00001462,0.00010726,0.00004816,0.00002283,0.00013628,-0.00000841,-
 0.00001462,0.00010726,-0.00015459,0.00026271,0.00048839,-0.00019223,0.
 00012192,0.00008931,-0.00011630,-0.00000985,0.00006815,0.00015459,0.00
 026271,0.00048839,0.00011630,-0.00000985,0.00006815,0.00019223,0.00012
 192,0.00008931,0.00136244,0.00522385,0.00327736,0.00008622,-0.00029656
 ,0.00072507,-0.00054315,-0.00012575,0.00072224,-0.00136243,0.00522386,
 0.00327736,-0.00008622,-0.00029656,0.00072507,0.00054315,-0.00012575,0
 .00072224,-0.00447584,0.01337531,-0.06658861,-0.00000008,-0.03965856,0
 .13676625,-0.00016649,0.00013137,-0.00008043,-0.00007593,-0.00010274,0
 .00000260,0.00008984,0.00014362,-0.00001665,0.00027787,0.00038122,-0.0
 0025091,0.00020534,-0.00039267,-0.00025485,-0.00030604,0.00007758,0.00
 007384,-0.00002299,-0.00004010,-0.00003594,-0.00000744,0.00001432,0.00
 003245,-0.00000285,0.00000449,-0.00002006,0.00001234,-0.00001097,-0.00
 000109,0.00029272,0.00003678,-0.00014633,0.00002682,-0.00007109,0.0000
 1813,-0.00007775,-0.00001493,-0.00000825,0.00128381,-0.00045032,0.0007
 9749,-0.00017485,-0.00003527,-0.00023208,-0.00032364,-0.00015041,-0.00
 015072,-0.00051007,-0.00040599,-0.00083024,0.00019549,0.00094172,0.000
 04611,-0.00006245,0.00027992,0.00039527,-0.01534928,-0.00592000,0.0009
 1787,-0.00006512,0.00134261,-0.00100560,0.00110350,0.00226879,-0.00005
 323,-0.32113687,-0.03003488,0.00551140,-0.02983285,0.07817393,-0.00207
 766,0.67075037,-0.00033939,0.00007649,0.00001280,0.00053894,-0.0001364
 9,0.00003414,-0.00017960,0.00019180,0.00010887,0.00040653,0.00003780,-
 0.00014404,-0.00020244,0.00002034,-0.00004722,0.00050395,-0.00092471,-
 0.00004811,-0.00001616,-0.00002834,0.00005243,0.00004536,0.00004549,-0
 .00003689,0.00008854,0.00001016,0.00001622,0.00003353,0.00001186,-0.00
 009245,-0.00029202,-0.00017175,-0.00017591,0.00013416,0.00000547,-0.00
 009683,0.00007867,0.00004163,-0.00001306,-0.00122129,-0.00429758,0.002
 29930,-0.00170171,-0.00023376,-0.00077675,-0.00014802,0.00004324,-0.00
 025996,0.00031537,-0.00073904,0.00106479,0.00061875,-0.00004258,-0.000
 24192,0.00019221,0.00023896,0.00008599,-0.02861424,0.00192967,-0.00023
 892,-0.00132350,-0.00018760,0.00038210,-0.00084523,0.00155071,-0.00049
 509,0.03206120,-0.12463761,0.00431307,0.03301777,0.03224864,-0.0003492
 6,-0.03987122,0.70634766,0.00053309,-0.00032225,0.00007605,0.00026140,
 0.00034783,0.00021049,0.00003401,-0.00001503,0.00003575,-0.00046479,-0
 .00036735,0.00015035,-0.00035541,0.00042019,0.00028483,0.00004443,-0.0
 0018706,-0.00007153,0.00001283,0.00001655,0.00001325,0.00000294,-0.000
 01419,0.00000079,-0.00002462,0.00001047,0.00000057,-0.00003164,-0.0000
 0875,0.00001406,-0.00003079,-0.00009722,0.00003207,-0.00001003,-0.0000
 1726,0.00000276,0.00004569,-0.00000368,-0.00000027,-0.00142380,0.00024
 795,-0.00007582,0.00003282,-0.00001905,0.00016471,0.00031833,0.0000626
 4,0.00010717,0.00013949,-0.00018246,-0.00080585,-0.00010159,0.00016341
 ,-0.00002780,0.00010244,-0.00005809,0.00003556,0.00529617,0.00108290,0
 .00200684,-0.00033253,0.00013836,0.00042976,0.00006766,0.00055465,0.00
 025081,0.00103728,0.00223652,-0.06373694,-0.00157149,-0.00005320,0.008
 92413,-0.00270521,-0.02827875,0.13130114,-0.00136253,0.00043718,-0.000
 57817,-0.00039453,-0.00135077,-0.00110466,0.00284621,0.00113994,-0.000
 54414,-0.00030010,-0.00116995,0.00068973,-0.00147670,0.00017864,0.0004
 4608,0.00024652,0.00052553,0.00012881,-0.00013728,-0.00000403,-0.00006
 189,-0.00013250,0.00010261,-0.00011119,-0.00005006,-0.00000851,0.00002
 595,-0.00011305,0.00004493,0.00004368,-0.01479266,0.02003518,-0.007805
 42,0.00145421,-0.00040473,-0.00018941,-0.00418926,0.00060135,0.0026075
 9,-0.00043506,0.00023975,-0.00020329,0.00010096,-0.00003606,0.00003898
 ,-0.00000936,-0.00005670,-0.00002906,-0.11422237,0.03681805,-0.0078202
 7,-0.00364415,0.00807595,-0.00323651,0.00918227,-0.01365650,0.00368602
 ,-0.00148088,0.00357444,0.00030553,-0.00086178,0.00026063,0.00021859,0
 .00055951,0.00132405,0.00023615,0.06345153,-0.02557242,0.00026009,-0.1
 7116491,-0.05482957,0.00447588,-0.04919512,-0.03226990,0.00067167,0.65
 591479,0.00028951,-0.00040736,0.00036256,0.00007250,-0.00005488,0.0002
 6183,0.00065083,0.00093679,-0.00017085,-0.00072458,0.00028425,-0.00019
 666,0.00095543,-0.00005587,-0.00019610,-0.00111099,-0.00061161,-0.0004
 6148,0.00009448,-0.00007665,-0.00007747,0.00012017,-0.00001756,0.00020
 062,-0.00004224,0.00012160,-0.00004084,0.00012712,-0.00009026,0.000048
 82,0.00540161,0.00354967,-0.00317129,-0.00104550,0.00006921,0.00033207
 ,-0.00284288,0.00123536,0.00055872,-0.00051588,0.00017207,0.00006786,0
 .00013396,-0.00003897,-0.00003254,0.00000056,-0.00011201,-0.00000610,0
 .03384350,-0.15074814,0.01457150,0.00577039,-0.00732622,0.00326789,0.0
 1431136,-0.02281649,0.00800676,0.00372187,-0.00060410,-0.00150300,-0.0
 0033746,0.00047923,0.00037198,-0.00029808,-0.00022499,0.00069552,0.025
 57228,-0.05445483,0.00419727,-0.12294649,-0.29638472,0.01337532,-0.030
 74031,-0.01698484,0.00012279,0.03909889,0.63396810,-0.00023135,0.00012
 153,0.00012910,-0.00000617,0.00026665,0.00000024,-0.00121380,-0.000436
 53,0.00052222,0.00016926,-0.00004996,0.00008274,0.00002006,0.00018267,
 0.00005125,0.00036137,-0.00003269,0.00005813,0.00001849,0.00003629,0.0
 0002317,0.00006827,0.00001156,-0.00003664,-0.00001242,-0.00004206,0.00
 000947,0.00000569,0.00004000,-0.00004341,0.00154006,-0.01097087,0.0031
 4675,0.00016738,-0.00036976,0.00024558,0.00279120,-0.00034967,-0.00038
 831,0.00026257,0.00030372,-0.00027100,0.00003204,0.00004656,-0.0000211
 3,-0.00006907,0.00005747,-0.00005911,-0.00527162,0.01186590,-0.0727317
 1,-0.01597354,0.02782672,-0.00319156,0.00579666,-0.00773917,0.00174235
 ,-0.00032510,0.00150993,0.00762031,-0.00063387,-0.00163750,0.00016031,
 0.00048792,0.00076965,-0.00003354,-0.00026010,0.00419728,0.00421921,0.
 00540652,0.01305490,-0.06658861,0.00256581,-0.00031500,-0.00634129,0.0
 1133046,-0.04062529,0.17462598,-0.00927150,0.00144604,-0.00481816,-0.0
 0895118,-0.00004545,-0.00484715,-0.00123074,0.00367195,0.00029372,-0.0
 0927150,-0.00144603,0.00481816,-0.00895119,0.00004546,0.00484715,-0.00
 123075,-0.00367195,-0.00029372,0.00045061,0.00015258,0.00035225,0.0004
 8439,-0.00023422,0.00031628,0.00045061,-0.00015258,-0.00035225,0.00048
 439,0.00023422,-0.00031628,0.00111540,0.00007630,0.00011782,-0.0001281
 4,-0.00014835,-0.00005004,-0.00029398,-0.00032455,0.00006545,0.0011154
 0,-0.00007630,-0.00011782,-0.00029398,0.00032455,-0.00006545,-0.000128
 14,0.00014835,0.00005004,0.00065715,0.00059604,-0.00042932,-0.00007522
 ,0.00010081,-0.00002030,-0.00022756,0.00027082,-0.00002661,0.00065715,
 -0.00059604,0.00042932,-0.00007522,-0.00010081,0.00002030,-0.00022756,
 -0.00027082,0.00002661,-0.00939736,0.00075646,-0.00033610,-0.41358797,
 0.00000022,0.00000003,0.00057121,0.00174202,-0.00015953,-0.00939740,-0
 .00075645,0.00033610,0.46528828,-0.00207406,0.00094073,-0.00081850,0.0
 0287634,0.00008346,0.00129454,0.00610212,-0.00322518,-0.00062435,0.002
 07407,0.00094073,-0.00081850,-0.00287633,0.00008347,0.00129454,-0.0061
 0212,-0.00322517,-0.00062435,0.00035364,-0.00007656,0.00006710,-0.0003
 7264,-0.00005792,-0.00009307,-0.00035364,-0.00007656,0.00006710,0.0003
 7264,-0.00005792,-0.00009307,0.00003281,-0.00152633,-0.00006899,0.0000
 1263,0.00000929,0.00002241,0.00002842,0.00010916,-0.00008423,-0.000032
 81,-0.00152633,-0.00006899,-0.00002842,0.00010916,-0.00008423,-0.00001
 263,0.00000929,0.00002241,-0.00073041,0.00075867,-0.00013398,-0.000009
 00,-0.00019170,0.00002634,0.00005493,0.00040655,-0.00004410,0.00073041
 ,0.00075867,-0.00013398,0.00000900,-0.00019170,0.00002634,-0.00005492,
 0.00040655,-0.00004410,0.03092788,0.00194772,0.00016049,0.00000022,-0.
 04990997,0.00207577,0.00267491,-0.00502207,0.00053420,-0.03092786,0.00
 194776,0.00016050,-0.00000024,0.06282996,-0.00476824,-0.00116644,-0.00
 181317,-0.00355176,0.00136534,-0.00106827,0.00105248,-0.00061486,0.001
 16054,0.00476824,-0.00116645,-0.00181318,0.00355177,0.00136533,-0.0010
 6827,-0.00105248,-0.00061486,0.00116054,0.00015364,-0.00000464,0.00002
 138,0.00012902,-0.00001888,-0.00000682,-0.00015364,-0.00000464,0.00002
 138,-0.00012902,-0.00001888,-0.00000682,0.00015663,-0.00009254,0.00015
 640,0.00001586,-0.00008420,-0.00003451,0.00007915,0.00003306,-0.000054
 22,-0.00015663,-0.00009254,0.00015640,-0.00007915,0.00003306,-0.000054
 22,-0.00001586,-0.00008420,-0.00003451,-0.00019332,-0.00058247,-0.0039
 4629,-0.00025100,0.00084892,-0.00023926,0.00013417,-0.00028373,-0.0000
 0708,0.00019332,-0.00058247,-0.00394629,0.00025100,0.00084892,-0.00023
 926,-0.00013417,-0.00028373,-0.00000708,-0.00124312,-0.00105554,0.0054
 3327,0.00000004,0.00422390,-0.03287855,-0.00054274,0.00047341,0.006694
 91,0.00124312,-0.00105554,0.00543327,-0.00000004,-0.00252422,0.0212529
 5,-0.00019959,0.00014865,0.00004294,-0.00013620,-0.00021205,-0.0000435
 0,0.00019748,0.00002785,0.00005343,-0.00019959,-0.00014865,-0.00004294
 ,-0.00013620,0.00021205,0.00004350,0.00019748,-0.00002785,-0.00005343,
 0.00001756,0.00000054,-0.00001439,0.00000562,0.00001447,-0.00001991,0.
 00001756,-0.00000054,0.00001439,0.00000562,-0.00001447,0.00001991,-0.0
 0054350,0.00092709,-0.00074209,0.00005799,0.00000919,-0.00001491,-0.00
 039192,0.00008274,0.00020094,-0.00054350,-0.00092709,0.00074209,-0.000
 39192,-0.00008274,-0.00020094,0.00005799,-0.00000919,0.00001491,-0.003
 90882,-0.00265290,0.00164353,0.00026204,-0.00006519,-0.00031543,0.0002
 4238,0.00028202,0.00017894,-0.00390881,0.00265290,-0.00164353,0.000262
 04,0.00006519,0.00031544,0.00024238,-0.00028202,-0.00017894,-0.0292498
 9,-0.02739084,0.00294128,-0.00459942,-0.00000004,0.,-0.17058686,-0.116
 43957,0.00478397,-0.02924977,0.02739091,-0.00294127,0.00103409,0.,0.,0
 .72506110,0.00025721,-0.00028621,0.00019793,0.00008634,0.00029625,0.00
 013516,-0.00010608,-0.00000702,-0.00006246,-0.00025721,-0.00028621,0.0
 0019793,-0.00008634,0.00029625,0.00013516,0.00010608,-0.00000702,-0.00
 006246,0.00001424,0.00001693,0.00001669,0.00002042,-0.00001054,-0.0000
 0671,-0.00001424,0.00001693,0.00001669,-0.00002042,-0.00001054,-0.0000
 0671,-0.00020382,0.00052450,0.00020487,-0.00016188,0.00008245,0.000048
 05,-0.00010402,0.00003427,0.00009912,0.00020382,0.00052450,0.00020487,
 0.00010402,0.00003427,0.00009912,0.00016188,0.00008245,0.00004805,-0.0
 0285611,0.00203555,0.00001441,-0.00014927,-0.00126444,0.00056012,-0.00
 007534,-0.00039258,-0.00019014,0.00285612,0.00203554,0.00001441,0.0001
 4927,-0.00126444,0.00056012,0.00007534,-0.00039258,-0.00019014,-0.0773
 0585,0.03528500,-0.00303208,-0.00000004,-0.06937110,0.00168300,-0.0486
 3418,-0.27857870,0.01085106,0.07730593,0.03528488,-0.00303209,0.,-0.00
 145503,0.00059364,-0.00000003,0.65233038,-0.00000002,0.00003717,-0.000
 01042,-0.00008904,-0.00006627,-0.00003888,0.00010876,0.00003904,0.0000
 1988,0.00000002,0.00003717,-0.00001042,0.00008904,-0.00006627,-0.00003
 888,-0.00010876,0.00003904,0.00001988,0.00000323,0.00000332,-0.0000075
 7,-0.00001561,0.00000163,-0.00000594,-0.00000323,0.00000332,-0.0000075
 7,0.00001561,0.00000163,-0.00000594,-0.00009152,0.00056570,-0.00018800
 ,-0.00000829,0.00003386,0.00000296,-0.00023893,0.00004406,-0.00000202,
 0.00009152,0.00056570,-0.00018800,0.00023893,0.00004406,-0.00000202,0.
 00000829,0.00003386,0.00000297,-0.00074843,-0.00004663,0.00660255,0.00
 102668,-0.00102513,0.00023929,0.00019843,0.00052190,-0.00021148,0.0007
 4843,-0.00004663,0.00660255,-0.00102668,-0.00102513,0.00023929,-0.0001
 9843,0.00052191,-0.00021148,0.00439630,-0.00181256,0.00622386,0.,0.003
 25924,-0.00580433,0.00102241,0.00923932,-0.05902531,-0.00439630,-0.001
 81256,0.00622387,0.,0.00016025,-0.00076231,-0.00000007,-0.02137306,0.1
 3014973,-0.00000248,0.00006595,-0.00002263,-0.00019891,-0.00002404,-0.
 00000266,0.00001880,-0.00009059,-0.00002007,-0.00013755,-0.00000149,-0
 .00000754,-0.00000080,0.00002157,0.00001112,0.00017179,0.00018190,0.00
 005874,0.00000607,0.00000581,-0.00001630,-0.00000963,-0.00000680,-0.00
 000311,-0.00001031,-0.00000468,0.00000377,-0.00000130,-0.00000260,0.00
 002100,0.00002866,-0.00006641,-0.00001183,0.00000093,-0.00000252,0.000
 00587,-0.00000996,0.00000435,-0.00000482,0.00006060,-0.00025548,-0.000
 09491,-0.00001682,-0.00001422,-0.00000631,0.00001477,0.00000459,0.0000
 0310,0.00017711,0.00000721,0.00000620,-0.00000387,0.00001664,-0.000011
 86,-0.00002149,0.00010080,-0.00000046,0.00159988,0.00181005,0.00012694
 ,-0.00019950,-0.00013684,0.00003169,-0.00004283,-0.00112934,-0.0001822
 4,-0.00982893,0.02851899,-0.00128900,-0.00686732,-0.00147959,0.0002664
 9,-0.13538151,0.12204105,-0.00554169,-0.00080476,-0.00092341,0.0000407
 8,-0.00006414,0.00166843,-0.00014818,0.01130176,-0.01464786,0.00071158
 ,0.13979424,0.00004224,-0.00007141,-0.00000195,0.00003545,0.00007755,0
 .00002667,-0.00006735,0.00000323,-0.00002383,0.00005641,0.00006242,0.0
 0000680,0.00004989,-0.00005275,-0.00002026,-0.00005436,0.00005101,0.00
 000891,-0.00000080,0.00000305,0.00000574,0.00000201,-0.00000622,-0.000
 00058,0.00000049,-0.00000600,-0.00000169,-0.00000249,0.00000781,-0.000
 00518,-0.00000030,-0.00000245,0.00004856,0.00000523,0.00000242,-0.0000
 1211,0.00003280,-0.00001149,-0.00000442,0.00008717,0.00010292,-0.00003
 163,0.00004849,0.00001386,0.00002604,0.00000626,-0.00000505,0.00001772
 ,0.00004942,0.00007031,-0.00011261,0.00001106,-0.00000099,0.00002395,-
 0.00002046,0.00001561,0.00000518,-0.00058230,0.00063938,-0.00013891,0.
 00013391,0.00018930,-0.00002130,0.00050096,0.00042399,-0.00009377,-0.0
 0118866,0.00219543,0.00009742,-0.00026632,0.00168283,0.00015675,0.1209
 8560,-0.25613723,0.01012032,-0.00072494,0.00014958,-0.00000573,-0.0002
 3236,0.00002929,0.00004887,0.01717112,-0.01894868,0.00110883,-0.132402
 52,0.27208266,0.00000424,-0.00004028,0.00003077,0.00007061,0.00003012,
 0.00005089,-0.00006155,0.00009044,-0.00003039,0.00002958,-0.00001964,-
 0.00001694,0.00000699,-0.00001548,-0.00000909,-0.00002830,-0.00002925,
 -0.00004176,-0.00000065,-0.00000510,-0.00000514,0.00001253,0.00000031,
 0.00000370,0.00000614,-0.00000392,-0.00000197,0.00000637,0.00000243,-0
 .00000066,-0.00000079,-0.00004985,0.00004225,-0.00000830,-0.00000168,0
 .00000542,0.00002090,-0.00001028,0.00000940,-0.00004987,-0.00016146,0.
 00008729,-0.00008001,-0.00000777,-0.00000821,-0.00003324,-0.00002141,-
 0.00000901,0.00009820,-0.00002275,-0.00119104,-0.00013327,0.00016633,-
 0.00005140,-0.00005623,-0.00009542,0.00002758,-0.00055387,-0.00001173,
 -0.00322848,0.00053978,0.00037943,-0.00031489,0.00018279,-0.00050596,0
 .00013419,-0.00043994,-0.00000379,0.00293403,0.00033028,0.00041890,0.0
 0673230,-0.00486922,0.01051722,-0.03540537,0.00014289,0.00010246,-0.00
 063405,0.00000797,-0.00005708,0.00031733,-0.00089784,0.00049471,0.0014
 6635,0.00594262,-0.01147379,0.02530527,0.00027787,-0.00038122,0.000250
 91,0.00020534,0.00039268,0.00025485,-0.00030604,-0.00007758,-0.0000738
 4,-0.00016649,-0.00013137,0.00008043,-0.00007593,0.00010273,-0.0000026
 0,0.00008984,-0.00014362,0.00001665,-0.00000285,-0.00000449,0.00002006
 ,0.00001234,0.00001097,0.00000109,-0.00002299,0.00004011,0.00003594,-0
 .00000744,-0.00001432,-0.00003245,0.00128381,0.00045031,-0.00079749,-0
 .00032364,0.00015041,0.00015072,-0.00017485,0.00003527,0.00023208,0.00
 029272,-0.00003678,0.00014633,-0.00007775,0.00001493,0.00000825,0.0000
 2682,0.00007109,-0.00001813,-0.01534924,0.00592002,-0.00091787,-0.0000
 6512,-0.00134261,0.00100560,0.00110350,-0.00226879,0.00005323,-0.00051
 007,0.00040599,0.00083024,0.00019548,-0.00094172,-0.00004611,-0.000062
 45,-0.00027992,-0.00039527,-0.04919505,0.03074034,-0.00256580,-0.02983
 298,-0.07817386,0.00207767,0.06126386,0.02594733,-0.00034030,-0.321136
 88,0.03003511,-0.00551135,0.00057121,-0.00267492,0.00054274,-0.1705866
 6,0.04863404,-0.00102238,-0.00091187,-0.00417792,-0.00016714,0.6707504
 6,-0.00040653,0.00003780,-0.00014404,0.00020244,0.00002034,-0.00004722
 ,-0.00050395,-0.00092471,-0.00004811,0.00033939,0.00007649,0.00001280,
 -0.00053894,-0.00013649,0.00003414,0.00017960,0.00019180,0.00010887,-0
 .00008854,0.00001016,0.00001622,-0.00003353,0.00001186,-0.00009245,0.0
 0001616,-0.00002834,0.00005243,-0.00004536,0.00004549,-0.00003689,0.00
 122128,-0.00429758,0.00229930,0.00014802,0.00004324,-0.00025996,0.0017
 0171,-0.00023376,-0.00077675,0.00029202,-0.00017175,-0.00017591,-0.000
 07867,0.00004163,-0.00001306,-0.00013416,0.00000547,-0.00009683,0.0286
 1426,0.00192963,-0.00023892,0.00132350,-0.00018760,0.00038210,0.000845
 23,0.00155071,-0.00049509,-0.00031537,-0.00073904,0.00106479,-0.000618
 75,-0.00004258,-0.00024192,-0.00019221,0.00023896,0.00008599,0.0322699
 4,-0.01698492,-0.00031500,-0.03301769,0.03224878,-0.00034925,-0.025947
 47,-0.05632640,0.00235097,-0.03206097,-0.12463761,0.00431308,-0.001742
 03,-0.00502207,0.00047340,0.11643943,-0.27857888,0.00923930,-0.0028458
 5,-0.00241356,0.00055136,0.03987127,0.70634755,0.00046479,-0.00036735,
 0.00015035,0.00035541,0.00042019,0.00028483,-0.00004443,-0.00018706,-0
 .00007153,-0.00053309,-0.00032225,0.00007605,-0.00026140,0.00034783,0.
 00021049,-0.00003401,-0.00001503,0.00003575,0.00002462,0.00001047,0.00
 000057,0.00003164,-0.00000875,0.00001406,-0.00001283,0.00001655,0.0000
 1325,-0.00000294,-0.00001419,0.00000079,0.00142380,0.00024795,-0.00007
 582,-0.00031833,0.00006264,0.00010717,-0.00003282,-0.00001905,0.000164
 71,0.00003079,-0.00009722,0.00003207,-0.00004569,-0.00000368,-0.000000
 27,0.00001003,-0.00001726,0.00000276,-0.00529617,0.00108290,0.00200685
 ,0.00033253,0.00013836,0.00042976,-0.00006766,0.00055465,0.00025081,-0
 .00013949,-0.00018246,-0.00080585,0.00010159,0.00016341,-0.00002780,-0
 .00010244,-0.00005809,0.00003556,-0.00067166,0.00012278,-0.00634129,0.
 00157149,-0.00005319,0.00892413,0.00034029,0.00235096,0.00551659,-0.00
 103723,0.00223651,-0.06373694,0.00015953,0.00053420,0.00669491,-0.0047
 8394,0.01085106,-0.05902531,0.00014565,0.00046574,0.00737970,0.0027050
 8,-0.02827876,0.13130114,-0.00003256,0.00003992,0.00002469,-0.00003067
 ,-0.00003134,0.00000186,0.00005580,0.00007096,0.00001652,-0.00003256,-
 0.00003992,-0.00002469,-0.00003067,0.00003134,-0.00000186,0.00005580,-
 0.00007096,-0.00001652,0.00000549,-0.00000906,-0.00000384,0.00001005,0
 .00001012,0.00000248,0.00000549,0.00000906,0.00000384,0.00001005,-0.00
 001012,-0.00000248,-0.00003200,0.00017546,-0.00016030,-0.00001000,-0.0
 0000634,0.00002768,-0.00010019,0.00001793,0.00003893,-0.00003200,-0.00
 017546,0.00016030,-0.00010019,-0.00001793,-0.00003893,-0.00001000,0.00
 000634,-0.00002768,-0.00042969,-0.00055976,0.00014893,-0.00008561,0.00
 009242,-0.00005213,0.00000846,0.00003948,0.00001804,-0.00042969,0.0005
 5976,-0.00014893,-0.00008561,-0.00009242,0.00005213,0.00000846,-0.0000
 3948,-0.00001804,0.00062405,-0.00321277,0.00023998,0.00092055,0.,0.,-0
 .01188323,0.00285308,-0.00014514,0.00062406,0.00321277,-0.00023998,-0.
 00001222,0.,0.,-0.33563218,0.00000016,0.00000003,0.00094300,-0.0002944
 4,-0.00000227,-0.01188320,-0.00285306,0.00014514,0.35663800,-0.0000306
 1,0.00001905,0.00000446,0.00002828,0.00002186,0.00000323,-0.00011139,-
 0.00005870,-0.00000680,0.00003061,0.00001905,0.00000446,-0.00002828,0.
 00002186,0.00000323,0.00011139,-0.00005870,-0.00000680,-0.00000784,-0.
 00000009,0.00000697,0.00000235,0.00000364,-0.00001089,0.00000784,-0.00
 000009,0.00000697,-0.00000235,0.00000364,-0.00001089,0.00011804,-0.000
 33077,0.00019204,0.00000985,0.00000632,-0.00001575,0.00014001,-0.00000
 837,-0.00006195,-0.00011804,-0.00033077,0.00019204,-0.00014001,-0.0000
 0837,-0.00006195,-0.00000985,0.00000632,-0.00001575,0.00111033,0.00064
 119,-0.00023612,0.00002858,-0.00006658,0.00006739,-0.00002837,-0.00000
 485,-0.00003888,-0.00111033,0.00064119,-0.00023612,-0.00002858,-0.0000
 6658,0.00006739,0.00002837,-0.00000485,-0.00003888,-0.00212119,-0.0047
 4685,0.00074450,0.,-0.00138167,-0.00004397,-0.02881225,0.00406236,-0.0
 0010219,0.00212119,-0.00474686,0.00074450,0.,0.00016479,-0.00002588,0.
 00000017,-0.05907750,0.00066505,0.00038362,0.00097860,-0.00022972,0.02
 881227,0.00406232,-0.00010220,-0.00000018,0.05926080,-0.00008038,0.000
 08912,-0.00003090,-0.00005076,-0.00007990,-0.00005128,-0.00000408,0.00
 002553,0.00002621,0.00008038,0.00008912,-0.00003090,0.00005076,-0.0000
 7990,-0.00005128,0.00000408,0.00002553,0.00002621,-0.00000188,-0.00000
 246,-0.00000002,-0.00000224,0.00000199,-0.00000115,0.00000188,-0.00000
 246,-0.00000002,0.00000224,0.00000199,-0.00000115,-0.00011141,0.000041
 37,-0.00000656,0.00001828,-0.00000338,-0.00000860,-0.00001325,0.000000
 98,-0.00000779,0.00011141,0.00004137,-0.00000656,0.00001325,0.00000098
 ,-0.00000779,-0.00001828,-0.00000338,-0.00000860,0.00002986,0.00010021
 ,0.00038168,-0.00003578,-0.00004774,0.00002096,-0.00002805,-0.00000871
 ,-0.00002393,-0.00002986,0.00010021,0.00038168,0.00003578,-0.00004774,
 0.00002096,0.00002805,-0.00000871,-0.00002393,-0.00012640,0.00057302,0
 .00684932,0.,-0.00026541,-0.00063178,0.00139044,0.00010818,0.00185788,
 0.00012640,0.00057302,0.00684932,0.,-0.00007336,-0.00084054,0.00000003
 ,0.00043493,-0.03371367,-0.00003135,-0.00023241,-0.00392854,-0.0013904
 3,0.00010818,0.00185788,-0.00000003,-0.00122775,0.02503144,-0.00013755
 ,0.00000149,0.00000754,-0.00000080,-0.00002157,-0.00001112,0.00017179,
 -0.00018190,-0.00005874,-0.00000248,-0.00006595,0.00002263,-0.00019891
 ,0.00002404,0.00000266,0.00001880,0.00009059,0.00002007,-0.00001031,0.
 00000468,-0.00000377,-0.00000130,0.00000260,-0.00002100,0.00000607,-0.
 00000581,0.00001630,-0.00000963,0.00000680,0.00000311,0.00006060,0.000
 25548,0.00009491,0.00001477,-0.00000459,-0.00000310,-0.00001682,0.0000
 1422,0.00000631,0.00002866,0.00006641,0.00001183,-0.00000996,-0.000004
 35,0.00000482,0.00000093,0.00000252,-0.00000587,0.00159988,-0.00181005
 ,-0.00012694,-0.00019950,0.00013684,-0.00003169,-0.00004283,0.00112934
 ,0.00018224,0.00017711,-0.00000721,-0.00000620,-0.00000387,-0.00001664
 ,0.00001186,-0.00002149,-0.00010080,0.00000046,-0.00080476,0.00092341,
 -0.00004078,-0.00686731,0.00147960,-0.00026648,-0.00091187,0.00284584,
 -0.00014565,-0.00982896,-0.02851898,0.00128900,-0.00006414,-0.00166843
 ,0.00014818,0.01130176,0.01464783,-0.00071158,0.00039638,0.00079673,-0
 .00001941,-0.13538179,-0.12204120,0.00554172,0.00094300,-0.00038362,0.
 00003135,0.13979455,-0.00005641,0.00006242,0.00000680,-0.00004989,-0.0
 0005275,-0.00002026,0.00005436,0.00005101,0.00000891,-0.00004224,-0.00
 007141,-0.00000195,-0.00003545,0.00007755,0.00002667,0.00006735,0.0000
 0323,-0.00002383,-0.00000049,-0.00000600,-0.00000169,0.00000249,0.0000
 0781,-0.00000518,0.00000080,0.00000305,0.00000574,-0.00000201,-0.00000
 622,-0.00000058,-0.00008717,0.00010292,-0.00003163,-0.00000626,-0.0000
 0505,0.00001772,-0.00004849,0.00001386,0.00002604,0.00000030,-0.000002
 45,0.00004856,-0.00003280,-0.00001149,-0.00000442,-0.00000523,0.000002
 42,-0.00001211,0.00058230,0.00063938,-0.00013891,-0.00013391,0.0001893
 0,-0.00002130,-0.00050096,0.00042399,-0.00009377,-0.00004942,0.0000703
 2,-0.00011261,-0.00001106,-0.00000099,0.00002395,0.00002046,0.00001561
 ,0.00000518,0.00072495,0.00014958,-0.00000573,0.00026633,0.00168283,0.
 00015675,0.00417792,-0.00241357,0.00046574,0.00118868,0.00219546,0.000
 09742,0.00023236,0.00002929,0.00004887,-0.01717116,-0.01894868,0.00110
 883,-0.00079673,-0.00112542,0.00001266,-0.12098574,-0.25613694,0.01012
 034,0.00029444,0.00097860,-0.00023241,0.13240267,0.27208234,-0.0000295
 8,-0.00001964,-0.00001694,-0.00000699,-0.00001548,-0.00000909,0.000028
 30,-0.00002925,-0.00004176,-0.00000424,-0.00004028,0.00003077,-0.00007
 061,0.00003012,0.00005089,0.00006155,0.00009044,-0.00003039,-0.0000061
 4,-0.00000392,-0.00000197,-0.00000637,0.00000243,-0.00000066,0.0000006
 5,-0.00000510,-0.00000514,-0.00001253,0.00000031,0.00000370,0.00004987
 ,-0.00016146,0.00008729,0.00003324,-0.00002141,-0.00000901,0.00008001,
 -0.00000777,-0.00000821,0.00000079,-0.00004985,0.00004225,-0.00002090,
 -0.00001028,0.00000940,0.00000830,-0.00000168,0.00000542,0.00055387,-0
 .00001173,-0.00322848,-0.00053978,0.00037944,-0.00031489,-0.00018279,-
 0.00050596,0.00013419,-0.00009820,-0.00002275,-0.00119104,0.00013327,0
 .00016633,-0.00005140,0.00005623,-0.00009542,0.00002758,-0.00014289,0.
 00010246,-0.00063405,-0.00033028,0.00041890,0.00673230,0.00016714,0.00
 055136,0.00737970,0.00043994,-0.00000379,0.00293403,-0.00000797,-0.000
 05708,0.00031733,0.00089783,0.00049471,0.00146635,0.00001941,0.0000126
 6,0.00035047,0.00486925,0.01051723,-0.03540537,0.00000227,-0.00022972,
 -0.00392854,-0.00594266,-0.01147381,0.02530527\\0.,-0.00000082,0.00000
 034,0.,-0.00000071,-0.00000055,0.,0.00000012,-0.00000090,0.,0.00000083
 ,-0.00000034,0.,0.00000071,0.00000055,0.,-0.00000012,0.00000090,0.,-0.
 00000148,0.00000060,0.,-0.00000128,-0.00000097,0.,0.00000148,-0.000000
 60,0.,0.00000128,0.00000097,0.,0.00000023,-0.00000170,0.,0.00000093,-0
 .00000184,0.,-0.00000007,-0.00000228,0.,-0.00000023,0.00000170,0.,0.00
 000007,0.00000228,0.,-0.00000093,0.00000184,0.,-0.00000018,-0.00000162
 ,0.,-0.00000088,-0.00000170,0.,0.00000004,-0.00000219,0.,0.00000018,0.
 00000162,0.,0.00000088,0.00000170,0.,-0.00000004,0.00000219,0.,0.00000
 004,0.00000080,0.,0.,0.,0.,0.00000004,0.00000079,0.,-0.00000004,-0.000
 00080,0.,0.,0.,0.,0.,0.,0.,0.00000006,0.00000139,0.,-0.00000003,-0.000
 00079,0.,0.,0.,0.,-0.00000006,-0.00000139\\\@
 The archive entry for this job was punched.


  THE LARGE PRINT GIVETH,
  AND THE SMALL PRINT TAKETH AWAY.

                     -- TOM WAITS
 Job cpu time:       0 days  0 hours 43 minutes 26.6 seconds.
 Elapsed time:       0 days  0 hours  1 minutes 13.3 seconds.
 File lengths (MBytes):  RWF=    342 Int=      0 D2E=      0 Chk=     10 Scr=      1
 Normal termination of Gaussian 16 at Mon Jul 28 11:57:18 2025.
