%chk=allyl_chloride_3_5d.chk
%nprocshared=16
%mem=32GB
#p wB97XD/6-31G(d) 5D freq int=finegrid

3 (pseudo-axial 3-chlorocyclohexene) with spherical d functions (5D), as in the Rh jobs' general basis input; van Dijk et al., Nat. Catal. 2021 (SI geometry)

0 1
C        -1.41602        1.24999       -0.12549
C        -0.17595        1.35512        0.35408
C         0.64945        0.16407        0.73414
C        -0.16595       -1.12461        0.79785
C        -1.13070       -1.23574       -0.38118
C        -2.11015       -0.05964       -0.38337
H        -0.73569       -1.09861        1.73738
H         0.50530       -1.98628        0.84925
H        -1.67465       -2.18464       -0.33661
H        -0.55554       -1.23640       -1.31454
H        -2.88583       -0.20865        0.38292
H        -2.64188       -0.00729       -1.34086
H         1.15778        0.33947        1.68456
H         0.28267        2.33060        0.49178
H        -1.97325        2.15849       -0.34544
Cl        2.03629       -0.01187       -0.45792

