132
(R)-3 anti-OA TS complex (van Dijk et al., Nat. Catal. 2021, Supplementary Data; wB97X-D/6-31G(d), LANL2DZ(f) on Rh)
Rh      0.74398     -1.19891     -1.21768
C       0.73245     -0.02814     -2.82820
C      -0.41446      0.22766     -3.58153
H      -1.35208     -0.26209     -3.34344
C      -0.38017      1.12552     -4.65099
H      -1.29286      1.32408     -5.20674
C       0.80636      1.75900     -5.00413
C       1.96719      1.47277     -4.28769
H       2.90692      1.94780     -4.55581
C       1.93290      0.58495     -3.21619
H       2.84713      0.39461     -2.65950
H       0.83072      2.45809     -5.83494
P       1.53632      0.67114      0.20588
P      -1.55641     -0.84527     -0.51330
C       1.22206      2.45729     -0.08503
C       0.67135      2.91703     -1.27718
H       0.35274      2.21733     -2.03748
C       0.49452      4.28441     -1.50414
C       0.87315      5.18060     -0.50890
H       0.73810      6.24835     -0.67451
C       1.42125      4.74453      0.70270
C       1.58837      3.37861      0.90404
H       2.00931      3.02453      1.84203
C      -0.09358      4.74490     -2.81333
H      -1.06622      4.27275     -2.99039
H      -0.22654      5.83127     -2.83712
H       0.55623      4.45948     -3.64805
C       1.84921      5.72966      1.76205
H       1.68538      5.32486      2.76588
H       2.91702      5.96198      1.67126
H       1.29931      6.67271      1.67961
C       3.36354      0.64627      0.41936
C       4.00379     -0.49901      0.89997
H       3.42334     -1.34047      1.25992
C       5.39173     -0.63467      0.87359
C       6.14593      0.42043      0.36229
H       7.22916      0.32586      0.32134
C       5.54205      1.57950     -0.12549
C       4.15032      1.68020     -0.10060
H       3.68461      2.57333     -0.50363
C       6.02714     -1.92857      1.31021
H       5.87124     -2.69986      0.54229
H       7.10365     -1.81257      1.46609
H       5.58407     -2.29326      2.24353
C       6.37967      2.71449     -0.66015
H       5.80149      3.35205     -1.33592
H       6.74776      3.34672      0.15702
H       7.25247      2.34146     -1.20515
C      -2.00444     -1.70434      1.05625
C      -3.24254     -1.50438      1.67289
H      -3.96206     -0.81445      1.24484
C      -3.56697     -2.16255      2.85570
C      -2.61736     -3.00682      3.43879
H      -2.85581     -3.50570      4.37655
C      -1.37327     -3.21978      2.85187
C      -1.09315     -2.57412      1.64693
H      -0.13086     -2.74319      1.18228
C      -4.92409     -1.97287      3.48583
H      -5.64782     -2.68748      3.07582
H      -4.88838     -2.12718      4.56903
H      -5.31129     -0.96639      3.29779
C      -0.32400     -4.08541      3.50165
H      -0.72981     -4.63443      4.35670
H       0.08340     -4.81542      2.79375
H       0.51361     -3.47408      3.85865
C      -2.96540     -1.34345     -1.58786
C      -2.73720     -2.35791     -2.51248
H      -1.73613     -2.75685     -2.62444
C      -3.76832     -2.86332     -3.31075
C      -5.04195     -2.32564     -3.16332
H      -5.85473     -2.70316     -3.78131
C      -5.30534     -1.30446     -2.24328
C      -4.26122     -0.82402     -1.46039
H      -4.46204     -0.02011     -0.75911
C      -3.47816     -3.95416     -4.31034
H      -3.03292     -4.82742     -3.82106
H      -4.38702     -4.28100     -4.82360
H      -2.76692     -3.60932     -5.06948
C      -6.69733     -0.73877     -2.11124
H      -7.41361     -1.51728     -1.82560
H      -6.73738      0.04938     -1.35387
H      -7.04144     -0.31086     -3.05951
C      -1.39530      1.50436      1.04374
C      -1.88517      0.92636     -0.13559
C      -2.50790      1.73555     -1.08465
H      -2.85866      1.35775     -2.03575
C      -2.68149      3.08342     -0.78242
N      -2.31232      3.63682      0.36427
C      -1.67460      2.86984      1.23582
O      -3.27095      3.85470     -1.71412
C      -3.39256      5.23786     -1.41696
H      -3.85041      5.68372     -2.30053
H      -4.02536      5.39816     -0.53902
H      -2.41152      5.68550     -1.23080
O      -1.24695      3.42263      2.37876
C      -1.51328      4.80209      2.56807
H      -1.03226      5.06086      3.51214
H      -1.09511      5.39550      1.75036
H      -2.59000      4.98833      2.62882
C      -0.57973      0.79362      2.06039
C      -1.14596      0.50429      3.31199
N      -0.52504     -0.14353      4.28822
C       0.72662     -0.51745      4.06989
C       1.43328     -0.23263      2.90186
H       2.47416     -0.51475      2.84222
C       0.76594      0.42851      1.87481
O      -2.41068      0.90031      3.51469
C      -2.97065      0.63761      4.78979
H      -3.99686      1.00328      4.73477
H      -2.95803     -0.43372      5.00865
H      -2.42230      1.16614      5.57571
O       1.36922     -1.21814      5.02136
C       0.63287     -1.53218      6.19414
H       1.30792     -2.12760      6.80945
H       0.33473     -0.62405      6.72650
H      -0.26599     -2.10704      5.94932
C       2.04819     -2.48940     -2.39583
C       2.82521     -2.52772     -1.22612
C       2.24083     -3.21824     -0.02176
C       1.47197     -4.47922     -0.41987
C       0.37747     -4.19478     -1.46203
C       0.71598     -3.00307     -2.35354
H       3.68102     -1.87978     -1.12449
H       2.45063     -2.03267     -3.29156
H       0.17013     -2.95224     -3.29443
Cl      4.68221     -4.17858     -1.52556
H       3.03469     -3.45264      0.69018
H       1.56377     -2.50950      0.51536
H       0.24898     -5.08031     -2.09761
H      -0.58961     -4.03188     -0.96898
H       2.21756     -5.16493     -0.83151
H       1.03736     -4.94788      0.46996
