132
(R)-3 reactant complex (van Dijk et al., Nat. Catal. 2021, Supplementary Data; wB97X-D/6-31G(d), LANL2DZ(f) on Rh)
P       1.19400      0.95600      0.33500
P      -1.31300     -1.10500     -0.50300
C      -0.06200      1.19500      1.68400
C      -1.40100      1.44600      1.34700
C      -2.31700      1.53800      2.40600
C      -0.74200      1.10800      3.97300
C       0.27500      1.02900      3.02500
H       1.28800      0.84800      3.35700
C      -1.95500      0.56900     -0.97600
C      -1.88200      1.61500     -0.04500
C      -2.28500      2.88500     -0.48700
C      -2.70300      2.15900     -2.59100
C      -2.37800      0.84200     -2.27400
H      -2.46100      0.08100     -3.03700
C       2.79100      1.11700      1.22400
C       3.17900      0.04700      2.03400
H       2.49400     -0.78200      2.18600
C       4.44100     -0.00400      2.61900
C       5.32700      1.04600      2.37000
H       6.32200      1.01600      2.80900
C       4.97100      2.12400      1.56000
C       3.69300      2.15200      0.99500
H       3.42400      2.97500      0.34000
C       1.00900      2.52100     -0.59500
C       0.96100      3.76300      0.04600
H       1.05900      3.81700      1.12800
C       0.76500      4.93100     -0.68500
C       0.59500      4.83400     -2.07000
H       0.42600      5.74300     -2.64500
C       0.62800      3.60700     -2.72900
C       0.84300      2.45300     -1.97500
H       0.86400      1.48700     -2.46500
C      -2.04900     -2.21400     -1.76800
C      -3.05400     -3.14100     -1.50400
H      -3.49300     -3.20300     -0.51300
C      -3.50300     -4.01700     -2.49800
C      -2.93600     -3.93800     -3.76700
H      -3.28600     -4.61100     -4.54900
C      -1.91900     -3.02500     -4.06100
C      -1.48000     -2.17900     -3.04800
H      -0.66300     -1.48700     -3.24800
C      -2.25800     -1.45300      1.03000
C      -1.54400     -1.86900      2.15200
H      -0.46600     -1.98300      2.07600
C      -2.18100     -2.09300      3.37200
C      -3.56100     -1.90700      3.43800
H      -4.07300     -2.07600      4.38400
C      -4.30500     -1.49600      2.32800
C      -3.63800     -1.25900      1.12800
H      -4.19500     -0.89700      0.26700
C      -4.56200     -5.04400     -2.18400
H      -5.30300     -4.65000     -1.48000
H      -5.08800     -5.36600     -3.08800
H      -4.11600     -5.93500     -1.72500
C      -1.28400     -2.98700     -5.42800
H      -0.77800     -2.03300     -5.60500
H      -0.53700     -3.78200     -5.53300
H      -2.03000     -3.12800     -6.21700
C       5.95700      3.22200      1.25200
H       5.46800      4.20100      1.22900
H       6.76100      3.25900      1.99400
H       6.41600      3.06200      0.26900
C       4.84000     -1.19700      3.45100
H       5.78700     -1.02500      3.97200
H       4.07700     -1.43100      4.20100
H       4.96500     -2.08800      2.82200
C       0.41400      3.49400     -4.21700
H       0.32100      4.47800     -4.68800
H       1.25000      2.96700     -4.69000
H      -0.49800      2.92500     -4.43500
C       0.73600      6.27100      0.00800
H       1.74900      6.67100      0.13900
H       0.16500      7.00700     -0.56600
H       0.28400      6.18900      1.00200
C      -5.80000     -1.31600      2.41600
H      -6.12600     -1.15800      3.44900
H      -6.12700     -0.45800      1.82000
H      -6.32500     -2.20100      2.03600
C      -1.37200     -2.48300      4.58200
H      -2.01400     -2.77400      5.41900
H      -0.70600     -3.32300      4.35700
H      -0.74200     -1.64800      4.91100
O      -3.05400      2.41900     -3.86600
O      -2.24200      3.88500      0.40600
O      -3.59600      1.79200      2.08900
O      -0.40400      0.89400      5.26100
N      -2.68400      3.15800     -1.72100
N      -2.00700      1.37300      3.68500
C      -3.35600      3.76800     -4.18300
H      -2.50900      4.42400     -3.95800
H      -3.56600      3.77400     -5.25300
H      -4.22900      4.11900     -3.62300
C      -2.63100      5.16900     -0.04900
H      -2.48300      5.83500      0.80200
H      -2.01100      5.48800     -0.89200
H      -3.68100      5.17700     -0.35800
C      -4.51500      1.89400      3.16200
H      -5.48400      2.08000      2.69600
H      -4.54300      0.96700      3.74200
H      -4.25100      2.72000      3.83000
C      -1.45300      0.94200      6.21400
H      -2.21700      0.18900      5.99400
H      -0.98200      0.73300      7.17500
H      -1.92800      1.92700      6.23100
Rh      1.04300     -1.07800     -0.68200
C       2.75400     -0.50300     -1.69700
C       2.51000     -0.34900     -3.07500
H       1.50800     -0.52800     -3.46800
C       3.50700      0.03000     -3.97100
H       3.26900      0.14500     -5.02600
C       4.80400      0.25900     -3.51800
C       5.08100      0.08600     -2.16600
H       6.08900      0.24400     -1.79100
C       4.07300     -0.29000     -1.27600
H       4.33900     -0.41500     -0.23100
H       5.58700      0.55500     -4.21100
C       2.21800     -3.01100     -0.86000
C       2.96100     -3.19500      0.43200
C       2.03900     -3.50200      1.60600
C       1.02900     -4.59100      1.25000
C       0.15300     -4.20300      0.04800
C       0.89500     -3.38300     -0.99600
H       1.58300     -5.50800      1.02100
H       0.39500     -4.81100      2.11600
H      -0.19700     -5.11800     -0.44800
H      -0.75300     -3.69900      0.39200
H       1.51100     -2.56900      1.84000
H       2.63000     -3.78000      2.48400
H       3.59600     -2.33300      0.63700
H       2.83600     -2.87400     -1.74000
H       0.49800     -3.45000     -2.00600
Cl      4.17600     -4.56900      0.23200
