132
(S)-3 anti-OA TS complex (van Dijk et al., Nat. Catal. 2021, Supplementary Data; wB97X-D/6-31G(d), LANL2DZ(f) on Rh)
Rh      0.43305      1.67086     -0.50573
C       0.01207      1.50306     -2.43976
C       0.86744      0.80365     -3.29493
H       1.79743      0.38447     -2.92567
C       0.53577      0.62798     -4.63844
H       1.20640      0.06524     -5.28198
C      -0.63989      1.16731     -5.15284
C      -1.47268      1.90382     -4.31444
H      -2.38642      2.34506     -4.70326
C      -1.14749      2.07843     -2.97078
H      -1.82152      2.64360     -2.33365
H      -0.89432      1.02933     -6.19949
P      -1.65833      0.56774      0.02230
P       1.71123     -0.40230     -0.16181
C      -2.49978     -0.69217     -1.02074
C      -2.08622     -1.00133     -2.31216
H      -1.20199     -0.54116     -2.73049
C      -2.78739     -1.93208     -3.08415
C      -3.90571     -2.55080     -2.53375
H      -4.45858     -3.27721     -3.12739
C      -4.33737     -2.26542     -1.23375
C      -3.62407     -1.33502     -0.48617
H      -3.94412     -1.11145      0.52863
C      -2.31069     -2.23715     -4.48102
H      -1.28519     -2.62293     -4.46591
H      -2.95031     -2.97639     -4.97344
H      -2.30157     -1.32728     -5.09111
C      -5.55998     -2.93351     -0.65543
H      -6.45584     -2.32083     -0.81197
H      -5.74242     -3.90672     -1.12252
H      -5.45074     -3.08841      0.42262
C      -3.00397      1.80044      0.25822
C      -2.88717      2.80648      1.22562
H      -2.04512      2.81199      1.90659
C      -3.81976      3.83298      1.32544
C      -4.88327      3.85953      0.41882
H      -5.61822      4.65956      0.48409
C      -5.01407      2.89213     -0.57238
C      -4.06854      1.86344     -0.64199
H      -4.17258      1.11117     -1.41722
C      -3.66529      4.91494      2.36468
H      -3.32485      5.85048      1.90548
H      -4.61607      5.12301      2.86628
H      -2.93389      4.63334      3.12800
C      -6.13889      2.94699     -1.57589
H      -6.90935      3.66224     -1.27405
H      -5.76660      3.25312     -2.56059
H      -6.61166      1.96660     -1.69630
C       2.09761     -0.54703      1.63279
C       2.82633     -1.61512      2.15689
H       3.18593     -2.40261      1.50256
C       3.09983     -1.69442      3.52137
C       2.62819     -0.68397      4.36251
H       2.83706     -0.74177      5.42928
C       1.89876      0.39660      3.86970
C       1.64395      0.44531      2.50069
H       1.04768      1.26926      2.12130
C       3.91254     -2.84219      4.06651
H       3.67078     -3.77765      3.55146
H       4.98498     -2.65982      3.93031
H       3.73542     -2.98731      5.13682
C       1.36728      1.47763      4.77627
H       1.87308      1.47052      5.74639
H       1.50892      2.46772      4.32920
H       0.29332      1.34839      4.95448
C       3.33203     -0.75242     -0.94676
C       4.04696      0.35002     -1.40796
H       3.59065      1.33013     -1.35204
C       5.32872      0.21921     -1.94607
C       5.88066     -1.05777     -2.01783
H       6.87658     -1.18245     -2.43980
C       5.18664     -2.18747     -1.57253
C       3.91150     -2.02394     -1.03625
H       3.36255     -2.90174     -0.70658
C       6.06640      1.42905     -2.46172
H       7.14442      1.33664     -2.29737
H       5.90582      1.54984     -3.53953
H       5.72330      2.34893     -1.97818
C       5.81964     -3.55429     -1.65807
H       6.59417     -3.67563     -0.89142
H       5.07910     -4.34666     -1.51324
H       6.29642     -3.71006     -2.63138
C      -0.33946     -2.29088      0.32683
C       0.70390     -1.89744     -0.52215
C       0.88698     -2.56111     -1.73477
H       1.64419     -2.26852     -2.45053
C       0.05673     -3.64073     -2.02191
N      -0.87816     -4.09166     -1.19672
C      -1.07331     -3.42462     -0.06952
O       0.22905     -4.25889     -3.20440
C      -0.65539     -5.32965     -3.50152
H      -0.38418     -5.65853     -4.50519
H      -0.53454     -6.14901     -2.78668
H      -1.69685     -4.99400     -3.47913
O      -2.04522     -3.83891      0.75564
C      -2.79325     -4.97336      0.35187
H      -3.55390     -5.10616      1.12233
H      -3.26132     -4.80579     -0.62216
H      -2.15666     -5.86148      0.29128
C      -0.75355     -1.59241      1.57091
C      -0.49982     -2.20295      2.80976
N      -0.85197     -1.70005      3.98560
C      -1.50587     -0.54892      3.98380
C      -1.85137      0.15068      2.82855
H      -2.42277      1.06237      2.92424
C      -1.45858     -0.37597      1.60156
O       0.16304     -3.36693      2.78756
C       0.44333     -3.97464      4.03725
H       0.99238     -4.88621      3.79777
H       1.05330     -3.31627      4.66299
H      -0.47981     -4.21793      4.57163
O      -1.85494      0.00213      5.16084
C      -1.45428     -0.68644      6.33662
H      -1.80015     -0.06778      7.16520
H      -1.91177     -1.67878      6.38727
H      -0.36599     -0.79787      6.37350
C       1.07420      3.68763     -1.12795
C      -0.05161      3.71793     -0.26054
C       0.20508      3.95878      1.22805
C       1.63192      4.43884      1.51403
C       2.66479      3.53118      0.84744
C       2.35147      3.42407     -0.62328
H       1.77482      5.44353      1.10179
H       1.80039      4.48580      2.59583
H       3.66436      3.95970      0.93654
H       2.68882      2.54066      1.32031
H       0.02440      3.03355      1.80603
H      -0.52975      4.67866      1.60649
H      -1.00472      4.06030     -0.65566
H       0.95650      3.83805     -2.19380
H       3.13059      3.15592     -1.31823
Cl      3.60548      5.65190     -1.22304
