%chk=s3_reactant_complex.chk
%nprocshared=16
%mem=32GB
#p wB97XD/genecp freq int=finegrid

(S)-3 reactant complex: van Dijk et al., Nat. Catal. 2021 (SI geometry); SI Table 20 row '(S)-reactant complex': E = -3910.739063, ZPE = 1.105354

0 1
C         0.79600        2.24200        0.47300
C         1.35600        1.18900        1.21200
C        -0.59400        1.37500       -1.47300
C         0.46400        2.14700       -0.96900
C         1.23800        2.84900       -1.90600
C         0.09500        2.00700       -3.67000
C        -0.78500        1.30300       -2.85000
C         0.54900        3.44000        1.16200
C         1.24900        2.59400        3.14100
C         1.58800        1.36700        2.57400
P        -1.60900        0.35400       -0.29900
P         1.64100       -0.45000        0.38900
N         1.06700        2.78600       -3.22000
N         0.76500        3.62000        2.45800
O         1.43200        2.73000        4.47000
O        -0.06800        1.88100       -5.00200
C         1.08600        3.98400        5.03800
H         0.03100        4.21700        4.86300
H         1.69800        4.78900        4.62000
H         1.27800        3.87900        6.10700
C         0.82700        2.61100       -5.82700
H         1.86500        2.33000       -5.62800
H         0.71900        3.68800       -5.66600
H         0.55400        2.35400       -6.85100
O         2.22200        3.62600       -1.42900
O         0.04600        4.46200        0.45200
C         2.99600        4.33800       -2.37900
H         2.37600        5.04000       -2.94400
H         3.48300        3.65300       -3.07900
H         3.74300        4.87800       -1.79500
C        -0.18900        5.67400        1.14600
H         0.73900        6.07700        1.56400
H        -0.90800        5.52700        1.95800
H        -0.59500        6.36000        0.40100
H        -1.58400        0.73200       -3.30300
H         2.02200        0.59800        3.19900
C         2.71200        0.02700       -1.01700
C         3.79500        0.89700       -0.86900
C         2.38300       -0.45500       -2.28100
C         4.55700        1.27400       -1.97300
H         4.03500        1.30100        0.11200
C         3.11300       -0.07200       -3.40700
H         1.53800       -1.12500       -2.39400
C         4.19700        0.78700       -3.23300
H         4.77600        1.09300       -4.10300
C         2.75200       -1.32600        1.55300
C         4.07600       -1.63100        1.25900
C         2.18200       -1.83500        2.72800
C         4.83800       -2.42800        2.12100
H         4.52800       -1.27300        0.33900
C         2.92000       -2.61500        3.60900
H         1.13400       -1.64200        2.93600
C         4.25100       -2.90300        3.28900
H         4.83700       -3.52400        3.96500
C        -3.09200       -0.06900       -1.29100
C        -2.93000       -1.05900       -2.27100
C        -4.37000        0.41300       -1.02600
C        -4.01100       -1.54700       -2.99500
H        -1.94300       -1.48600       -2.43800
C        -5.48100       -0.07500       -1.72400
H        -4.52300        1.15900       -0.25100
C        -5.28400       -1.04400       -2.70500
H        -6.14400       -1.43400       -3.24600
C        -2.18300        1.63200        0.88300
C        -2.72200        2.85000        0.46100
C        -2.01500        1.39300        2.24400
C        -3.10900        3.81400        1.38800
H        -2.82200        3.05600       -0.60200
C        -2.37400        2.34900        3.19500
H        -1.55900        0.46300        2.56800
C        -2.92500        3.54800        2.74900
H        -3.20800        4.30500        3.47800
C         2.69300       -0.56300       -4.76800
H         2.57500       -1.65200       -4.77000
H         3.42400       -0.29700       -5.53800
H         1.72600       -0.13000       -5.05100
C         5.74500        2.18900       -1.80500
H         5.56000        2.93500       -1.02500
H         5.97700        2.71800       -2.73500
H         6.63900        1.62500       -1.51500
C         6.25900       -2.78100        1.75900
H         6.81900       -1.89600        1.43900
H         6.28000       -3.49900        0.93100
H         6.78800       -3.23100        2.60500
C         2.29000       -3.17800        4.85900
H         2.92800       -3.01800        5.73500
H         2.13000       -4.25900        4.76200
H         1.31900       -2.71500        5.05700
C        -6.86400        0.41900       -1.38200
H        -7.22400       -0.04500       -0.45600
H        -7.58200        0.18000       -2.17300
H        -6.87300        1.50300       -1.23000
C        -3.82100       -2.60500       -4.05200
H        -3.86900       -2.16700       -5.05600
H        -4.59800       -3.37300       -3.98700
H        -2.84900       -3.09800       -3.94700
C        -2.13300        2.07900        4.65800
H        -2.66100        1.17600        4.98500
H        -2.47200        2.91200        5.28300
H        -1.06500        1.92000        4.85200
C        -3.71000        5.11800        0.92500
H        -3.60000        5.90100        1.68200
H        -4.78100        5.00600        0.72000
H        -3.23300        5.46500        0.00300
Rh       -0.30500       -1.64600        0.05200
C         0.82900       -3.20700       -0.60000
C         0.59600       -3.49400       -1.95700
H        -0.13500       -2.90700       -2.51600
C         1.27300       -4.51000       -2.62700
H         1.06500       -4.69700       -3.67900
C         2.21100       -5.28800       -1.95100
C         2.44500       -5.03800       -0.60300
H         3.16600       -5.64100       -0.05600
C         1.76200       -4.01600        0.05900
H         1.97800       -3.85200        1.11200
H         2.74200       -6.08400       -2.46600
C        -1.93200       -3.15600        0.47800
C        -1.06200       -3.04300        1.56500
C        -1.48400       -2.40700        2.87800
C        -3.00500       -2.34300        3.05500
C        -3.69800       -1.87500        1.77700
C        -3.38200       -2.78300        0.59600
H        -3.38500       -3.33700        3.31800
H        -3.25700       -1.67100        3.88400
H        -4.78100       -1.81500        1.91500
H        -1.06100       -1.39800        2.94800
H        -1.03800       -2.97500        3.70500
H        -0.23200       -3.74000        1.63300
H        -1.71600       -3.91100       -0.27600
H        -3.78400       -2.37500       -0.32700
Cl       -4.35700       -4.35200        0.77900
H        -3.35600       -0.86600        1.52100

C P N O H Cl 0
6-31G(d)
****
Rh 0
LANL2DZ
F   1 1.00
      1.3500000              1.0000000
****

Rh 0
LANL2DZ

