%nprocshared=16
%mem=16GB
%chk=methylstyrene.chk
#p b3lyp/6-31g(d) freq=noraman int=finegrid

methylstyrene at the B3LYP/6-31G* geometry of the Singleton & Wang 2005 SI (frequencies only, no optimization)

0 1
C      0.8762098441     1.0062594440     0.6186028698
C      1.0354987319     1.0142054004     1.9504502609
C      1.8996482582     1.9869327950     2.6972311738
C      0.0513864756     0.0909500988    -0.1855319290
H      0.5161205147     0.2771812322     2.5630567299
H      1.4127286489     1.7595829161     0.0394349774
H      1.3130028758     2.5635649367     3.4258830335
H      2.6816905761     1.4681524138     3.2689554315
H      2.3883854934     2.6947263955     2.0192584707
C      0.0239079132     0.2541383495    -1.5818481315
C     -0.7388324287    -0.5825009934    -2.3955029505
C     -1.4964861470    -1.6078420142    -1.8295065391
C     -1.4815687346    -1.7852355727    -0.4426298833
C     -0.7195731503    -0.9490438657     0.3677401315
H      0.6120074203     1.0514283500    -2.0312262153
H     -0.7404288561    -0.4322792493    -3.4720674635
H     -2.0926185841    -2.2625572009    -2.4593589351
H     -2.0682240360    -2.5809832434     0.0094547361
H     -0.7238086277    -1.1059984005     1.4425792190

