%nprocshared=16
%mem=16GB
%chk=ts10.chk
#p b3lyp/6-31g(d) freq=noraman int=finegrid

ts10 at the B3LYP/6-31G* geometry of the Singleton & Wang 2005 SI (frequencies only, no optimization)

0 1
C     -0.1507830347     3.0443105882    -0.7990448169
C     -0.7219029700     2.9132813291     0.4861898114
C     -2.0481752319     3.3541415719     0.6739575103
C     -2.7789290832     3.8978609280    -0.3774760039
C     -2.1996678394     4.0162209756    -1.6428815238
C     -0.8841518813     3.5867147784    -1.8484144247
C      0.0039564909     2.3814544305     1.6246613032
C      1.2295785410     1.7450186196     1.6202008452
C      2.0762033842     1.5808959903     2.8477657067
O      1.9542004122    -0.3941024239    -0.7414790199
C      1.3380747395    -1.3935104621     0.0647691338
C      2.4313953125    -1.7955543961     1.0735245166
O      3.5649197052    -0.9948894551     0.7248041101
C      3.3854598443    -0.5764267740    -0.6193927182
C      0.0203914713    -0.9026433586     0.7193724274
C     -1.0384995911    -0.5363450746    -0.3435201949
C     -1.1573723199    -1.6137484023    -1.4324809792
C      0.1448851298    -2.3152626989    -1.7935740273
O      1.0067948319    -2.5561699704    -0.6834230446
O     -2.3472315300    -0.4818571120     0.1952286480
C     -3.0323214613    -1.7149406167    -0.1178851238
O     -2.0973554667    -2.5098317298    -0.8542955967
C     -3.4037114490    -2.4605425736     1.1552633302
C     -4.2459787322    -1.3697461127    -0.9845350960
O     -0.3380911021    -1.7094037112     1.7244169345
O      0.1553494004     0.0755542958     1.7652747243
C      4.0778101239     0.7628141099    -0.8206749143
C      3.8856373195    -1.6335635236    -1.6112372229
H      5.1610394913     0.6352048518    -0.7352852643
H      3.8525328648     1.1598963566    -1.8150772818
H      3.7571219856     1.4818705772    -0.0632987482
H      4.9608950039    -1.7877297824    -1.4749191017
H      3.3673260681    -2.5825021846    -1.4610832223
H      3.7073411020    -1.3018475996    -2.6396495867
H     -4.1243320976    -1.8738781488     1.7343315731
H     -3.8576323429    -3.4255552841     0.9062437844
H     -2.5046999311    -2.6157267145     1.7530911353
H     -4.9087132726    -0.6847211150    -0.4461731977
H     -3.9322895744    -0.8812565553    -1.9125055960
H     -4.8054816010    -2.2767526444    -1.2354990315
H      2.6452588832    -2.8649123542     0.9756932528
H      2.1411804049    -1.5698309133     2.0986602230
H     -0.7899723827     0.4406025560    -0.7683264252
H     -1.5721853856    -1.1699620053    -2.3532761786
H      0.6693430099    -1.7105324367    -2.5447383069
H     -0.0705944371    -3.2974813010    -2.2214421838
H      2.7419251698     0.7211857559     2.7399375044
H      2.7044925005     2.4715461564     2.9914173816
H      1.4601831409     1.4501138896     3.7423267577
H     -2.5024694165     3.2544373137     1.6561321336
H     -3.8008767658     4.2268870914    -0.2121662167
H     -2.7672134490     4.4435949774    -2.4648729541
H     -0.4283102653     3.6831026857    -2.8299760232
H      0.8722451059     2.7250222165    -0.9716613078
H      1.7269007466     1.5888788089     0.6697200277
H     -0.4830971393     2.5033706843     2.5906575736

