Job Start Time: Sun Sep 27 14:54:12 MDT 2026
SLURM Job ID: 833652
SLURM Job Name: ts10
 Entering Gaussian System, Link 0=/opt/apps/Gaussian/G16C/g16/g16
 Initial command:
 /opt/apps/Gaussian/G16C/g16/l1.exe "/tmp/833652/Gau-1363588.inp" -scrdir="/tmp/833652/"
 Entering Link 1 = /opt/apps/Gaussian/G16C/g16/l1.exe PID=   1363589.
  
 Copyright (c) 1988-2019, Gaussian, Inc.  All Rights Reserved.
  
 This is part of the Gaussian(R) 16 program.  It is based on
 the Gaussian(R) 09 system (copyright 2009, Gaussian, Inc.),
 the Gaussian(R) 03 system (copyright 2003, Gaussian, Inc.),
 the Gaussian(R) 98 system (copyright 1998, Gaussian, Inc.),
 the Gaussian(R) 94 system (copyright 1995, Gaussian, Inc.),
 the Gaussian 92(TM) system (copyright 1992, Gaussian, Inc.),
 the Gaussian 90(TM) system (copyright 1990, Gaussian, Inc.),
 the Gaussian 88(TM) system (copyright 1988, Gaussian, Inc.),
 the Gaussian 86(TM) system (copyright 1986, Carnegie Mellon
 University), and the Gaussian 82(TM) system (copyright 1983,
 Carnegie Mellon University). Gaussian is a federally registered
 trademark of Gaussian, Inc.
  
 This software contains proprietary and confidential information,
 including trade secrets, belonging to Gaussian, Inc.
  
 This software is provided under written license and may be
 used, copied, transmitted, or stored only in accord with that
 written license.
  
 The following legend is applicable only to US Government
 contracts under FAR:
  
                    RESTRICTED RIGHTS LEGEND
  
 Use, reproduction and disclosure by the US Government is
 subject to restrictions as set forth in subparagraphs (a)
 and (c) of the Commercial Computer Software - Restricted
 Rights clause in FAR 52.227-19.
  
 Gaussian, Inc.
 340 Quinnipiac St., Bldg. 40, Wallingford CT 06492
  
  
 ---------------------------------------------------------------
 Warning -- This program may not be used in any manner that
 competes with the business of Gaussian, Inc. or will provide
 assistance to any competitor of Gaussian, Inc.  The licensee
 of this program is prohibited from giving any competitor of
 Gaussian, Inc. access to this program.  By using this program,
 the user acknowledges that Gaussian, Inc. is engaged in the
 business of creating and licensing software in the field of
 computational chemistry and represents and warrants to the
 licensee that it is not a competitor of Gaussian, Inc. and that
 it will not use this program in any manner prohibited above.
 ---------------------------------------------------------------
  

 Cite this work as:
 Gaussian 16, Revision C.01,
 M. J. Frisch, G. W. Trucks, H. B. Schlegel, G. E. Scuseria, 
 M. A. Robb, J. R. Cheeseman, G. Scalmani, V. Barone, 
 G. A. Petersson, H. Nakatsuji, X. Li, M. Caricato, A. V. Marenich, 
 J. Bloino, B. G. Janesko, R. Gomperts, B. Mennucci, H. P. Hratchian, 
 J. V. Ortiz, A. F. Izmaylov, J. L. Sonnenberg, D. Williams-Young, 
 F. Ding, F. Lipparini, F. Egidi, J. Goings, B. Peng, A. Petrone, 
 T. Henderson, D. Ranasinghe, V. G. Zakrzewski, J. Gao, N. Rega, 
 G. Zheng, W. Liang, M. Hada, M. Ehara, K. Toyota, R. Fukuda, 
 J. Hasegawa, M. Ishida, T. Nakajima, Y. Honda, O. Kitao, H. Nakai, 
 T. Vreven, K. Throssell, J. A. Montgomery, Jr., J. E. Peralta, 
 F. Ogliaro, M. J. Bearpark, J. J. Heyd, E. N. Brothers, K. N. Kudin, 
 V. N. Staroverov, T. A. Keith, R. Kobayashi, J. Normand, 
 K. Raghavachari, A. P. Rendell, J. C. Burant, S. S. Iyengar, 
 J. Tomasi, M. Cossi, J. M. Millam, M. Klene, C. Adamo, R. Cammi, 
 J. W. Ochterski, R. L. Martin, K. Morokuma, O. Farkas, 
 J. B. Foresman, and D. J. Fox, Gaussian, Inc., Wallingford CT, 2019.
 
 ******************************************
 Gaussian 16:  AS64L-G16RevC.01  3-Jul-2019
                27-Sep-2026 
 ******************************************
 %nprocshared=16
 Will use up to   16 processors via shared memory.
 %mem=96GB
 %chk=ts10.chk
 -------------------------------------------
 #p b3lyp/6-31g(d) freq=noraman int=finegrid
 -------------------------------------------
 1/10=4,30=1,38=1/1,3;
 2/12=2,17=6,18=5,40=1/2;
 3/5=1,6=6,7=1,11=2,25=1,30=1,71=2,74=-5,75=-4,140=1/1,2,3;
 4//1;
 5/5=2,38=5,98=1/2;
 8/6=4,10=90,11=11/1;
 11/6=1,8=1,9=11,15=111,16=1/1,2,10;
 10/6=1/2;
 6/7=2,8=2,9=2,10=2,28=1/1;
 7/8=1,10=1,25=1/1,2,3,16;
 1/10=4,30=1/3;
 99//99;
 Leave Link    1 at Sun Sep 27 14:54:12 2026, MaxMem= 12884901888 cpu:               0.1 elap:               0.0
 (Enter /opt/apps/Gaussian/G16C/g16/l101.exe)
 ----------------------------------------------------------------------
 ts10 at the B3LYP/6-31G* geometry of the Singleton & Wang 2005 SI (fre
 quencies only, no optimization)
 ----------------------------------------------------------------------
 Symbolic Z-matrix:
 Charge =  0 Multiplicity = 1
 C                    -0.15078   3.04431  -0.79904 
 C                    -0.7219    2.91328   0.48619 
 C                    -2.04818   3.35414   0.67396 
 C                    -2.77893   3.89786  -0.37748 
 C                    -2.19967   4.01622  -1.64288 
 C                    -0.88415   3.58671  -1.84841 
 C                     0.00396   2.38145   1.62466 
 C                     1.22958   1.74502   1.6202 
 C                     2.0762    1.5809    2.84777 
 O                     1.9542   -0.3941   -0.74148 
 C                     1.33807  -1.39351   0.06477 
 C                     2.4314   -1.79555   1.07352 
 O                     3.56492  -0.99489   0.7248 
 C                     3.38546  -0.57643  -0.61939 
 C                     0.02039  -0.90264   0.71937 
 C                    -1.0385   -0.53635  -0.34352 
 C                    -1.15737  -1.61375  -1.43248 
 C                     0.14489  -2.31526  -1.79357 
 O                     1.00679  -2.55617  -0.68342 
 O                    -2.34723  -0.48186   0.19523 
 C                    -3.03232  -1.71494  -0.11789 
 O                    -2.09736  -2.50983  -0.8543 
 C                    -3.40371  -2.46054   1.15526 
 C                    -4.24598  -1.36975  -0.98454 
 O                    -0.33809  -1.7094    1.72442 
 O                     0.15535   0.07555   1.76527 
 C                     4.07781   0.76281  -0.82067 
 C                     3.88564  -1.63356  -1.61124 
 H                     5.16104   0.6352   -0.73529 
 H                     3.85253   1.1599   -1.81508 
 H                     3.75712   1.48187  -0.0633 
 H                     4.9609   -1.78773  -1.47492 
 H                     3.36733  -2.5825   -1.46108 
 H                     3.70734  -1.30185  -2.63965 
 H                    -4.12433  -1.87388   1.73433 
 H                    -3.85763  -3.42556   0.90624 
 H                    -2.5047   -2.61573   1.75309 
 H                    -4.90871  -0.68472  -0.44617 
 H                    -3.93229  -0.88126  -1.91251 
 H                    -4.80548  -2.27675  -1.2355 
 H                     2.64526  -2.86491   0.97569 
 H                     2.14118  -1.56983   2.09866 
 H                    -0.78997   0.4406   -0.76833 
 H                    -1.57219  -1.16996  -2.35328 
 H                     0.66934  -1.71053  -2.54474 
 H                    -0.07059  -3.29748  -2.22144 
 H                     2.74193   0.72119   2.73994 
 H                     2.70449   2.47155   2.99142 
 H                     1.46018   1.45011   3.74233 
 H                    -2.50247   3.25444   1.65613 
 H                    -3.80088   4.22689  -0.21217 
 H                    -2.76721   4.44359  -2.46487 
 H                    -0.42831   3.6831   -2.82998 
 H                     0.87225   2.72502  -0.97166 
 H                     1.7269    1.58888   0.66972 
 H                    -0.4831    2.50337   2.59066 
 
 ITRead=  0  0  0  0  0  0  0  0  0  0  0  0  0  0  0  0  0  0  0  0
 ITRead=  0  0  0  0  0  0  0  0  0  0  0  0  0  0  0  0  0  0  0  0
 ITRead=  0  0  0  0  0  0  0  0  0  0  0  0  0  0  0  0
 MicOpt= -1 -1 -1 -1 -1 -1 -1 -1 -1 -1 -1 -1 -1 -1 -1 -1 -1 -1 -1 -1
 MicOpt= -1 -1 -1 -1 -1 -1 -1 -1 -1 -1 -1 -1 -1 -1 -1 -1 -1 -1 -1 -1
 MicOpt= -1 -1 -1 -1 -1 -1 -1 -1 -1 -1 -1 -1 -1 -1 -1 -1
 NAtoms=     56 NQM=       56 NQMF=       0 NMMI=      0 NMMIF=      0
                NMic=       0 NMicF=      0.
                    Isotopes and Nuclear Properties:
 (Nuclear quadrupole moments (NQMom) in fm**2, nuclear magnetic moments (NMagM)
  in nuclear magnetons)

  Atom         1           2           3           4           5           6           7           8           9          10
 IAtWgt=          12          12          12          12          12          12          12          12          12          16
 AtmWgt=  12.0000000  12.0000000  12.0000000  12.0000000  12.0000000  12.0000000  12.0000000  12.0000000  12.0000000  15.9949146
 NucSpn=           0           0           0           0           0           0           0           0           0           0
 AtZEff=  -0.0000000  -0.0000000  -0.0000000  -0.0000000  -0.0000000  -0.0000000  -0.0000000  -0.0000000  -0.0000000  -0.0000000
 NQMom=    0.0000000   0.0000000   0.0000000   0.0000000   0.0000000   0.0000000   0.0000000   0.0000000   0.0000000   0.0000000
 NMagM=    0.0000000   0.0000000   0.0000000   0.0000000   0.0000000   0.0000000   0.0000000   0.0000000   0.0000000   0.0000000
 AtZNuc=   6.0000000   6.0000000   6.0000000   6.0000000   6.0000000   6.0000000   6.0000000   6.0000000   6.0000000   8.0000000

  Atom        11          12          13          14          15          16          17          18          19          20
 IAtWgt=          12          12          16          12          12          12          12          12          16          16
 AtmWgt=  12.0000000  12.0000000  15.9949146  12.0000000  12.0000000  12.0000000  12.0000000  12.0000000  15.9949146  15.9949146
 NucSpn=           0           0           0           0           0           0           0           0           0           0
 AtZEff=  -0.0000000  -0.0000000  -0.0000000  -0.0000000  -0.0000000  -0.0000000  -0.0000000  -0.0000000  -0.0000000  -0.0000000
 NQMom=    0.0000000   0.0000000   0.0000000   0.0000000   0.0000000   0.0000000   0.0000000   0.0000000   0.0000000   0.0000000
 NMagM=    0.0000000   0.0000000   0.0000000   0.0000000   0.0000000   0.0000000   0.0000000   0.0000000   0.0000000   0.0000000
 AtZNuc=   6.0000000   6.0000000   8.0000000   6.0000000   6.0000000   6.0000000   6.0000000   6.0000000   8.0000000   8.0000000

  Atom        21          22          23          24          25          26          27          28          29          30
 IAtWgt=          12          16          12          12          16          16          12          12           1           1
 AtmWgt=  12.0000000  15.9949146  12.0000000  12.0000000  15.9949146  15.9949146  12.0000000  12.0000000   1.0078250   1.0078250
 NucSpn=           0           0           0           0           0           0           0           0           1           1
 AtZEff=  -0.0000000  -0.0000000  -0.0000000  -0.0000000  -0.0000000  -0.0000000  -0.0000000  -0.0000000  -0.0000000  -0.0000000
 NQMom=    0.0000000   0.0000000   0.0000000   0.0000000   0.0000000   0.0000000   0.0000000   0.0000000   0.0000000   0.0000000
 NMagM=    0.0000000   0.0000000   0.0000000   0.0000000   0.0000000   0.0000000   0.0000000   0.0000000   2.7928460   2.7928460
 AtZNuc=   6.0000000   8.0000000   6.0000000   6.0000000   8.0000000   8.0000000   6.0000000   6.0000000   1.0000000   1.0000000

  Atom        31          32          33          34          35          36          37          38          39          40
 IAtWgt=           1           1           1           1           1           1           1           1           1           1
 AtmWgt=   1.0078250   1.0078250   1.0078250   1.0078250   1.0078250   1.0078250   1.0078250   1.0078250   1.0078250   1.0078250
 NucSpn=           1           1           1           1           1           1           1           1           1           1
 AtZEff=  -0.0000000  -0.0000000  -0.0000000  -0.0000000  -0.0000000  -0.0000000  -0.0000000  -0.0000000  -0.0000000  -0.0000000
 NQMom=    0.0000000   0.0000000   0.0000000   0.0000000   0.0000000   0.0000000   0.0000000   0.0000000   0.0000000   0.0000000
 NMagM=    2.7928460   2.7928460   2.7928460   2.7928460   2.7928460   2.7928460   2.7928460   2.7928460   2.7928460   2.7928460
 AtZNuc=   1.0000000   1.0000000   1.0000000   1.0000000   1.0000000   1.0000000   1.0000000   1.0000000   1.0000000   1.0000000

  Atom        41          42          43          44          45          46          47          48          49          50
 IAtWgt=           1           1           1           1           1           1           1           1           1           1
 AtmWgt=   1.0078250   1.0078250   1.0078250   1.0078250   1.0078250   1.0078250   1.0078250   1.0078250   1.0078250   1.0078250
 NucSpn=           1           1           1           1           1           1           1           1           1           1
 AtZEff=  -0.0000000  -0.0000000  -0.0000000  -0.0000000  -0.0000000  -0.0000000  -0.0000000  -0.0000000  -0.0000000  -0.0000000
 NQMom=    0.0000000   0.0000000   0.0000000   0.0000000   0.0000000   0.0000000   0.0000000   0.0000000   0.0000000   0.0000000
 NMagM=    2.7928460   2.7928460   2.7928460   2.7928460   2.7928460   2.7928460   2.7928460   2.7928460   2.7928460   2.7928460
 AtZNuc=   1.0000000   1.0000000   1.0000000   1.0000000   1.0000000   1.0000000   1.0000000   1.0000000   1.0000000   1.0000000

  Atom        51          52          53          54          55          56
 IAtWgt=           1           1           1           1           1           1
 AtmWgt=   1.0078250   1.0078250   1.0078250   1.0078250   1.0078250   1.0078250
 NucSpn=           1           1           1           1           1           1
 AtZEff=  -0.0000000  -0.0000000  -0.0000000  -0.0000000  -0.0000000  -0.0000000
 NQMom=    0.0000000   0.0000000   0.0000000   0.0000000   0.0000000   0.0000000
 NMagM=    2.7928460   2.7928460   2.7928460   2.7928460   2.7928460   2.7928460
 AtZNuc=   1.0000000   1.0000000   1.0000000   1.0000000   1.0000000   1.0000000
 Leave Link  101 at Sun Sep 27 14:54:12 2026, MaxMem= 12884901888 cpu:               0.1 elap:               0.1
 (Enter /opt/apps/Gaussian/G16C/g16/l103.exe)

 GradGradGradGradGradGradGradGradGradGradGradGradGradGradGradGradGradGrad
 Berny optimization.
 Initialization pass.
 Trust Radius=3.00D-01 FncErr=1.00D-07 GrdErr=1.00D-07 EigMax=2.50D+02 EigMin=1.00D-04
 Number of steps in this run=      2 maximum allowed number of steps=      2.
 GradGradGradGradGradGradGradGradGradGradGradGradGradGradGradGradGradGrad

 Leave Link  103 at Sun Sep 27 14:54:12 2026, MaxMem= 12884901888 cpu:               0.0 elap:               0.0
 (Enter /opt/apps/Gaussian/G16C/g16/l202.exe)
 Stoichiometry    C21H28O7
 Framework group  C1[X(C21H28O7)]
 Deg. of freedom   162
 Full point group                 C1      NOp   1
 Largest Abelian subgroup         C1      NOp   1
 Largest concise Abelian subgroup C1      NOp   1
                         Standard orientation:                         
 ---------------------------------------------------------------------
 Center     Atomic      Atomic             Coordinates (Angstroms)
 Number     Number       Type             X           Y           Z
 ---------------------------------------------------------------------
      1          6           0        1.249000   -2.719838   -0.985654
      2          6           0        1.683816   -2.508553    0.341549
      3          6           0        3.071427   -2.473321    0.590359
      4          6           0        3.989581   -2.635547   -0.442027
      5          6           0        3.541868   -2.839551   -1.749214
      6          6           0        2.169049   -2.880102   -2.015719
      7          6           0        0.770869   -2.363185    1.460131
      8          6           0       -0.599267   -2.196512    1.413584
      9          6           0       -1.498859   -2.444073    2.588349
     10          8           0       -1.935281   -0.250457   -0.846147
     11          6           0       -1.745491    0.828013    0.064537
     12          6           0       -2.950723    0.735180    1.020244
     13          8           0       -3.713053   -0.377603    0.542632
     14          6           0       -3.342402   -0.590176   -0.810739
     15          6           0       -0.367385    0.773528    0.774184
     16          6           0        0.795261    0.892351   -0.235421
     17          6           0        0.570451    2.032708   -1.240314
     18          6           0       -0.879677    2.263972   -1.642845
     19          8           0       -1.815863    2.092809   -0.580950
     20          8           0        2.015614    1.251920    0.387032
     21          6           0        2.233215    2.668559    0.203551
     22          8           0        1.108778    3.147320   -0.541261
     23          6           0        2.264771    3.384722    1.545518
     24          6           0        3.525012    2.844240   -0.598699
     25          8           0       -0.358502    1.565263    1.852406
     26          8           0       -0.190884   -0.276167    1.741646
     27          6           0       -3.508202   -2.064284   -1.146814
     28          6           0       -4.142625    0.306938   -1.762737
     29          1           0       -4.569208   -2.330481   -1.127678
     30          1           0       -3.116620   -2.270928   -2.147425
     31          1           0       -2.985540   -2.688406   -0.418255
     32          1           0       -5.207649    0.063936   -1.690606
     33          1           0       -3.999530    1.360470   -1.515206
     34          1           0       -3.816648    0.147819   -2.796119
     35          1           0        3.121773    3.038992    2.132721
     36          1           0        2.358372    4.465035    1.392328
     37          1           0        1.345193    3.164569    2.089218
     38          1           0        4.364323    2.390014   -0.062466
     39          1           0        3.442415    2.358538   -1.576156
     40          1           0        3.737863    3.907427   -0.750406
     41          1           0       -3.524316    1.666896    0.978645
     42          1           0       -2.641776    0.537840    2.045763
     43          1           0        0.925472   -0.069623   -0.739707
     44          1           0        1.152659    1.842295   -2.157733
     45          1           0       -1.125456    1.581082   -2.466407
     46          1           0       -1.007678    3.292490   -1.989288
     47          1           0       -2.420316   -1.864807    2.492004
     48          1           0       -1.777378   -3.506789    2.629592
     49          1           0       -1.005973   -2.183834    3.529712
     50          1           0        3.420543   -2.306030    1.605801
     51          1           0        5.054177   -2.600207   -0.229072
     52          1           0        4.256978   -2.969833   -2.556723
     53          1           0        1.817291   -3.044890   -3.030439
     54          1           0        0.187134   -2.764016   -1.206598
     55          1           0       -1.080267   -2.142776    0.443597
     56          1           0        1.229547   -2.389896    2.447113
 ---------------------------------------------------------------------
 Rotational constants (GHZ):           0.2159117           0.1778087           0.1293733
 Leave Link  202 at Sun Sep 27 14:54:12 2026, MaxMem= 12884901888 cpu:               0.0 elap:               0.0
 (Enter /opt/apps/Gaussian/G16C/g16/l301.exe)
 Standard basis: 6-31G(d) (6D, 7F)
 Ernie: Thresh=  0.10000D-02 Tol=  0.10000D-05 Strict=F.
 There are   476 symmetry adapted cartesian basis functions of A   symmetry.
 There are   476 symmetry adapted basis functions of A   symmetry.
   476 basis functions,   896 primitive gaussians,   476 cartesian basis functions
   105 alpha electrons      105 beta electrons
       nuclear repulsion energy      3038.7297809431 Hartrees.
 IExCor=  402 DFT=T Ex+Corr=B3LYP ExCW=0 ScaHFX=  0.200000
 ScaDFX=  0.800000  0.720000  1.000000  0.810000 ScalE2=  1.000000  1.000000
 IRadAn=      4 IRanWt=     -1 IRanGd=            0 ICorTp=0 IEmpDi=  4
 NAtoms=   56 NActive=   56 NUniq=   56 SFac= 1.00D+00 NAtFMM=   60 NAOKFM=F Big=F
 Integral buffers will be    131072 words long.
 Raffenetti 2 integral format.
 Two-electron integral symmetry is turned on.
 Leave Link  301 at Sun Sep 27 14:54:12 2026, MaxMem= 12884901888 cpu:               0.1 elap:               0.0
 (Enter /opt/apps/Gaussian/G16C/g16/l302.exe)
 NPDir=0 NMtPBC=     1 NCelOv=     1 NCel=       1 NClECP=     1 NCelD=      1
         NCelK=      1 NCelE2=     1 NClLst=     1 CellRange=     0.0.
 One-electron integrals computed using PRISM.
 One-electron integral symmetry used in STVInt
 NBasis=   476 RedAO= T EigKep=  4.58D-04  NBF=   476
 NBsUse=   476 1.00D-06 EigRej= -1.00D+00 NBFU=   476
 Precomputing XC quadrature grid using
 IXCGrd= 4 IRadAn=           4 IRanWt=          -1 IRanGd=           0 AccXCQ= 0.00D+00.
 Generated NRdTot=       0 NPtTot=           0 NUsed=           0 NTot=          32
 NSgBfM=   474   474   474   474   474 MxSgAt=    56 MxSgA2=    56.
 Leave Link  302 at Sun Sep 27 14:54:12 2026, MaxMem= 12884901888 cpu:               3.5 elap:               0.4
 (Enter /opt/apps/Gaussian/G16C/g16/l303.exe)
 DipDrv:  MaxL=1.
 Leave Link  303 at Sun Sep 27 14:54:12 2026, MaxMem= 12884901888 cpu:               0.1 elap:               0.0
 (Enter /opt/apps/Gaussian/G16C/g16/l401.exe)
 ExpMin= 1.61D-01 ExpMax= 5.48D+03 ExpMxC= 8.25D+02 IAcc=2 IRadAn=         4 AccDes= 0.00D+00
 Harris functional with IExCor=  402 and IRadAn=       4 diagonalized for initial guess.
 HarFok:  IExCor=  402 AccDes= 0.00D+00 IRadAn=         4 IDoV= 1 UseB2=F ITyADJ=14
 ICtDFT=  3500011 ScaDFX=  1.000000  1.000000  1.000000  1.000000
 FoFCou: FMM=F IPFlag=           0 FMFlag=      100000 FMFlg1=           0
         NFxFlg=           0 DoJE=T BraDBF=F KetDBF=T FulRan=T
         wScrn=  0.000000 ICntrl=       500 IOpCl=  0 I1Cent=   200000004 NGrid=           0
         NMat0=    1 NMatS0=      1 NMatT0=    0 NMatD0=    1 NMtDS0=    0 NMtDT0=    0
 Petite list used in FoFCou.
 Harris En= -1343.52400975527    
 JPrj=0 DoOrth=F DoCkMO=F.
 Leave Link  401 at Sun Sep 27 14:54:13 2026, MaxMem= 12884901888 cpu:              14.8 elap:               1.1
 (Enter /opt/apps/Gaussian/G16C/g16/l502.exe)
 Integral symmetry usage will be decided dynamically.
 Closed shell SCF:
 Using DIIS extrapolation, IDIIS=  1040.
 NGot= 12884901888 LenX= 12884434430 LenY= 12884207378
 Requested convergence on RMS density matrix=1.00D-08 within 128 cycles.
 Requested convergence on MAX density matrix=1.00D-06.
 Requested convergence on             energy=1.00D-06.
 No special actions if energy rises.
 Fock matrices will be formed incrementally for  20 cycles.
 Integral accuracy reduced to 1.0D-05 until final iterations.

 Cycle   1  Pass 0  IDiag  1:
 FoFJK:  IHMeth= 1 ICntrl=       0 DoSepK=F KAlg= 0 I1Cent=           0 FoldK=F
 IRaf= 780000000 NMat=       1 IRICut=       1 DoRegI=T DoRafI=F ISym2E= 0 IDoP0=0 IntGTp=1.
 FoFCou: FMM=F IPFlag=           0 FMFlag=      100000 FMFlg1=           0
         NFxFlg=           0 DoJE=F BraDBF=F KetDBF=F FulRan=T
         wScrn=  0.000000 ICntrl=         0 IOpCl=  0 I1Cent=           0 NGrid=           0
         NMat0=    1 NMatS0=      1 NMatT0=    0 NMatD0=    1 NMtDS0=    0 NMtDT0=    0
 Symmetry not used in FoFCou.
 E= -1342.85633669840    
 DIIS: error= 3.20D-02 at cycle   1 NSaved=   1.
 NSaved= 1 IEnMin= 1 EnMin= -1342.85633669840     IErMin= 1 ErrMin= 3.20D-02
 ErrMax= 3.20D-02  0.00D+00 EMaxC= 1.00D-01 BMatC= 6.73D-01 BMatP= 6.73D-01
 IDIUse=3 WtCom= 6.80D-01 WtEn= 3.20D-01
 Coeff-Com:  0.100D+01
 Coeff-En:   0.100D+01
 Coeff:      0.100D+01
 Gap=     0.112 Goal=   None    Shift=    0.000
 GapD=    0.112 DampG=1.000 DampE=0.500 DampFc=0.5000 IDamp=-1.
 Damping current iteration by 5.00D-01
 RMSDP=3.81D-03 MaxDP=2.29D-01              OVMax= 4.55D-01

 Cycle   2  Pass 0  IDiag  1:
 RMSU=  1.89D-03    CP:  9.83D-01
 E= -1343.07013614328     Delta-E=       -0.213799444879 Rises=F Damp=T
 DIIS: error= 2.38D-02 at cycle   2 NSaved=   2.
 NSaved= 2 IEnMin= 2 EnMin= -1343.07013614328     IErMin= 2 ErrMin= 2.38D-02
 ErrMax= 2.38D-02  0.00D+00 EMaxC= 1.00D-01 BMatC= 1.07D-01 BMatP= 6.73D-01
 IDIUse=3 WtCom= 7.62D-01 WtEn= 2.38D-01
 Coeff-Com:  0.169D+00 0.831D+00
 Coeff-En:   0.269D+00 0.731D+00
 Coeff:      0.193D+00 0.807D+00
 Gap=     0.226 Goal=   None    Shift=    0.000
 RMSDP=1.69D-03 MaxDP=1.94D-01 DE=-2.14D-01 OVMax= 2.75D-01

 Cycle   3  Pass 0  IDiag  1:
 RMSU=  1.61D-03    CP:  9.76D-01  7.24D-01
 E= -1343.16177533137     Delta-E=       -0.091639188091 Rises=F Damp=F
 DIIS: error= 4.29D-02 at cycle   3 NSaved=   3.
 NSaved= 3 IEnMin= 3 EnMin= -1343.16177533137     IErMin= 2 ErrMin= 2.38D-02
 ErrMax= 4.29D-02  0.00D+00 EMaxC= 1.00D-01 BMatC= 3.51D-01 BMatP= 1.07D-01
 IDIUse=2 WtCom= 0.00D+00 WtEn= 1.00D+00
 Coeff-En:   0.000D+00 0.417D+00 0.583D+00
 Coeff:      0.000D+00 0.417D+00 0.583D+00
 Gap=     0.107 Goal=   None    Shift=    0.000
 RMSDP=3.02D-03 MaxDP=3.24D-01 DE=-9.16D-02 OVMax= 6.28D-01

 Cycle   4  Pass 0  IDiag  1:
 RMSU=  1.91D-03    CP:  9.74D-01  1.16D+00 -3.60D-01
 E= -1342.07094308722     Delta-E=        1.090832244146 Rises=F Damp=F
 DIIS: error= 8.78D-02 at cycle   4 NSaved=   4.
 NSaved= 4 IEnMin= 3 EnMin= -1343.16177533137     IErMin= 2 ErrMin= 2.38D-02
 ErrMax= 8.78D-02  0.00D+00 EMaxC= 1.00D-01 BMatC= 1.43D+00 BMatP= 1.07D-01
 IDIUse=2 WtCom= 0.00D+00 WtEn= 1.00D+00
 Coeff-En:   0.000D+00 0.000D+00 0.717D+00 0.283D+00
 Coeff:      0.000D+00 0.000D+00 0.717D+00 0.283D+00
 Gap=     0.048 Goal=   None    Shift=    0.000
 RMSDP=1.98D-03 MaxDP=1.71D-01 DE= 1.09D+00 OVMax= 5.57D-01

 Cycle   5  Pass 0  IDiag  1:
 RMSU=  5.85D-04    CP:  9.80D-01  9.38D-01  7.72D-02  1.11D-01
 E= -1343.41315361899     Delta-E=       -1.342210531770 Rises=F Damp=F
 DIIS: error= 2.91D-02 at cycle   5 NSaved=   5.
 NSaved= 5 IEnMin= 5 EnMin= -1343.41315361899     IErMin= 2 ErrMin= 2.38D-02
 ErrMax= 2.91D-02  0.00D+00 EMaxC= 1.00D-01 BMatC= 9.88D-02 BMatP= 1.07D-01
 IDIUse=3 WtCom= 7.09D-01 WtEn= 2.91D-01
 Coeff-Com:  0.236D-01 0.524D-01 0.316D+00-0.179D-01 0.626D+00
 Coeff-En:   0.000D+00 0.000D+00 0.283D+00 0.000D+00 0.717D+00
 Coeff:      0.168D-01 0.372D-01 0.306D+00-0.127D-01 0.652D+00
 Gap=     0.118 Goal=   None    Shift=    0.000
 RMSDP=6.28D-04 MaxDP=5.83D-02 DE=-1.34D+00 OVMax= 8.45D-02

 Cycle   6  Pass 0  IDiag  1:
 RMSU=  3.74D-04    CP:  9.78D-01  8.61D-01  3.52D-01  5.81D-02  7.16D-01
 E= -1343.48979049674     Delta-E=       -0.076636877749 Rises=F Damp=F
 DIIS: error= 2.50D-03 at cycle   6 NSaved=   6.
 NSaved= 6 IEnMin= 6 EnMin= -1343.48979049674     IErMin= 6 ErrMin= 2.50D-03
 ErrMax= 2.50D-03  0.00D+00 EMaxC= 1.00D-01 BMatC= 9.00D-03 BMatP= 9.88D-02
 IDIUse=3 WtCom= 9.75D-01 WtEn= 2.50D-02
 Coeff-Com:  0.518D-02 0.110D-01 0.159D+00-0.254D-01 0.397D+00 0.453D+00
 Coeff-En:   0.000D+00 0.000D+00 0.000D+00 0.000D+00 0.710D-02 0.993D+00
 Coeff:      0.505D-02 0.107D-01 0.155D+00-0.248D-01 0.388D+00 0.466D+00
 Gap=     0.115 Goal=   None    Shift=    0.000
 RMSDP=2.79D-04 MaxDP=1.91D-02 DE=-7.66D-02 OVMax= 3.77D-02

 Cycle   7  Pass 0  IDiag  1:
 RMSU=  1.50D-04    CP:  9.79D-01  8.66D-01  3.38D-01  4.15D-02  7.95D-01
                    CP:  3.93D-01
 E= -1343.49648299691     Delta-E=       -0.006692500168 Rises=F Damp=F
 DIIS: error= 1.99D-03 at cycle   7 NSaved=   7.
 NSaved= 7 IEnMin= 7 EnMin= -1343.49648299691     IErMin= 7 ErrMin= 1.99D-03
 ErrMax= 1.99D-03  0.00D+00 EMaxC= 1.00D-01 BMatC= 2.40D-03 BMatP= 9.00D-03
 IDIUse=3 WtCom= 9.80D-01 WtEn= 1.99D-02
 Coeff-Com:  0.311D-02-0.993D-02 0.549D-01-0.123D-01 0.125D+00 0.303D+00
 Coeff-Com:  0.537D+00
 Coeff-En:   0.000D+00 0.000D+00 0.000D+00 0.000D+00 0.000D+00 0.204D+00
 Coeff-En:   0.796D+00
 Coeff:      0.305D-02-0.974D-02 0.538D-01-0.121D-01 0.122D+00 0.301D+00
 Coeff:      0.542D+00
 Gap=     0.118 Goal=   None    Shift=    0.000
 RMSDP=1.14D-04 MaxDP=1.43D-02 DE=-6.69D-03 OVMax= 1.43D-02

 Cycle   8  Pass 0  IDiag  1:
 RMSU=  7.02D-05    CP:  9.79D-01  8.64D-01  3.41D-01  4.12D-02  7.96D-01
                    CP:  4.93D-01  4.63D-01
 E= -1343.49774018539     Delta-E=       -0.001257188487 Rises=F Damp=F
 DIIS: error= 9.01D-04 at cycle   8 NSaved=   8.
 NSaved= 8 IEnMin= 8 EnMin= -1343.49774018539     IErMin= 8 ErrMin= 9.01D-04
 ErrMax= 9.01D-04  0.00D+00 EMaxC= 1.00D-01 BMatC= 8.82D-04 BMatP= 2.40D-03
 IDIUse=3 WtCom= 9.91D-01 WtEn= 9.01D-03
 Coeff-Com:  0.359D-02-0.705D-02 0.315D-02 0.213D-03-0.293D-01 0.103D+00
 Coeff-Com:  0.440D+00 0.486D+00
 Coeff-En:   0.000D+00 0.000D+00 0.000D+00 0.000D+00 0.000D+00 0.000D+00
 Coeff-En:   0.290D+00 0.710D+00
 Coeff:      0.356D-02-0.698D-02 0.312D-02 0.211D-03-0.291D-01 0.102D+00
 Coeff:      0.439D+00 0.488D+00
 Gap=     0.117 Goal=   None    Shift=    0.000
 RMSDP=6.60D-05 MaxDP=5.22D-03 DE=-1.26D-03 OVMax= 1.48D-02

 Cycle   9  Pass 0  IDiag  1:
 RMSU=  2.28D-05    CP:  9.79D-01  8.54D-01  3.58D-01  3.93D-02  7.72D-01
                    CP:  5.01D-01  7.06D-01  5.04D-01
 E= -1343.49847771530     Delta-E=       -0.000737529905 Rises=F Damp=F
 DIIS: error= 4.68D-04 at cycle   9 NSaved=   9.
 NSaved= 9 IEnMin= 9 EnMin= -1343.49847771530     IErMin= 9 ErrMin= 4.68D-04
 ErrMax= 4.68D-04  0.00D+00 EMaxC= 1.00D-01 BMatC= 4.49D-05 BMatP= 8.82D-04
 IDIUse=3 WtCom= 9.95D-01 WtEn= 4.68D-03
 Coeff-Com:  0.179D-02-0.390D-02-0.378D-03 0.517D-03-0.166D-01 0.594D-01
 Coeff-Com:  0.247D+00 0.295D+00 0.418D+00
 Coeff-En:   0.000D+00 0.000D+00 0.000D+00 0.000D+00 0.000D+00 0.000D+00
 Coeff-En:   0.000D+00 0.170D-01 0.983D+00
 Coeff:      0.178D-02-0.388D-02-0.376D-03 0.515D-03-0.165D-01 0.591D-01
 Coeff:      0.245D+00 0.294D+00 0.420D+00
 Gap=     0.117 Goal=   None    Shift=    0.000
 RMSDP=1.53D-05 MaxDP=8.72D-04 DE=-7.38D-04 OVMax= 2.28D-03

 Cycle  10  Pass 0  IDiag  1:
 RMSU=  7.81D-06    CP:  9.79D-01  8.56D-01  3.55D-01  4.04D-02  7.77D-01
                    CP:  5.07D-01  6.98D-01  5.36D-01  5.48D-01
 E= -1343.49852378797     Delta-E=       -0.000046072673 Rises=F Damp=F
 DIIS: error= 1.99D-04 at cycle  10 NSaved=  10.
 NSaved=10 IEnMin=10 EnMin= -1343.49852378797     IErMin=10 ErrMin= 1.99D-04
 ErrMax= 1.99D-04  0.00D+00 EMaxC= 1.00D-01 BMatC= 5.18D-06 BMatP= 4.49D-05
 IDIUse=3 WtCom= 9.98D-01 WtEn= 1.99D-03
 Coeff-Com:  0.239D-03-0.412D-03-0.108D-02 0.140D-03-0.223D-02 0.223D-01
 Coeff-Com:  0.728D-01 0.871D-01 0.210D+00 0.611D+00
 Coeff-En:   0.000D+00 0.000D+00 0.000D+00 0.000D+00 0.000D+00 0.000D+00
 Coeff-En:   0.000D+00 0.000D+00 0.000D+00 0.100D+01
 Coeff:      0.239D-03-0.411D-03-0.108D-02 0.140D-03-0.223D-02 0.222D-01
 Coeff:      0.726D-01 0.869D-01 0.210D+00 0.612D+00
 Gap=     0.117 Goal=   None    Shift=    0.000
 RMSDP=4.77D-06 MaxDP=3.84D-04 DE=-4.61D-05 OVMax= 8.19D-04

 Initial convergence to 1.0D-05 achieved.  Increase integral accuracy.
 Cycle  11  Pass 1  IDiag  1:
 E= -1343.49880061226     Delta-E=       -0.000276824286 Rises=F Damp=F
 DIIS: error= 5.28D-05 at cycle   1 NSaved=   1.
 NSaved= 1 IEnMin= 1 EnMin= -1343.49880061226     IErMin= 1 ErrMin= 5.28D-05
 ErrMax= 5.28D-05  0.00D+00 EMaxC= 1.00D-01 BMatC= 2.03D-06 BMatP= 2.03D-06
 IDIUse=1 WtCom= 1.00D+00 WtEn= 0.00D+00
 Coeff-Com:  0.100D+01
 Coeff:      0.100D+01
 Gap=     0.117 Goal=   None    Shift=    0.000
 RMSDP=4.77D-06 MaxDP=3.84D-04 DE=-2.77D-04 OVMax= 8.70D-04

 Cycle  12  Pass 1  IDiag  1:
 RMSU=  2.74D-05    CP:  1.00D+00
 E= -1343.49879780928     Delta-E=        0.000002802974 Rises=F Damp=F
 DIIS: error= 2.22D-04 at cycle   2 NSaved=   2.
 NSaved= 2 IEnMin= 1 EnMin= -1343.49880061226     IErMin= 1 ErrMin= 5.28D-05
 ErrMax= 2.22D-04  0.00D+00 EMaxC= 1.00D-01 BMatC= 5.38D-06 BMatP= 2.03D-06
 IDIUse=3 WtCom= 4.02D-01 WtEn= 5.98D-01
 Coeff-Com:  0.661D+00 0.339D+00
 Coeff-En:   0.726D+00 0.274D+00
 Coeff:      0.700D+00 0.300D+00
 Gap=     0.117 Goal=   None    Shift=    0.000
 RMSDP=6.38D-06 MaxDP=8.37D-04 DE= 2.80D-06 OVMax= 1.55D-03

 Cycle  13  Pass 1  IDiag  1:
 RMSU=  6.26D-06    CP:  1.00D+00  9.55D-01
 E= -1343.49880131946     Delta-E=       -0.000003510177 Rises=F Damp=F
 DIIS: error= 1.26D-04 at cycle   3 NSaved=   3.
 NSaved= 3 IEnMin= 3 EnMin= -1343.49880131946     IErMin= 1 ErrMin= 5.28D-05
 ErrMax= 1.26D-04  0.00D+00 EMaxC= 1.00D-01 BMatC= 1.50D-06 BMatP= 2.03D-06
 IDIUse=3 WtCom= 9.99D-01 WtEn= 1.26D-03
 Coeff-Com:  0.104D+00 0.322D+00 0.573D+00
 Coeff-En:   0.000D+00 0.301D+00 0.699D+00
 Coeff:      0.104D+00 0.322D+00 0.573D+00
 Gap=     0.117 Goal=   None    Shift=    0.000
 RMSDP=3.40D-06 MaxDP=4.02D-04 DE=-3.51D-06 OVMax= 8.62D-04

 Cycle  14  Pass 1  IDiag  1:
 RMSU=  2.22D-06    CP:  1.00D+00  9.79D-01  6.02D-01
 E= -1343.49880234021     Delta-E=       -0.000001020749 Rises=F Damp=F
 DIIS: error= 3.56D-05 at cycle   4 NSaved=   4.
 NSaved= 4 IEnMin= 4 EnMin= -1343.49880234021     IErMin= 4 ErrMin= 3.56D-05
 ErrMax= 3.56D-05  0.00D+00 EMaxC= 1.00D-01 BMatC= 3.66D-07 BMatP= 1.50D-06
 IDIUse=1 WtCom= 1.00D+00 WtEn= 0.00D+00
 Coeff-Com: -0.324D-02 0.201D+00 0.435D+00 0.368D+00
 Coeff:     -0.324D-02 0.201D+00 0.435D+00 0.368D+00
 Gap=     0.117 Goal=   None    Shift=    0.000
 RMSDP=1.48D-06 MaxDP=1.01D-04 DE=-1.02D-06 OVMax= 3.40D-04

 Cycle  15  Pass 1  IDiag  1:
 RMSU=  5.21D-07    CP:  1.00D+00  9.81D-01  6.69D-01  4.04D-01
 E= -1343.49880271017     Delta-E=       -0.000000369959 Rises=F Damp=F
 DIIS: error= 4.00D-06 at cycle   5 NSaved=   5.
 NSaved= 5 IEnMin= 5 EnMin= -1343.49880271017     IErMin= 5 ErrMin= 4.00D-06
 ErrMax= 4.00D-06  0.00D+00 EMaxC= 1.00D-01 BMatC= 1.64D-08 BMatP= 3.66D-07
 IDIUse=1 WtCom= 1.00D+00 WtEn= 0.00D+00
 Coeff-Com: -0.734D-02 0.121D+00 0.268D+00 0.247D+00 0.371D+00
 Coeff:     -0.734D-02 0.121D+00 0.268D+00 0.247D+00 0.371D+00
 Gap=     0.117 Goal=   None    Shift=    0.000
 RMSDP=2.87D-07 MaxDP=2.70D-05 DE=-3.70D-07 OVMax= 4.64D-05

 Cycle  16  Pass 1  IDiag  1:
 RMSU=  2.11D-07    CP:  1.00D+00  9.82D-01  6.58D-01  4.22D-01  6.66D-01
 E= -1343.49880272370     Delta-E=       -0.000000013528 Rises=F Damp=F
 DIIS: error= 1.66D-06 at cycle   6 NSaved=   6.
 NSaved= 6 IEnMin= 6 EnMin= -1343.49880272370     IErMin= 6 ErrMin= 1.66D-06
 ErrMax= 1.66D-06  0.00D+00 EMaxC= 1.00D-01 BMatC= 1.24D-09 BMatP= 1.64D-08
 IDIUse=1 WtCom= 1.00D+00 WtEn= 0.00D+00
 Coeff-Com: -0.421D-02 0.542D-01 0.121D+00 0.113D+00 0.242D+00 0.474D+00
 Coeff:     -0.421D-02 0.542D-01 0.121D+00 0.113D+00 0.242D+00 0.474D+00
 Gap=     0.117 Goal=   None    Shift=    0.000
 RMSDP=1.06D-07 MaxDP=6.22D-06 DE=-1.35D-08 OVMax= 2.26D-05

 Cycle  17  Pass 1  IDiag  1:
 RMSU=  8.87D-08    CP:  1.00D+00  9.82D-01  6.65D-01  4.23D-01  7.30D-01
                    CP:  9.22D-01
 E= -1343.49880272502     Delta-E=       -0.000000001324 Rises=F Damp=F
 DIIS: error= 8.31D-07 at cycle   7 NSaved=   7.
 NSaved= 7 IEnMin= 7 EnMin= -1343.49880272502     IErMin= 7 ErrMin= 8.31D-07
 ErrMax= 8.31D-07  0.00D+00 EMaxC= 1.00D-01 BMatC= 1.75D-10 BMatP= 1.24D-09
 IDIUse=1 WtCom= 1.00D+00 WtEn= 0.00D+00
 Coeff-Com: -0.854D-04-0.474D-02-0.132D-01-0.105D-01 0.288D-01 0.275D+00
 Coeff-Com:  0.725D+00
 Coeff:     -0.854D-04-0.474D-02-0.132D-01-0.105D-01 0.288D-01 0.275D+00
 Coeff:      0.725D+00
 Gap=     0.117 Goal=   None    Shift=    0.000
 RMSDP=6.18D-08 MaxDP=5.00D-06 DE=-1.32D-09 OVMax= 1.50D-05

 Cycle  18  Pass 1  IDiag  1:
 RMSU=  3.40D-08    CP:  1.00D+00  9.82D-01  6.64D-01  4.24D-01  7.92D-01
                    CP:  1.11D+00  9.32D-01
 E= -1343.49880272527     Delta-E=       -0.000000000245 Rises=F Damp=F
 DIIS: error= 3.49D-07 at cycle   8 NSaved=   8.
 NSaved= 8 IEnMin= 8 EnMin= -1343.49880272527     IErMin= 8 ErrMin= 3.49D-07
 ErrMax= 3.49D-07  0.00D+00 EMaxC= 1.00D-01 BMatC= 2.67D-11 BMatP= 1.75D-10
 IDIUse=1 WtCom= 1.00D+00 WtEn= 0.00D+00
 Coeff-Com:  0.532D-03-0.978D-02-0.246D-01-0.207D-01-0.216D-01 0.618D-01
 Coeff-Com:  0.352D+00 0.662D+00
 Coeff:      0.532D-03-0.978D-02-0.246D-01-0.207D-01-0.216D-01 0.618D-01
 Coeff:      0.352D+00 0.662D+00
 Gap=     0.117 Goal=   None    Shift=    0.000
 RMSDP=2.46D-08 MaxDP=2.13D-06 DE=-2.45D-10 OVMax= 6.57D-06

 Cycle  19  Pass 1  IDiag  1:
 RMSU=  1.27D-08    CP:  1.00D+00  9.82D-01  6.63D-01  4.27D-01  8.13D-01
                    CP:  1.16D+00  1.04D+00  9.88D-01
 E= -1343.49880272529     Delta-E=       -0.000000000027 Rises=F Damp=F
 DIIS: error= 4.56D-08 at cycle   9 NSaved=   9.
 NSaved= 9 IEnMin= 9 EnMin= -1343.49880272529     IErMin= 9 ErrMin= 4.56D-08
 ErrMax= 4.56D-08  0.00D+00 EMaxC= 1.00D-01 BMatC= 3.46D-12 BMatP= 2.67D-11
 IDIUse=1 WtCom= 1.00D+00 WtEn= 0.00D+00
 Coeff-Com:  0.313D-03-0.465D-02-0.115D-01-0.966D-02-0.165D-01-0.998D-02
 Coeff-Com:  0.775D-01 0.345D+00 0.629D+00
 Coeff:      0.313D-03-0.465D-02-0.115D-01-0.966D-02-0.165D-01-0.998D-02
 Coeff:      0.775D-01 0.345D+00 0.629D+00
 Gap=     0.117 Goal=   None    Shift=    0.000
 RMSDP=9.04D-09 MaxDP=7.84D-07 DE=-2.73D-11 OVMax= 2.18D-06

 SCF Done:  E(RB3LYP) =  -1343.49880273     A.U. after   19 cycles
            NFock= 19  Conv=0.90D-08     -V/T= 2.0091
 KE= 1.331394496824D+03 PE=-9.211248539043D+03 EE= 3.497625458550D+03
 Leave Link  502 at Sun Sep 27 14:54:54 2026, MaxMem= 12884901888 cpu:             580.6 elap:              40.3
 (Enter /opt/apps/Gaussian/G16C/g16/l801.exe)
 DoSCS=F DFT=T ScalE2(SS,OS)=  1.000000  1.000000
 Range of M.O.s used for correlation:     1   476
 NBasis=   476 NAE=   105 NBE=   105 NFC=     0 NFV=     0
 NROrb=    476 NOA=   105 NOB=   105 NVA=   371 NVB=   371
 Leave Link  801 at Sun Sep 27 14:54:54 2026, MaxMem= 12884901888 cpu:               0.0 elap:               0.0
 (Enter /opt/apps/Gaussian/G16C/g16/l1101.exe)
 Using compressed storage, NAtomX=    56.
 Will process     57 centers per pass.
 Leave Link 1101 at Sun Sep 27 14:54:54 2026, MaxMem= 12884901888 cpu:               3.3 elap:               0.4
 (Enter /opt/apps/Gaussian/G16C/g16/l1102.exe)
 Symmetrizing basis deriv contribution to polar:
 IMax=3 JMax=2 DiffMx= 0.00D+00
 Leave Link 1102 at Sun Sep 27 14:54:54 2026, MaxMem= 12884901888 cpu:               0.1 elap:               0.0
 (Enter /opt/apps/Gaussian/G16C/g16/l1110.exe)
 Forming Gx(P) for the SCF density, NAtomX=    56.
 Integral derivatives from FoFJK, PRISM(SPDF).
 Do as many integral derivatives as possible in FoFJK.
 G2DrvN: MDV=   12884895984.
 G2DrvN: will do    57 centers at a time, making    1 passes.
 Calling FoFCou, ICntrl=  3107 FMM=F I1Cent=   0 AccDes= 0.00D+00.
 FoFJK:  IHMeth= 1 ICntrl=    3107 DoSepK=F KAlg= 0 I1Cent=           0 FoldK=F
 IRaf=         0 NMat=       1 IRICut=       1 DoRegI=T DoRafI=F ISym2E= 0 IDoP0=0 IntGTp=1.
 FoFCou: FMM=F IPFlag=           0 FMFlag=      100000 FMFlg1=           0
         NFxFlg=           0 DoJE=F BraDBF=F KetDBF=F FulRan=T
         wScrn=  0.000000 ICntrl=      3107 IOpCl=  0 I1Cent=           0 NGrid=           0
         NMat0=    1 NMatS0=      1 NMatT0=    0 NMatD0=    1 NMtDS0=    0 NMtDT0=    0
 Symmetry not used in FoFCou.
 End of G2Drv F.D. properties file   721 does not exist.
 End of G2Drv F.D. properties file   722 does not exist.
 End of G2Drv F.D. properties file   788 does not exist.
 Leave Link 1110 at Sun Sep 27 14:56:42 2026, MaxMem= 12884901888 cpu:            1715.2 elap:             108.1
 (Enter /opt/apps/Gaussian/G16C/g16/l1002.exe)
 Minotr:  Closed shell wavefunction.
          IDoAtm=11111111111111111111111111111111111111111111111111
          IDoAtm=111111
          Direct CPHF calculation.
          Differentiating once with respect to electric field.
                with respect to dipole field.
          Differentiating once with respect to nuclear coordinates.
          Requested convergence is 1.0D-08 RMS, and 1.0D-07 maximum.
          Secondary convergence is 1.0D-12 RMS, and 1.0D-12 maximum.
          NewPWx=T KeepS1=F KeepF1=F KeepIn=T MapXYZ=F SortEE=F KeepMc=T.
        11915 words used for storage of precomputed grid.
 Two-electron integrals replicated using symmetry.
          MDV=   12884901888 using IRadAn=       2.
          Solving linear equations simultaneously, MaxMat=     384.
 FoF2E skips out because all densities are zero.
 CalDSu exits because no D1Ps are significant.
 FoFJK:  IHMeth= 1 ICntrl=       0 DoSepK=F KAlg= 0 I1Cent=           0 FoldK=F
 IRaf= 740000000 NMat=     168 IRICut=     420 DoRegI=T DoRafI=T ISym2E= 2 IDoP0=0 IntGTp=1.
 FoFCou: FMM=F IPFlag=           0 FMFlag=      100000 FMFlg1=           0
         NFxFlg=           0 DoJE=F BraDBF=F KetDBF=F FulRan=T
         wScrn=  0.000000 ICntrl=         0 IOpCl=  0 I1Cent=           0 NGrid=           0
         NMat0=  168 NMatS0=    168 NMatT0=    0 NMatD0=  168 NMtDS0=    0 NMtDT0=    0
 Integrals replicated using symmetry in FoFCou.
 Raff kept on since  67.24% of shell-pairs survive, threshold=   0.20 IRatSp=67.
          There are   171 degrees of freedom in the 1st order CPHF.  IDoFFX=6 NUNeed=     3.
    168 vectors produced by pass  0 Test12= 3.90D-14 1.00D-09 XBig12= 4.95D+02 1.31D+01.
 AX will form   168 AO Fock derivatives at one time.
    168 vectors produced by pass  1 Test12= 3.90D-14 1.00D-09 XBig12= 3.03D+02 2.50D+00.
    168 vectors produced by pass  2 Test12= 3.90D-14 1.00D-09 XBig12= 1.65D+00 1.00D-01.
    168 vectors produced by pass  3 Test12= 3.90D-14 1.00D-09 XBig12= 5.87D-03 6.11D-03.
    168 vectors produced by pass  4 Test12= 3.90D-14 1.00D-09 XBig12= 7.68D-06 1.80D-04.
    114 vectors produced by pass  5 Test12= 3.90D-14 1.00D-09 XBig12= 6.44D-09 7.73D-06.
     15 vectors produced by pass  6 Test12= 3.90D-14 1.00D-09 XBig12= 5.72D-12 1.74D-07.
      3 vectors produced by pass  7 Test12= 3.90D-14 1.00D-09 XBig12= 5.28D-15 4.87D-09.
      1 vectors produced by pass  8 Test12= 3.90D-14 1.00D-09 XBig12= 5.01D-16 1.51D-09.
 InvSVY:  IOpt=1 It=  1 EMax= 7.11D-15
 Solved reduced A of dimension   973 with   171 vectors.
 FullF1:  Do perturbations      1 to       3.
 Isotropic polarizability for W=    0.000000      259.04 Bohr**3.
 End of Minotr F.D. properties file   721 does not exist.
 End of Minotr F.D. properties file   722 does not exist.
 End of Minotr F.D. properties file   788 does not exist.
 Leave Link 1002 at Sun Sep 27 15:02:11 2026, MaxMem= 12884901888 cpu:            5106.3 elap:             329.1
 (Enter /opt/apps/Gaussian/G16C/g16/l601.exe)
 Copying SCF densities to generalized density rwf, IOpCl= 0 IROHF=0.

 **********************************************************************

            Population analysis using the SCF Density.

 **********************************************************************

 Orbital symmetries:
       Occupied  (A) (A) (A) (A) (A) (A) (A) (A) (A) (A) (A) (A)
                 (A) (A) (A) (A) (A) (A) (A) (A) (A) (A) (A) (A)
                 (A) (A) (A) (A) (A) (A) (A) (A) (A) (A) (A) (A)
                 (A) (A) (A) (A) (A) (A) (A) (A) (A) (A) (A) (A)
                 (A) (A) (A) (A) (A) (A) (A) (A) (A) (A) (A) (A)
                 (A) (A) (A) (A) (A) (A) (A) (A) (A) (A) (A) (A)
                 (A) (A) (A) (A) (A) (A) (A) (A) (A) (A) (A) (A)
                 (A) (A) (A) (A) (A) (A) (A) (A) (A) (A) (A) (A)
                 (A) (A) (A) (A) (A) (A) (A) (A) (A)
       Virtual   (A) (A) (A) (A) (A) (A) (A) (A) (A) (A) (A) (A)
                 (A) (A) (A) (A) (A) (A) (A) (A) (A) (A) (A) (A)
                 (A) (A) (A) (A) (A) (A) (A) (A) (A) (A) (A) (A)
                 (A) (A) (A) (A) (A) (A) (A) (A) (A) (A) (A) (A)
                 (A) (A) (A) (A) (A) (A) (A) (A) (A) (A) (A) (A)
                 (A) (A) (A) (A) (A) (A) (A) (A) (A) (A) (A) (A)
                 (A) (A) (A) (A) (A) (A) (A) (A) (A) (A) (A) (A)
                 (A) (A) (A) (A) (A) (A) (A) (A) (A) (A) (A) (A)
                 (A) (A) (A) (A) (A) (A) (A) (A) (A) (A) (A) (A)
                 (A) (A) (A) (A) (A) (A) (A) (A) (A) (A) (A) (A)
                 (A) (A) (A) (A) (A) (A) (A) (A) (A) (A) (A) (A)
                 (A) (A) (A) (A) (A) (A) (A) (A) (A) (A) (A) (A)
                 (A) (A) (A) (A) (A) (A) (A) (A) (A) (A) (A) (A)
                 (A) (A) (A) (A) (A) (A) (A) (A) (A) (A) (A) (A)
                 (A) (A) (A) (A) (A) (A) (A) (A) (A) (A) (A) (A)
                 (A) (A) (A) (A) (A) (A) (A) (A) (A) (A) (A) (A)
                 (A) (A) (A) (A) (A) (A) (A) (A) (A) (A) (A) (A)
                 (A) (A) (A) (A) (A) (A) (A) (A) (A) (A) (A) (A)
                 (A) (A) (A) (A) (A) (A) (A) (A) (A) (A) (A) (A)
                 (A) (A) (A) (A) (A) (A) (A) (A) (A) (A) (A) (A)
                 (A) (A) (A) (A) (A) (A) (A) (A) (A) (A) (A) (A)
                 (A) (A) (A) (A) (A) (A) (A) (A) (A) (A) (A) (A)
                 (A) (A) (A) (A) (A) (A) (A) (A) (A) (A) (A) (A)
                 (A) (A) (A) (A) (A) (A) (A) (A) (A) (A) (A) (A)
                 (A) (A) (A) (A) (A) (A) (A) (A) (A) (A) (A) (A)
                 (A) (A) (A) (A) (A) (A) (A) (A) (A) (A) (A) (A)
                 (A) (A) (A) (A) (A) (A) (A) (A) (A) (A) (A) (A)
                 (A) (A) (A) (A) (A) (A) (A) (A) (A) (A) (A) (A)
                 (A) (A) (A) (A) (A) (A) (A) (A) (A) (A) (A) (A)
                 (A) (A) (A) (A) (A) (A) (A) (A) (A) (A) (A) (A)
                 (A) (A) (A) (A) (A) (A) (A) (A) (A) (A) (A)
 The electronic state is 1-A.
 Alpha  occ. eigenvalues --  -19.18951 -19.16270 -19.15364 -19.15185 -19.14138
 Alpha  occ. eigenvalues --  -19.13574 -19.13275 -10.29386 -10.28427 -10.27377
 Alpha  occ. eigenvalues --  -10.27237 -10.23540 -10.23232 -10.22958 -10.22804
 Alpha  occ. eigenvalues --  -10.22769 -10.22329 -10.21761 -10.21017 -10.20992
 Alpha  occ. eigenvalues --  -10.20892 -10.20789 -10.20620 -10.18831 -10.18583
 Alpha  occ. eigenvalues --  -10.17498 -10.16526 -10.15111  -1.09955  -1.07561
 Alpha  occ. eigenvalues --   -1.05517  -1.03456  -0.98715  -0.97728  -0.89865
 Alpha  occ. eigenvalues --   -0.87425  -0.81577  -0.80111  -0.79570  -0.76610
 Alpha  occ. eigenvalues --   -0.76179  -0.73868  -0.71923  -0.70133  -0.69571
 Alpha  occ. eigenvalues --   -0.68354  -0.67856  -0.63101  -0.62531  -0.61713
 Alpha  occ. eigenvalues --   -0.61330  -0.57998  -0.57095  -0.56353  -0.55202
 Alpha  occ. eigenvalues --   -0.53506  -0.51189  -0.50359  -0.50095  -0.48564
 Alpha  occ. eigenvalues --   -0.48292  -0.47586  -0.47449  -0.46426  -0.45387
 Alpha  occ. eigenvalues --   -0.44931  -0.44518  -0.44164  -0.43749  -0.43219
 Alpha  occ. eigenvalues --   -0.42957  -0.42470  -0.41739  -0.40841  -0.40744
 Alpha  occ. eigenvalues --   -0.39946  -0.39841  -0.39210  -0.38890  -0.38708
 Alpha  occ. eigenvalues --   -0.38405  -0.37629  -0.37414  -0.37098  -0.36631
 Alpha  occ. eigenvalues --   -0.36270  -0.35936  -0.35481  -0.35250  -0.34671
 Alpha  occ. eigenvalues --   -0.34418  -0.33701  -0.33247  -0.31933  -0.31493
 Alpha  occ. eigenvalues --   -0.30492  -0.29332  -0.28013  -0.26855  -0.26717
 Alpha  occ. eigenvalues --   -0.25986  -0.25608  -0.24098  -0.22564  -0.22285
 Alpha virt. eigenvalues --   -0.10586  -0.02839  -0.01575   0.04337   0.07052
 Alpha virt. eigenvalues --    0.08437   0.08880   0.09879   0.10252   0.10945
 Alpha virt. eigenvalues --    0.11754   0.12297   0.12358   0.12922   0.13097
 Alpha virt. eigenvalues --    0.13906   0.14159   0.14586   0.15158   0.15273
 Alpha virt. eigenvalues --    0.15425   0.15637   0.16652   0.16813   0.17090
 Alpha virt. eigenvalues --    0.17457   0.17926   0.18364   0.18694   0.18983
 Alpha virt. eigenvalues --    0.19394   0.19656   0.19731   0.20606   0.20792
 Alpha virt. eigenvalues --    0.21300   0.21530   0.22278   0.22668   0.23762
 Alpha virt. eigenvalues --    0.24154   0.24516   0.24824   0.25808   0.26088
 Alpha virt. eigenvalues --    0.26283   0.26567   0.27105   0.27755   0.28524
 Alpha virt. eigenvalues --    0.29109   0.29506   0.29640   0.31787   0.32075
 Alpha virt. eigenvalues --    0.32638   0.34747   0.35814   0.37347   0.40161
 Alpha virt. eigenvalues --    0.40870   0.43815   0.48732   0.49659   0.50218
 Alpha virt. eigenvalues --    0.50755   0.51129   0.51982   0.52365   0.52905
 Alpha virt. eigenvalues --    0.53054   0.53443   0.53933   0.54843   0.55346
 Alpha virt. eigenvalues --    0.55719   0.56557   0.56637   0.56969   0.57415
 Alpha virt. eigenvalues --    0.57668   0.58194   0.58599   0.59229   0.59704
 Alpha virt. eigenvalues --    0.59949   0.60181   0.60282   0.60407   0.61024
 Alpha virt. eigenvalues --    0.61445   0.62309   0.63333   0.63916   0.64259
 Alpha virt. eigenvalues --    0.65023   0.65396   0.66172   0.67253   0.68827
 Alpha virt. eigenvalues --    0.69059   0.70074   0.71601   0.72288   0.72956
 Alpha virt. eigenvalues --    0.73509   0.74037   0.74822   0.75394   0.76249
 Alpha virt. eigenvalues --    0.76901   0.78002   0.78917   0.81136   0.81933
 Alpha virt. eigenvalues --    0.82013   0.82160   0.83003   0.83320   0.83698
 Alpha virt. eigenvalues --    0.84858   0.85807   0.85996   0.86481   0.87406
 Alpha virt. eigenvalues --    0.87745   0.88126   0.88824   0.89189   0.89545
 Alpha virt. eigenvalues --    0.89956   0.90635   0.90802   0.90817   0.91376
 Alpha virt. eigenvalues --    0.91890   0.92160   0.92702   0.92910   0.93600
 Alpha virt. eigenvalues --    0.94153   0.94583   0.95433   0.95965   0.96442
 Alpha virt. eigenvalues --    0.97927   0.99125   0.99363   1.00130   1.00388
 Alpha virt. eigenvalues --    1.00546   1.01630   1.03456   1.04721   1.05655
 Alpha virt. eigenvalues --    1.06436   1.07139   1.08096   1.08721   1.10100
 Alpha virt. eigenvalues --    1.10785   1.11373   1.12300   1.13253   1.14439
 Alpha virt. eigenvalues --    1.14789   1.15513   1.17198   1.18152   1.19858
 Alpha virt. eigenvalues --    1.20211   1.20832   1.21883   1.22170   1.24097
 Alpha virt. eigenvalues --    1.25031   1.25438   1.25990   1.27407   1.28960
 Alpha virt. eigenvalues --    1.30384   1.31185   1.33938   1.36006   1.37248
 Alpha virt. eigenvalues --    1.38123   1.40105   1.42049   1.42676   1.43514
 Alpha virt. eigenvalues --    1.43906   1.44644   1.44977   1.45780   1.46226
 Alpha virt. eigenvalues --    1.46815   1.47859   1.48125   1.48627   1.49640
 Alpha virt. eigenvalues --    1.49888   1.53015   1.55322   1.55680   1.56214
 Alpha virt. eigenvalues --    1.58331   1.58896   1.60053   1.62407   1.64624
 Alpha virt. eigenvalues --    1.67557   1.67842   1.68284   1.69906   1.72251
 Alpha virt. eigenvalues --    1.72793   1.75282   1.75783   1.76738   1.77690
 Alpha virt. eigenvalues --    1.78341   1.78793   1.79115   1.80270   1.80846
 Alpha virt. eigenvalues --    1.81454   1.82756   1.84210   1.85256   1.85860
 Alpha virt. eigenvalues --    1.87308   1.87886   1.88684   1.89767   1.90177
 Alpha virt. eigenvalues --    1.90968   1.91876   1.91907   1.93800   1.93914
 Alpha virt. eigenvalues --    1.94770   1.95875   1.95984   1.96587   1.97372
 Alpha virt. eigenvalues --    1.97803   1.98273   1.99663   2.01109   2.02260
 Alpha virt. eigenvalues --    2.03387   2.03895   2.04389   2.05261   2.06775
 Alpha virt. eigenvalues --    2.07404   2.09314   2.10622   2.11239   2.12044
 Alpha virt. eigenvalues --    2.12245   2.12924   2.13310   2.15206   2.15614
 Alpha virt. eigenvalues --    2.16910   2.17508   2.18384   2.18707   2.19611
 Alpha virt. eigenvalues --    2.20843   2.22077   2.22794   2.23193   2.23421
 Alpha virt. eigenvalues --    2.24268   2.25524   2.25710   2.25988   2.27584
 Alpha virt. eigenvalues --    2.27671   2.28276   2.29063   2.29287   2.29737
 Alpha virt. eigenvalues --    2.30194   2.32003   2.32886   2.33498   2.34826
 Alpha virt. eigenvalues --    2.36325   2.38210   2.38922   2.41432   2.42634
 Alpha virt. eigenvalues --    2.44727   2.45582   2.47199   2.48262   2.48936
 Alpha virt. eigenvalues --    2.50441   2.51652   2.52780   2.55712   2.57348
 Alpha virt. eigenvalues --    2.58101   2.60658   2.61735   2.62287   2.63321
 Alpha virt. eigenvalues --    2.63438   2.65337   2.66634   2.68583   2.70188
 Alpha virt. eigenvalues --    2.71006   2.72820   2.73872   2.74583   2.76731
 Alpha virt. eigenvalues --    2.77126   2.77953   2.78194   2.80271   2.81335
 Alpha virt. eigenvalues --    2.82861   2.84070   2.86142   2.86625   2.89282
 Alpha virt. eigenvalues --    2.91872   2.94083   2.95580   2.96608   2.99501
 Alpha virt. eigenvalues --    3.01358   3.03079   3.06582   3.10838   3.15581
 Alpha virt. eigenvalues --    3.18833   3.25861   3.40082   3.88983   3.97937
 Alpha virt. eigenvalues --    4.01394   4.07599   4.09270   4.10791   4.13929
 Alpha virt. eigenvalues --    4.17418   4.20631   4.24832   4.25421   4.27418
 Alpha virt. eigenvalues --    4.29202   4.30837   4.32769   4.33274   4.34314
 Alpha virt. eigenvalues --    4.39906   4.44427   4.45455   4.52088   4.57163
 Alpha virt. eigenvalues --    4.67637   4.68825   4.71466   4.74304   4.87265
 Alpha virt. eigenvalues --    4.94002
          Condensed to atoms (all electrons):
 Mulliken charges:
               1
     1  C   -0.186802
     2  C    0.173359
     3  C   -0.166433
     4  C   -0.127761
     5  C   -0.121738
     6  C   -0.128828
     7  C   -0.098585
     8  C   -0.092764
     9  C   -0.474487
    10  O   -0.551084
    11  C    0.480184
    12  C   -0.093228
    13  O   -0.513105
    14  C    0.531541
    15  C    0.608611
    16  C    0.057364
    17  C    0.102768
    18  C   -0.053210
    19  O   -0.497454
    20  O   -0.520941
    21  C    0.543362
    22  O   -0.518014
    23  C   -0.465142
    24  C   -0.449963
    25  O   -0.463695
    26  O   -0.402843
    27  C   -0.476179
    28  C   -0.460701
    29  H    0.162736
    30  H    0.153480
    31  H    0.157195
    32  H    0.150235
    33  H    0.178276
    34  H    0.144566
    35  H    0.138569
    36  H    0.139037
    37  H    0.200222
    38  H    0.148932
    39  H    0.141608
    40  H    0.146786
    41  H    0.162944
    42  H    0.187782
    43  H    0.149389
    44  H    0.119484
    45  H    0.139725
    46  H    0.166880
    47  H    0.188986
    48  H    0.155543
    49  H    0.170121
    50  H    0.148174
    51  H    0.142559
    52  H    0.141377
    53  H    0.140211
    54  H    0.147063
    55  H    0.186297
    56  H    0.157591
 Sum of Mulliken charges =  -0.00000
 Mulliken charges with hydrogens summed into heavy atoms:
               1
     1  C   -0.039740
     2  C    0.173359
     3  C   -0.018259
     4  C    0.014797
     5  C    0.019640
     6  C    0.011383
     7  C    0.059005
     8  C    0.093533
     9  C    0.040163
    10  O   -0.551084
    11  C    0.480184
    12  C    0.257498
    13  O   -0.513105
    14  C    0.531541
    15  C    0.608611
    16  C    0.206753
    17  C    0.222252
    18  C    0.253395
    19  O   -0.497454
    20  O   -0.520941
    21  C    0.543362
    22  O   -0.518014
    23  C    0.012685
    24  C   -0.012636
    25  O   -0.463695
    26  O   -0.402843
    27  C   -0.002768
    28  C    0.012375
 APT charges:
               1
     1  C   -0.020021
     2  C   -0.099733
     3  C    0.019594
     4  C   -0.023525
     5  C    0.006013
     6  C   -0.064847
     7  C    0.248327
     8  C   -0.160171
     9  C    0.082126
    10  O   -0.824559
    11  C    0.673639
    12  C    0.359476
    13  O   -0.706114
    14  C    0.931688
    15  C    0.403506
    16  C    0.324895
    17  C    0.403908
    18  C    0.458777
    19  O   -0.753609
    20  O   -0.733045
    21  C    0.915557
    22  O   -0.731970
    23  C   -0.051256
    24  C   -0.027884
    25  O   -0.840902
    26  O    0.279462
    27  C   -0.015321
    28  C   -0.066638
    29  H   -0.003743
    30  H    0.003924
    31  H   -0.009140
    32  H   -0.017855
    33  H    0.035345
    34  H   -0.006630
    35  H   -0.011995
    36  H   -0.019774
    37  H    0.070635
    38  H   -0.009132
    39  H   -0.015460
    40  H   -0.019314
    41  H   -0.031542
    42  H    0.030966
    43  H   -0.019667
    44  H   -0.096999
    45  H   -0.039164
    46  H   -0.018248
    47  H    0.024968
    48  H   -0.031966
    49  H    0.002250
    50  H    0.035969
    51  H    0.018607
    52  H    0.019991
    53  H    0.020778
    54  H    0.038486
    55  H    0.056037
    56  H    0.005302
 Sum of APT charges =  -0.00000
 APT charges with hydrogens summed into heavy atoms:
               1
     1  C    0.018465
     2  C   -0.099733
     3  C    0.055562
     4  C   -0.004918
     5  C    0.026004
     6  C   -0.044069
     7  C    0.253629
     8  C   -0.104134
     9  C    0.077378
    10  O   -0.824559
    11  C    0.673639
    12  C    0.358899
    13  O   -0.706114
    14  C    0.931688
    15  C    0.403506
    16  C    0.305228
    17  C    0.306908
    18  C    0.401366
    19  O   -0.753609
    20  O   -0.733045
    21  C    0.915557
    22  O   -0.731970
    23  C   -0.012390
    24  C   -0.071790
    25  O   -0.840902
    26  O    0.279462
    27  C   -0.024281
    28  C   -0.055778
 Electronic spatial extent (au):  <R**2>=           9412.2902
 Charge=             -0.0000 electrons
 Dipole moment (field-independent basis, Debye):
    X=              1.3714    Y=             -4.7163    Z=             -3.2836  Tot=              5.9082
 Quadrupole moment (field-independent basis, Debye-Ang):
   XX=           -153.1601   YY=           -163.1196   ZZ=           -157.6687
   XY=             -1.0030   XZ=              2.0748   YZ=             -4.2453
 Traceless Quadrupole moment (field-independent basis, Debye-Ang):
   XX=              4.8227   YY=             -5.1368   ZZ=              0.3141
   XY=             -1.0030   XZ=              2.0748   YZ=             -4.2453
 Octapole moment (field-independent basis, Debye-Ang**2):
  XXX=             29.3065  YYY=             16.7218  ZZZ=             -7.2234  XYY=             -1.7747
  XXY=            -10.2360  XXZ=            -14.0902  XZZ=             -0.3999  YZZ=            -14.6523
  YYZ=              1.0109  XYZ=              4.3256
 Hexadecapole moment (field-independent basis, Debye-Ang**3):
 XXXX=          -5704.5424 YYYY=          -4776.6162 ZZZZ=          -1826.1270 XXXY=            -74.7815
 XXXZ=             54.6021 YYYX=            101.8300 YYYZ=            -11.4181 ZZZX=            -20.5145
 ZZZY=            -22.7394 XXYY=          -1683.7837 XXZZ=          -1242.3190 YYZZ=          -1022.3875
 XXYZ=             53.8854 YYXZ=              1.3923 ZZXY=            -31.0579
 N-N= 3.038729780943D+03 E-N=-9.211248543901D+03  KE= 1.331394496824D+03
  Exact polarizability:     290.217     -20.846     258.532     -16.704      17.709     228.367
 Approx polarizability:     430.336     -83.710     514.742     -47.575      80.314     388.965
 No NMR shielding tensors so no spin-rotation constants.
 Leave Link  601 at Sun Sep 27 15:02:12 2026, MaxMem= 12884901888 cpu:               1.1 elap:               0.2
 (Enter /opt/apps/Gaussian/G16C/g16/l701.exe)
 ... and contract with generalized density number  0.
 Compute integral second derivatives.
 Leave Link  701 at Sun Sep 27 15:02:12 2026, MaxMem= 12884901888 cpu:               1.6 elap:               0.2
 (Enter /opt/apps/Gaussian/G16C/g16/l702.exe)
 L702 exits ... SP integral derivatives will be done elsewhere.
 Leave Link  702 at Sun Sep 27 15:02:12 2026, MaxMem= 12884901888 cpu:               0.0 elap:               0.0
 (Enter /opt/apps/Gaussian/G16C/g16/l703.exe)
 Integral derivatives from FoFJK, PRISM(SPDF).
 Compute integral second derivatives, UseDBF=F ICtDFT=           0.
 Calling FoFJK, ICntrl=    100127 FMM=F ISym2X=0 I1Cent= 0 IOpClX= 0 NMat=1 NMatS=1 NMatT=0.
 FoFJK:  IHMeth= 1 ICntrl=  100127 DoSepK=F KAlg= 0 I1Cent=           0 FoldK=F
 IRaf=         0 NMat=       1 IRICut=       1 DoRegI=T DoRafI=F ISym2E= 0 IDoP0=0 IntGTp=1.
 FoFCou: FMM=F IPFlag=           0 FMFlag=      100000 FMFlg1=         800
         NFxFlg=           0 DoJE=F BraDBF=F KetDBF=F FulRan=T
         wScrn=  0.000000 ICntrl=    100127 IOpCl=  0 I1Cent=           0 NGrid=           0
         NMat0=    1 NMatS0=      1 NMatT0=    0 NMatD0=    1 NMtDS0=    0 NMtDT0=    0
 Symmetry not used in FoFCou.
 Leave Link  703 at Sun Sep 27 15:03:39 2026, MaxMem= 12884901888 cpu:            1394.8 elap:              87.5
 (Enter /opt/apps/Gaussian/G16C/g16/l716.exe)
 Dipole        = 5.39546609D-01-1.85555477D+00-1.29187480D+00
 Polarizability= 2.90216538D+02-2.08464437D+01 2.58532109D+02
                -1.67044341D+01 1.77087521D+01 2.28367292D+02
 Full mass-weighted force constant matrix:
 Low frequencies --- -366.1628   -7.3797   -3.5700   -0.0006   -0.0005    0.0004
 Low frequencies ---    6.7026   11.1576   22.5846
 ******    1 imaginary frequencies (negative Signs) ****** 
 Diagonal vibrational polarizability:
       85.9799263     158.1758062      28.6762953
 Harmonic frequencies (cm**-1), IR intensities (KM/Mole), Raman scattering
 activities (A**4/AMU), depolarization ratios for plane and unpolarized
 incident light, reduced masses (AMU), force constants (mDyne/A),
 and normal coordinates:
                      1                      2                      3
                      A                      A                      A
 Frequencies --   -366.1626                 9.4272                22.2750
 Red. masses --     10.8955                 4.7319                 4.1224
 Frc consts  --      0.8607                 0.0002                 0.0012
 IR Inten    --    504.4200                 0.0335                 0.0358
  Atom  AN      X      Y      Z        X      Y      Z        X      Y      Z
     1   6     0.02  -0.02  -0.00     0.13  -0.01  -0.01    -0.04  -0.14   0.04
     2   6     0.01  -0.02  -0.01     0.05  -0.00   0.02    -0.02   0.05   0.01
     3   6    -0.01   0.00  -0.01     0.04   0.04   0.09    -0.02   0.27  -0.05
     4   6     0.00   0.01  -0.01     0.10   0.07   0.14    -0.04   0.31  -0.07
     5   6     0.02   0.01  -0.01     0.17   0.07   0.11    -0.05   0.13  -0.03
     6   6     0.02   0.01  -0.01     0.19   0.02   0.04    -0.06  -0.10   0.02
     7   6    -0.05  -0.15   0.02    -0.02  -0.03  -0.03    -0.01   0.03   0.02
     8   6     0.04  -0.50  -0.02    -0.01  -0.03  -0.11    -0.02  -0.02   0.02
     9   6    -0.01  -0.04   0.02    -0.08  -0.06  -0.17    -0.01  -0.02   0.03
    10   8    -0.00   0.02  -0.01    -0.07   0.03   0.01     0.00  -0.01  -0.00
    11   6    -0.02   0.01  -0.03    -0.03   0.02   0.02     0.01  -0.01  -0.00
    12   6    -0.00  -0.00  -0.01    -0.00   0.03   0.05    -0.00   0.00  -0.01
    13   8     0.00   0.01  -0.00    -0.04   0.05   0.06    -0.01   0.01  -0.02
    14   6    -0.01   0.00  -0.00    -0.08   0.06   0.05     0.00   0.00  -0.01
    15   6    -0.01  -0.03  -0.15    -0.01  -0.02  -0.01    -0.00  -0.02   0.01
    16   6     0.01   0.01  -0.05    -0.03  -0.03  -0.04     0.00  -0.04   0.01
    17   6     0.01   0.02  -0.03    -0.04  -0.01  -0.02     0.03  -0.04   0.01
    18   6     0.00   0.01  -0.02    -0.05   0.02   0.02     0.03  -0.02  -0.00
    19   8     0.01   0.03  -0.00    -0.02   0.03   0.04     0.02  -0.01  -0.01
    20   8    -0.02   0.00   0.01    -0.01  -0.06  -0.07     0.01  -0.06   0.01
    21   6    -0.00   0.00  -0.00     0.01  -0.06  -0.06     0.03  -0.06   0.01
    22   8    -0.01   0.01   0.01    -0.00  -0.03  -0.03     0.04  -0.05   0.01
    23   6     0.01   0.01  -0.00     0.05  -0.07  -0.05     0.04  -0.06   0.01
    24   6    -0.00  -0.00  -0.00    -0.01  -0.07  -0.09     0.04  -0.09   0.02
    25   8     0.04  -0.14   0.10     0.03  -0.04  -0.00    -0.00  -0.01  -0.00
    26   8    -0.03   0.61   0.15    -0.01  -0.04  -0.04    -0.02  -0.01   0.01
    27   6     0.00   0.00   0.00    -0.11   0.06   0.04    -0.01   0.00  -0.01
    28   6    -0.00   0.00  -0.00    -0.09   0.08   0.08     0.02   0.00  -0.02
    29   1     0.00   0.00   0.00    -0.11   0.08   0.07    -0.01   0.01  -0.02
    30   1     0.00   0.00   0.00    -0.14   0.07   0.03     0.01  -0.01  -0.00
    31   1     0.01   0.01   0.00    -0.09   0.05   0.02    -0.02   0.00   0.00
    32   1    -0.00  -0.01  -0.01    -0.09   0.10   0.10     0.01   0.01  -0.03
    33   1    -0.01   0.00  -0.00    -0.06   0.07   0.08     0.02   0.00  -0.03
    34   1    -0.00   0.00  -0.00    -0.12   0.08   0.07     0.03  -0.00  -0.02
    35   1     0.00  -0.01  -0.00     0.06  -0.09  -0.07     0.03  -0.08   0.02
    36   1     0.03   0.00  -0.01     0.07  -0.07  -0.04     0.06  -0.06   0.01
    37   1     0.02   0.05   0.02     0.06  -0.06  -0.03     0.03  -0.05   0.01
    38   1    -0.01  -0.01   0.00    -0.00  -0.09  -0.11     0.03  -0.10   0.02
    39   1    -0.00  -0.01   0.00    -0.04  -0.06  -0.09     0.03  -0.09   0.02
    40   1    -0.00  -0.00  -0.00     0.01  -0.07  -0.08     0.06  -0.09   0.01
    41   1     0.01   0.00   0.00     0.01   0.04   0.08     0.00   0.01  -0.02
    42   1     0.00  -0.02  -0.01     0.02   0.01   0.04    -0.01   0.00  -0.01
    43   1     0.02  -0.00  -0.02    -0.06  -0.02  -0.06    -0.01  -0.04   0.01
    44   1     0.01   0.04  -0.03    -0.07  -0.01  -0.04     0.03  -0.05   0.01
    45   1    -0.01   0.00  -0.00    -0.08   0.03   0.02     0.03  -0.02  -0.00
    46   1    -0.00   0.01  -0.02    -0.03   0.03   0.03     0.05  -0.02  -0.00
    47   1     0.08   0.10  -0.05    -0.08  -0.06  -0.21    -0.01  -0.02   0.03
    48   1    -0.22   0.02   0.22    -0.09  -0.06  -0.22    -0.01  -0.02   0.03
    49   1     0.03   0.01  -0.01    -0.14  -0.09  -0.13    -0.01  -0.01   0.03
    50   1    -0.01  -0.02  -0.01    -0.02   0.05   0.11    -0.01   0.41  -0.07
    51   1     0.00   0.00  -0.00     0.08   0.11   0.19    -0.03   0.49  -0.11
    52   1     0.02   0.00  -0.01     0.22   0.10   0.15    -0.07   0.17  -0.05
    53   1     0.02  -0.00  -0.01     0.25   0.01   0.02    -0.07  -0.24   0.05
    54   1     0.02  -0.06  -0.00     0.14  -0.06  -0.06    -0.04  -0.32   0.09
    55   1     0.03  -0.32  -0.01     0.05  -0.00  -0.14    -0.02  -0.04   0.02
    56   1    -0.02  -0.15   0.01    -0.07  -0.06  -0.01    -0.00   0.07   0.02
                      4                      5                      6
                      A                      A                      A
 Frequencies --     44.0727                45.0707                68.8532
 Red. masses --      4.4825                 4.1193                 5.1060
 Frc consts  --      0.0051                 0.0049                 0.0143
 IR Inten    --      0.0992                 0.1807                 2.7741
  Atom  AN      X      Y      Z        X      Y      Z        X      Y      Z
     1   6    -0.03   0.22   0.00    -0.00   0.06  -0.04     0.08   0.04  -0.03
     2   6    -0.03   0.05   0.03    -0.01  -0.01  -0.03     0.10   0.07  -0.04
     3   6    -0.03  -0.05   0.04    -0.01  -0.03  -0.02     0.11   0.02  -0.06
     4   6    -0.03   0.02   0.03    -0.01   0.03  -0.02     0.09  -0.07  -0.06
     5   6    -0.03   0.21   0.00     0.00   0.11  -0.04     0.06  -0.10  -0.05
     6   6    -0.03   0.31  -0.01     0.00   0.13  -0.05     0.06  -0.04  -0.03
     7   6    -0.02   0.01   0.04    -0.01  -0.05  -0.03     0.12   0.10  -0.03
     8   6    -0.02   0.02   0.06    -0.01  -0.03  -0.03     0.11   0.06   0.01
     9   6     0.00   0.01   0.08    -0.03  -0.04  -0.05     0.16   0.03   0.05
    10   8     0.01  -0.01  -0.01    -0.02  -0.06   0.05    -0.07   0.01   0.00
    11   6    -0.01  -0.01  -0.00     0.03  -0.02  -0.01    -0.07   0.03  -0.03
    12   6    -0.02  -0.03  -0.02     0.02   0.09  -0.01    -0.08   0.09  -0.05
    13   8     0.01  -0.05  -0.02    -0.05   0.12   0.04    -0.10   0.09  -0.02
    14   6     0.02  -0.04  -0.02    -0.04   0.01   0.06    -0.07   0.00   0.00
    15   6    -0.02  -0.01   0.01     0.02  -0.02   0.01    -0.08   0.04  -0.01
    16   6    -0.02  -0.04  -0.00     0.05  -0.03   0.04    -0.07  -0.01   0.00
    17   6    -0.01  -0.03   0.00     0.08  -0.09  -0.03    -0.00   0.01   0.02
    18   6    -0.01   0.01   0.02     0.09  -0.15  -0.09     0.01   0.03  -0.02
    19   8    -0.01  -0.01   0.01     0.07  -0.05  -0.09    -0.04   0.02  -0.06
    20   8    -0.01  -0.08  -0.02     0.02   0.03   0.08    -0.06  -0.09   0.02
    21   6     0.05  -0.09  -0.04    -0.01   0.03   0.03    -0.00  -0.09   0.06
    22   8     0.04  -0.05  -0.01     0.02  -0.04  -0.07     0.02  -0.03   0.06
    23   6     0.11  -0.09  -0.04    -0.12   0.10  -0.01     0.01  -0.13   0.09
    24   6     0.03  -0.15  -0.07     0.03   0.03   0.10     0.02  -0.12   0.09
    25   8    -0.01   0.02  -0.01     0.00  -0.03   0.01    -0.10   0.07  -0.03
    26   8    -0.02   0.02   0.03    -0.01  -0.03   0.00    -0.06   0.08   0.01
    27   6     0.05  -0.04  -0.04    -0.11  -0.01   0.17    -0.06  -0.02   0.11
    28   6     0.01  -0.04  -0.02     0.02  -0.02  -0.01    -0.04  -0.06  -0.07
    29   1     0.05  -0.06  -0.04    -0.13   0.05   0.17    -0.06  -0.02   0.11
    30   1     0.05  -0.02  -0.04    -0.11  -0.11   0.19    -0.03  -0.10   0.14
    31   1     0.05  -0.03  -0.04    -0.16   0.02   0.22    -0.07   0.04   0.17
    32   1     0.01  -0.06  -0.03     0.00   0.04  -0.01    -0.05  -0.05  -0.08
    33   1    -0.01  -0.04  -0.01     0.07  -0.01  -0.08    -0.04  -0.04  -0.14
    34   1     0.02  -0.03  -0.02     0.02  -0.11   0.00    -0.02  -0.13  -0.06
    35   1     0.11  -0.12  -0.06    -0.14   0.16   0.06    -0.01  -0.19   0.08
    36   1     0.15  -0.09  -0.04    -0.14   0.09  -0.06     0.07  -0.13   0.12
    37   1     0.11  -0.05  -0.02    -0.14   0.10  -0.05    -0.00  -0.10   0.07
    38   1     0.03  -0.18  -0.09     0.01   0.08   0.17    -0.01  -0.18   0.09
    39   1    -0.01  -0.15  -0.07     0.11  -0.03   0.12     0.01  -0.09   0.07
    40   1     0.07  -0.16  -0.08     0.01   0.02   0.06     0.07  -0.13   0.12
    41   1    -0.04  -0.05  -0.03     0.08   0.12  -0.05    -0.06   0.10  -0.08
    42   1    -0.03  -0.02  -0.01     0.01   0.12  -0.00    -0.10   0.11  -0.03
    43   1    -0.06  -0.04  -0.01     0.10  -0.05   0.09    -0.11  -0.01  -0.01
    44   1    -0.02  -0.05  -0.01     0.12  -0.13   0.01     0.01   0.01   0.03
    45   1    -0.02   0.04  -0.01     0.12  -0.23  -0.03     0.04   0.04  -0.04
    46   1     0.01   0.02   0.05     0.08  -0.18  -0.20     0.03   0.04  -0.01
    47   1     0.00   0.01   0.10    -0.01  -0.01  -0.03     0.14  -0.00   0.09
    48   1     0.00   0.01   0.09    -0.06  -0.03  -0.08     0.21   0.02   0.07
    49   1     0.02   0.01   0.07    -0.03  -0.08  -0.03     0.19   0.05   0.03
    50   1    -0.03  -0.19   0.06    -0.02  -0.09  -0.01     0.13   0.04  -0.07
    51   1    -0.03  -0.06   0.04    -0.01   0.02  -0.02     0.09  -0.11  -0.07
    52   1    -0.03   0.27  -0.01     0.00   0.16  -0.04     0.05  -0.17  -0.05
    53   1    -0.03   0.45  -0.03     0.01   0.19  -0.06     0.04  -0.06  -0.02
    54   1    -0.03   0.32  -0.01    -0.00   0.08  -0.05     0.07   0.08  -0.02
    55   1    -0.04   0.02   0.07    -0.00   0.00  -0.03     0.07   0.01   0.03
    56   1    -0.01  -0.03   0.03    -0.02  -0.08  -0.03     0.15   0.14  -0.04
                      7                      8                      9
                      A                      A                      A
 Frequencies --     76.1117                87.6143                94.7403
 Red. masses --      4.2545                 3.8483                 3.5767
 Frc consts  --      0.0145                 0.0174                 0.0189
 IR Inten    --      1.9053                 1.3261                 0.4934
  Atom  AN      X      Y      Z        X      Y      Z        X      Y      Z
     1   6    -0.03   0.00  -0.01     0.00   0.01   0.05     0.02   0.02  -0.01
     2   6    -0.04   0.00  -0.01     0.02  -0.02   0.04     0.02   0.03  -0.01
     3   6    -0.05   0.01   0.01     0.02  -0.02   0.03     0.02   0.02  -0.01
     4   6    -0.03   0.01   0.02     0.01   0.01   0.02     0.02  -0.01  -0.01
     5   6    -0.02   0.01   0.02    -0.00   0.05   0.02     0.01  -0.03  -0.01
     6   6    -0.01   0.01   0.00    -0.00   0.04   0.03     0.01  -0.01  -0.01
     7   6    -0.06   0.01  -0.02     0.04  -0.01   0.06     0.02   0.03  -0.01
     8   6    -0.05   0.03  -0.04     0.03  -0.04   0.10     0.02   0.01   0.00
     9   6    -0.09   0.07  -0.06     0.10   0.03   0.17     0.04  -0.01   0.02
    10   8    -0.01   0.01  -0.06    -0.04  -0.02  -0.05    -0.03   0.04  -0.06
    11   6     0.01   0.02  -0.08     0.02  -0.04  -0.04    -0.02   0.01  -0.02
    12   6     0.04   0.04  -0.04     0.05  -0.03   0.00    -0.01  -0.03  -0.01
    13   8     0.12  -0.08   0.10    -0.01   0.02  -0.01     0.09  -0.12   0.06
    14   6     0.01  -0.08   0.07    -0.06   0.05  -0.03    -0.02   0.00   0.01
    15   6     0.02   0.02  -0.08     0.04  -0.05  -0.07    -0.03   0.01   0.01
    16   6     0.03   0.01  -0.07     0.02  -0.03  -0.08    -0.01  -0.01   0.04
    17   6     0.04   0.07  -0.01     0.00  -0.00  -0.04     0.02  -0.06  -0.03
    18   6     0.05   0.05  -0.04     0.00  -0.03  -0.04     0.02  -0.01  -0.01
    19   8     0.01   0.01  -0.08     0.02  -0.03  -0.03     0.02   0.02   0.01
    20   8     0.03  -0.03  -0.05     0.03  -0.04  -0.10    -0.03   0.01   0.07
    21   6     0.02  -0.01   0.06    -0.03  -0.01   0.02     0.01  -0.01  -0.00
    22   8     0.02   0.03   0.08    -0.04  -0.02   0.02     0.08  -0.03  -0.13
    23   6     0.01  -0.11   0.11    -0.10  -0.11   0.07    -0.10   0.09  -0.05
    24   6     0.02   0.07   0.08    -0.03   0.12   0.06     0.09  -0.11   0.11
    25   8     0.02   0.03  -0.09     0.04  -0.04  -0.08    -0.06   0.02  -0.00
    26   8    -0.00   0.03  -0.06     0.05  -0.03  -0.05    -0.04   0.02   0.02
    27   6     0.05  -0.09   0.11    -0.14   0.08  -0.09     0.00   0.03  -0.13
    28   6    -0.13  -0.14   0.14    -0.04   0.14   0.03    -0.13   0.07   0.16
    29   1     0.06  -0.14   0.18    -0.15   0.12  -0.02     0.02  -0.01  -0.05
    30   1    -0.00  -0.09   0.09    -0.22   0.11  -0.13    -0.08   0.16  -0.19
    31   1     0.12  -0.06   0.08    -0.11   0.03  -0.16     0.10  -0.03  -0.25
    32   1    -0.12  -0.16   0.28    -0.05   0.18   0.04    -0.11   0.05   0.25
    33   1    -0.12  -0.12   0.07     0.00   0.12   0.08    -0.12   0.06   0.23
    34   1    -0.25  -0.17   0.10    -0.07   0.18   0.02    -0.23   0.17   0.12
    35   1     0.00  -0.16   0.09    -0.09  -0.11   0.06    -0.17   0.13   0.06
    36   1     0.02  -0.10   0.19    -0.14  -0.09   0.15    -0.07   0.08  -0.13
    37   1     0.01  -0.15   0.09    -0.09  -0.19   0.04    -0.16   0.15  -0.12
    38   1     0.02   0.03   0.06    -0.01   0.13   0.04     0.02  -0.09   0.23
    39   1     0.04   0.14   0.04     0.02   0.19   0.02     0.16  -0.19   0.14
    40   1     0.01   0.08   0.17    -0.09   0.15   0.15     0.14  -0.13   0.04
    41   1    -0.03  -0.01  -0.14     0.08  -0.01   0.06    -0.09  -0.08  -0.07
    42   1     0.07   0.18  -0.02     0.08  -0.08  -0.02    -0.00   0.06  -0.00
    43   1     0.01   0.03  -0.11     0.03  -0.02  -0.11     0.01  -0.03   0.07
    44   1     0.07   0.13  -0.00     0.02   0.05  -0.04    -0.01  -0.14  -0.03
    45   1     0.09   0.07  -0.07     0.01  -0.04  -0.03    -0.02  -0.01   0.00
    46   1     0.04   0.06  -0.03    -0.02  -0.03  -0.05     0.05  -0.01  -0.01
    47   1    -0.07   0.09  -0.11     0.08   0.01   0.18     0.02  -0.03   0.03
    48   1    -0.11   0.08  -0.05     0.12   0.03   0.27     0.06  -0.02   0.02
    49   1    -0.11   0.07  -0.06     0.15   0.12   0.12     0.05  -0.00   0.01
    50   1    -0.06   0.01   0.02     0.03  -0.04   0.03     0.02   0.03  -0.02
    51   1    -0.04   0.02   0.03     0.01   0.02   0.01     0.02  -0.03  -0.01
    52   1    -0.01   0.02   0.02    -0.01   0.08   0.01     0.01  -0.05  -0.00
    53   1    -0.00   0.01  -0.00    -0.01   0.07   0.03     0.01  -0.02  -0.01
    54   1    -0.02  -0.00  -0.02     0.00   0.02   0.06     0.01   0.03  -0.01
    55   1    -0.02   0.03  -0.06    -0.02  -0.11   0.12     0.00   0.01   0.01
    56   1    -0.07   0.01  -0.01     0.06   0.03   0.05     0.03   0.04  -0.01
                     10                     11                     12
                      A                      A                      A
 Frequencies --    120.1999               133.2044               144.2205
 Red. masses --      3.9965                 4.5657                 3.9555
 Frc consts  --      0.0340                 0.0477                 0.0485
 IR Inten    --      2.0476                 2.0674                 1.4961
  Atom  AN      X      Y      Z        X      Y      Z        X      Y      Z
     1   6     0.00   0.03  -0.01    -0.02   0.20  -0.03     0.01  -0.06   0.06
     2   6    -0.00   0.04  -0.01    -0.03   0.23  -0.04     0.06  -0.07   0.04
     3   6    -0.00   0.03  -0.00    -0.03   0.17  -0.02     0.07  -0.07  -0.01
     4   6     0.00  -0.01   0.01    -0.03  -0.05   0.02     0.03   0.00  -0.07
     5   6     0.01  -0.03   0.01    -0.02  -0.17   0.03    -0.02   0.06  -0.06
     6   6     0.01  -0.01  -0.00    -0.02  -0.01   0.00    -0.04   0.01   0.00
     7   6    -0.00   0.03  -0.01    -0.03   0.20  -0.03     0.06  -0.04   0.04
     8   6    -0.01  -0.01   0.00    -0.05  -0.01  -0.04     0.08   0.16  -0.04
     9   6     0.02  -0.03   0.02    -0.06  -0.12  -0.07    -0.08   0.17  -0.17
    10   8    -0.03  -0.06  -0.04     0.05  -0.05   0.06     0.02  -0.03   0.04
    11   6     0.01  -0.05  -0.06     0.03  -0.03   0.03     0.00  -0.02   0.03
    12   6     0.01  -0.02  -0.04     0.04  -0.04   0.04    -0.01  -0.02   0.01
    13   8     0.02  -0.04   0.01     0.02  -0.02   0.02     0.01  -0.04   0.01
    14   6    -0.05  -0.01  -0.01     0.04  -0.00   0.02     0.01   0.00   0.00
    15   6    -0.00  -0.02  -0.02     0.03   0.01   0.02    -0.00   0.02   0.03
    16   6     0.05   0.01   0.05     0.01  -0.04  -0.00    -0.01  -0.04   0.03
    17   6     0.06   0.03   0.07    -0.00  -0.06  -0.01    -0.01  -0.06   0.01
    18   6     0.07  -0.07  -0.03    -0.00  -0.08  -0.02    -0.00  -0.10  -0.02
    19   8     0.02  -0.07  -0.09     0.01  -0.05  -0.00    -0.00  -0.04  -0.02
    20   8    -0.00   0.06   0.15     0.04  -0.05  -0.07     0.00  -0.04   0.00
    21   6     0.02   0.05   0.04    -0.01  -0.03  -0.01    -0.03  -0.03   0.02
    22   8    -0.05   0.03   0.15    -0.02  -0.05  -0.01    -0.06  -0.06   0.04
    23   6     0.21   0.09   0.00    -0.05  -0.08   0.02    -0.02  -0.06   0.03
    24   6    -0.07  -0.02  -0.14    -0.02   0.06   0.01    -0.06   0.02  -0.01
    25   8    -0.06   0.00  -0.04     0.03   0.04   0.00    -0.03   0.11  -0.02
    26   8    -0.03  -0.00   0.00    -0.00   0.06   0.06     0.02   0.12   0.09
    27   6    -0.13   0.01  -0.05    -0.02   0.01  -0.03    -0.01   0.02  -0.07
    28   6    -0.07   0.05   0.06     0.09   0.05   0.02     0.04   0.07   0.04
    29   1    -0.14   0.05   0.04    -0.03   0.05  -0.04    -0.01   0.02   0.01
    30   1    -0.24   0.04  -0.10    -0.02   0.03  -0.03    -0.10   0.09  -0.12
    31   1    -0.08  -0.04  -0.13    -0.04  -0.03  -0.05     0.06  -0.02  -0.16
    32   1    -0.07   0.08   0.10     0.08   0.06  -0.04     0.04   0.04  -0.03
    33   1    -0.03   0.04   0.09     0.09   0.04   0.07     0.01   0.05   0.12
    34   1    -0.12   0.08   0.04     0.13   0.09   0.03     0.10   0.16   0.04
    35   1     0.28   0.09  -0.09    -0.03  -0.07   0.00     0.00  -0.05  -0.00
    36   1     0.22   0.09  -0.04    -0.09  -0.07   0.07    -0.04  -0.05   0.05
    37   1     0.27   0.14   0.12    -0.04  -0.14   0.01    -0.00  -0.09   0.05
    38   1    -0.01  -0.02  -0.23     0.00   0.08  -0.01    -0.03   0.04  -0.04
    39   1    -0.20  -0.07  -0.11     0.01   0.10  -0.02    -0.07   0.03  -0.02
    40   1    -0.07  -0.04  -0.22    -0.07   0.08   0.06    -0.10   0.03  -0.00
    41   1     0.01  -0.02  -0.08     0.05  -0.04   0.08    -0.02  -0.03  -0.00
    42   1     0.02   0.03  -0.04     0.05  -0.07   0.03    -0.02  -0.01   0.02
    43   1     0.12   0.03   0.04    -0.02  -0.05   0.01    -0.03  -0.06   0.06
    44   1     0.13   0.10   0.10     0.01  -0.05  -0.01     0.02  -0.05   0.03
    45   1     0.17  -0.12  -0.02    -0.00  -0.12   0.01     0.01  -0.16   0.02
    46   1     0.04  -0.09  -0.10    -0.02  -0.10  -0.06    -0.01  -0.13  -0.09
    47   1     0.01  -0.04   0.04    -0.07  -0.12  -0.04    -0.04   0.21  -0.29
    48   1     0.04  -0.03   0.02    -0.05  -0.12  -0.19    -0.14   0.18  -0.23
    49   1     0.03  -0.03   0.01    -0.08  -0.21  -0.04    -0.20   0.13  -0.09
    50   1    -0.01   0.04  -0.01    -0.03   0.23  -0.03     0.12  -0.10  -0.02
    51   1     0.00  -0.02   0.01    -0.03  -0.14   0.04     0.04   0.02  -0.12
    52   1     0.01  -0.06   0.02    -0.01  -0.36   0.07    -0.06   0.13  -0.10
    53   1     0.01  -0.02  -0.00    -0.01  -0.06   0.01    -0.08   0.03   0.02
    54   1     0.01   0.05  -0.02    -0.02   0.29  -0.05     0.01  -0.11   0.10
    55   1    -0.02  -0.03   0.01    -0.04  -0.01  -0.04     0.18   0.26  -0.09
    56   1     0.01   0.05  -0.01    -0.03   0.24  -0.03     0.01  -0.14   0.06
                     13                     14                     15
                      A                      A                      A
 Frequencies --    157.2861               159.5108               191.3371
 Red. masses --      3.7014                 3.7052                 1.1618
 Frc consts  --      0.0540                 0.0555                 0.0251
 IR Inten    --      0.6541                 3.7108                 1.0457
  Atom  AN      X      Y      Z        X      Y      Z        X      Y      Z
     1   6    -0.03   0.05   0.17     0.00   0.01  -0.04    -0.00  -0.02  -0.01
     2   6     0.09   0.03   0.13    -0.03   0.02  -0.04    -0.01  -0.02  -0.01
     3   6     0.10  -0.00   0.02    -0.03   0.02  -0.01    -0.01  -0.01   0.00
     4   6     0.01  -0.03  -0.07    -0.01   0.01   0.02    -0.00   0.01   0.01
     5   6    -0.11  -0.01  -0.03     0.02  -0.01   0.01     0.01   0.01   0.01
     6   6    -0.13   0.03   0.08     0.03  -0.01  -0.02     0.01  -0.01  -0.00
     7   6     0.09   0.02   0.13    -0.03   0.02  -0.04    -0.01  -0.02  -0.01
     8   6     0.08  -0.06   0.01    -0.03   0.04  -0.03    -0.01   0.01   0.01
     9   6    -0.07  -0.17  -0.14    -0.04   0.16  -0.02     0.02  -0.05   0.02
    10   8    -0.03  -0.00  -0.04    -0.02  -0.11   0.02     0.02   0.00   0.01
    11   6    -0.00  -0.02  -0.03     0.00  -0.11   0.01    -0.00   0.02  -0.00
    12   6     0.02  -0.02  -0.01     0.04  -0.14   0.06    -0.01   0.02  -0.01
    13   8    -0.03   0.02  -0.02    -0.07  -0.03  -0.02     0.02  -0.01   0.01
    14   6    -0.04  -0.00  -0.02    -0.04  -0.05  -0.01     0.02  -0.00   0.01
    15   6     0.01  -0.02  -0.04     0.03  -0.02  -0.03    -0.01   0.02   0.01
    16   6     0.01   0.03  -0.03     0.02   0.04  -0.03    -0.01   0.01   0.00
    17   6     0.01   0.05  -0.01    -0.00   0.07   0.01    -0.00   0.01  -0.00
    18   6    -0.00   0.07   0.02    -0.04   0.07   0.08    -0.00   0.02  -0.01
    19   8    -0.01   0.00   0.01    -0.05  -0.09   0.05    -0.01   0.01  -0.02
    20   8     0.00   0.03  -0.01    -0.00   0.03   0.02     0.00   0.00  -0.02
    21   6     0.03   0.02  -0.01     0.05   0.02   0.01     0.00   0.00  -0.01
    22   8     0.05   0.04  -0.02     0.08   0.05  -0.03     0.01   0.01  -0.01
    23   6     0.02   0.03  -0.01     0.01   0.05  -0.00    -0.00  -0.01  -0.00
    24   6     0.05  -0.01   0.02     0.10  -0.06   0.09     0.01   0.01  -0.00
    25   8    -0.01  -0.02  -0.04     0.01   0.02  -0.05    -0.01   0.02   0.01
    26   8     0.02  -0.02  -0.02     0.10   0.05  -0.00    -0.02   0.00   0.01
    27   6    -0.05  -0.01   0.03    -0.16  -0.05   0.02    -0.02  -0.00   0.02
    28   6    -0.05  -0.02  -0.03     0.04  -0.02  -0.05     0.04  -0.00  -0.01
    29   1    -0.04  -0.02   0.15    -0.17   0.03   0.16    -0.00  -0.05   0.50
    30   1    -0.15  -0.03  -0.01    -0.29  -0.09  -0.02    -0.46   0.04  -0.16
    31   1     0.04   0.02  -0.01    -0.11  -0.07  -0.03     0.33  -0.00  -0.23
    32   1    -0.05  -0.02  -0.01     0.03  -0.00  -0.14     0.06  -0.18  -0.25
    33   1    -0.05  -0.02  -0.05     0.03  -0.03  -0.01    -0.17  -0.01   0.15
    34   1    -0.06  -0.04  -0.03     0.12  -0.00  -0.02     0.26   0.19   0.03
    35   1    -0.00   0.02   0.01    -0.05   0.00   0.06     0.00  -0.01  -0.00
    36   1     0.04   0.03  -0.02     0.11   0.04  -0.03    -0.01  -0.01   0.01
    37   1    -0.00   0.06  -0.03    -0.04   0.14  -0.05     0.00  -0.02  -0.00
    38   1     0.03  -0.02   0.05     0.04  -0.09   0.16     0.00  -0.00  -0.01
    39   1     0.06  -0.01   0.02     0.14  -0.09   0.09     0.00   0.03  -0.01
    40   1     0.08  -0.01   0.03     0.18  -0.08   0.07     0.01   0.01   0.02
    41   1     0.04  -0.00   0.04     0.11  -0.09   0.20    -0.02   0.01  -0.04
    42   1     0.04  -0.06  -0.02     0.09  -0.27   0.02    -0.01   0.05  -0.00
    43   1     0.03   0.05  -0.05     0.04   0.06  -0.06    -0.02   0.01   0.01
    44   1    -0.02   0.05  -0.02    -0.07   0.06  -0.03    -0.00  -0.00   0.00
    45   1    -0.00   0.12  -0.02    -0.02   0.15   0.00     0.00   0.02  -0.02
    46   1    -0.01   0.09   0.09    -0.08   0.10   0.20     0.00   0.02   0.00
    47   1    -0.07  -0.18  -0.22    -0.04   0.14  -0.09     0.04   0.00   0.11
    48   1    -0.05  -0.18  -0.28    -0.04   0.16   0.10    -0.03  -0.04  -0.08
    49   1    -0.21  -0.25  -0.04    -0.05   0.27  -0.04     0.07  -0.17   0.03
    50   1     0.20  -0.02  -0.01    -0.06   0.04  -0.00    -0.02  -0.01   0.01
    51   1     0.03  -0.07  -0.16    -0.01   0.01   0.04    -0.01   0.02   0.02
    52   1    -0.18  -0.03  -0.09     0.04  -0.03   0.03     0.01   0.02   0.01
    53   1    -0.23   0.05   0.11     0.05  -0.02  -0.03     0.02  -0.01  -0.01
    54   1    -0.04   0.06   0.25     0.01   0.01  -0.07    -0.00  -0.03  -0.02
    55   1     0.19  -0.07  -0.04    -0.02   0.05  -0.03    -0.02   0.03   0.02
    56   1     0.04   0.04   0.15    -0.03   0.02  -0.04    -0.00  -0.04  -0.01
                     16                     17                     18
                      A                      A                      A
 Frequencies --    194.1770               203.2167               208.1758
 Red. masses --      1.3727                 1.0974                 2.6997
 Frc consts  --      0.0305                 0.0267                 0.0689
 IR Inten    --      3.2014                 0.1449                 1.1330
  Atom  AN      X      Y      Z        X      Y      Z        X      Y      Z
     1   6     0.00   0.03   0.01    -0.00  -0.00   0.00    -0.00  -0.04   0.01
     2   6     0.01   0.02   0.01     0.00  -0.00   0.00     0.00  -0.04   0.01
     3   6     0.02   0.02  -0.01     0.00  -0.01   0.00     0.00  -0.04   0.01
     4   6     0.01  -0.01  -0.01    -0.00  -0.00   0.00     0.00  -0.00  -0.00
     5   6    -0.01  -0.02  -0.01    -0.00   0.00   0.00    -0.01   0.03  -0.00
     6   6    -0.01   0.01   0.00    -0.00   0.00   0.00    -0.01  -0.00   0.01
     7   6     0.01   0.03   0.01     0.00  -0.00   0.00     0.00  -0.01   0.00
     8   6     0.00  -0.06  -0.02    -0.00  -0.01   0.00    -0.00  -0.04  -0.01
     9   6    -0.03   0.08  -0.01     0.00  -0.02   0.00     0.01  -0.07  -0.00
    10   8     0.01   0.02   0.00     0.01  -0.01   0.02     0.06  -0.08   0.09
    11   6     0.00   0.02   0.00     0.00   0.00  -0.00    -0.01   0.01  -0.01
    12   6    -0.00   0.02  -0.00     0.00   0.01   0.00    -0.02   0.03  -0.01
    13   8     0.01   0.01   0.00     0.01  -0.00   0.01     0.05  -0.05   0.06
    14   6     0.01   0.01   0.00     0.01  -0.00   0.01     0.05  -0.02   0.05
    15   6    -0.00  -0.01  -0.00    -0.00   0.01  -0.01    -0.03   0.05  -0.01
    16   6    -0.00  -0.01  -0.00    -0.01   0.01  -0.01    -0.05   0.05  -0.02
    17   6    -0.00  -0.01  -0.00    -0.01   0.01  -0.01    -0.02   0.07  -0.01
    18   6     0.00  -0.01  -0.01    -0.01  -0.00  -0.02    -0.02   0.05  -0.05
    19   8     0.01   0.02   0.00    -0.01  -0.00  -0.02    -0.06  -0.03  -0.10
    20   8    -0.02  -0.01   0.02    -0.02   0.01   0.01    -0.04   0.01  -0.03
    21   6    -0.02  -0.01   0.01    -0.01   0.00   0.00    -0.00   0.01  -0.01
    22   8    -0.02  -0.01   0.01    -0.01   0.01  -0.01     0.01   0.06  -0.01
    23   6    -0.01   0.00  -0.00     0.01  -0.02   0.01     0.00  -0.01   0.00
    24   6    -0.02  -0.02  -0.01    -0.02  -0.00  -0.01     0.03  -0.06   0.03
    25   8     0.02  -0.06   0.03     0.01   0.00  -0.01    -0.03   0.03   0.00
    26   8    -0.01  -0.04  -0.04     0.00  -0.01  -0.01    -0.05  -0.01  -0.05
    27   6     0.02   0.00   0.01     0.00   0.00  -0.00    -0.05   0.01  -0.01
    28   6     0.01  -0.00  -0.00     0.03   0.02   0.01     0.15   0.08   0.07
    29   1     0.03  -0.03   0.18    -0.00   0.02  -0.04    -0.08   0.13  -0.27
    30   1    -0.13   0.03  -0.05     0.03   0.00   0.01     0.16  -0.02   0.08
    31   1     0.16   0.01  -0.08    -0.03  -0.01   0.01    -0.29  -0.07   0.10
    32   1     0.02  -0.08  -0.09     0.03   0.02  -0.01     0.13   0.15  -0.01
    33   1    -0.08  -0.00   0.06     0.03   0.01   0.03     0.21   0.06   0.12
    34   1     0.10   0.08   0.01     0.05   0.03   0.02     0.21   0.12   0.08
    35   1    -0.01   0.01   0.00    -0.27  -0.44   0.18     0.07   0.07  -0.05
    36   1    -0.01   0.00  -0.01     0.52  -0.06   0.08    -0.11   0.00   0.01
    37   1    -0.01   0.01   0.00    -0.20   0.36  -0.17     0.05  -0.10   0.05
    38   1    -0.02  -0.02  -0.01     0.04   0.22   0.10    -0.07  -0.32  -0.04
    39   1    -0.03  -0.04   0.00     0.06  -0.23   0.10    -0.05   0.14  -0.06
    40   1    -0.02  -0.03  -0.03    -0.16  -0.01  -0.23     0.24  -0.07   0.23
    41   1    -0.01   0.01  -0.01    -0.01   0.00  -0.01    -0.06  -0.00  -0.09
    42   1    -0.01   0.03   0.00     0.00   0.02   0.00    -0.02   0.13   0.00
    43   1     0.00  -0.01   0.00    -0.00   0.01  -0.01    -0.08   0.06  -0.04
    44   1     0.01  -0.00   0.00    -0.00   0.01  -0.01    -0.01   0.06  -0.01
    45   1    -0.00  -0.03   0.01     0.00  -0.01  -0.01     0.04   0.07  -0.09
    46   1     0.01  -0.02  -0.03    -0.02  -0.00  -0.02    -0.04   0.06  -0.01
    47   1    -0.19  -0.23  -0.32     0.00  -0.01   0.01    -0.07  -0.20  -0.07
    48   1     0.29   0.01   0.36     0.00  -0.02  -0.01     0.16  -0.10   0.08
    49   1    -0.20   0.59  -0.07     0.01  -0.03   0.00    -0.04   0.08  -0.02
    50   1     0.03   0.02  -0.01     0.00  -0.01   0.00     0.01  -0.05   0.01
    51   1     0.01  -0.02  -0.02    -0.00   0.00  -0.00     0.00   0.01  -0.01
    52   1    -0.01  -0.04  -0.01    -0.00   0.01  -0.00    -0.01   0.08  -0.01
    53   1    -0.02   0.02   0.01    -0.00   0.00   0.00    -0.01   0.01   0.00
    54   1     0.00   0.05   0.01    -0.00  -0.01   0.01    -0.00  -0.05   0.02
    55   1     0.03  -0.14  -0.03    -0.00  -0.01   0.00    -0.00  -0.08  -0.01
    56   1     0.01   0.11   0.01    -0.00   0.01   0.00     0.00   0.04   0.01
                     19                     20                     21
                      A                      A                      A
 Frequencies --    216.9612               230.5016               238.0836
 Red. masses --      2.9319                 2.4692                 1.2457
 Frc consts  --      0.0813                 0.0773                 0.0416
 IR Inten    --      2.2837                20.1069                 1.3351
  Atom  AN      X      Y      Z        X      Y      Z        X      Y      Z
     1   6     0.00  -0.03  -0.01    -0.01  -0.05  -0.02     0.00   0.00  -0.00
     2   6    -0.01  -0.02  -0.01    -0.03  -0.04  -0.01     0.00   0.00   0.00
     3   6    -0.01  -0.03  -0.00    -0.03  -0.04   0.01     0.00   0.00  -0.00
     4   6    -0.00   0.00   0.00    -0.02   0.00   0.02     0.00   0.00  -0.00
     5   6     0.01   0.02  -0.00     0.00   0.04   0.01     0.00  -0.00  -0.00
     6   6     0.01  -0.01  -0.01     0.00  -0.01  -0.01     0.00  -0.00  -0.00
     7   6    -0.00  -0.01  -0.01    -0.02   0.00  -0.02     0.00  -0.00   0.00
     8   6    -0.00   0.01  -0.00    -0.01   0.04  -0.00     0.00  -0.00   0.00
     9   6     0.01  -0.04   0.00     0.04  -0.14  -0.00    -0.00   0.02   0.00
    10   8    -0.02  -0.02   0.00     0.01   0.03  -0.03     0.04  -0.01  -0.01
    11   6    -0.02  -0.01   0.01     0.02   0.00  -0.01     0.01   0.00  -0.00
    12   6    -0.05  -0.01  -0.02     0.10  -0.05   0.07     0.00   0.01  -0.02
    13   8    -0.03  -0.03  -0.01     0.01   0.04  -0.01     0.05  -0.02  -0.01
    14   6    -0.03  -0.02  -0.01     0.01   0.02  -0.01     0.04  -0.01  -0.01
    15   6    -0.02   0.02   0.07     0.02   0.01  -0.03    -0.00  -0.00   0.01
    16   6     0.01   0.02   0.07     0.02  -0.03  -0.02    -0.02  -0.00   0.01
    17   6     0.02  -0.02   0.02    -0.01  -0.02  -0.00    -0.01  -0.00  -0.00
    18   6     0.02  -0.00   0.03    -0.01   0.01   0.01    -0.00   0.04   0.01
    19   8     0.00  -0.01   0.01    -0.01   0.01   0.01     0.01   0.01   0.01
    20   8     0.10   0.01  -0.07    -0.01  -0.02   0.03    -0.01  -0.01   0.00
    21   6     0.09   0.02  -0.05    -0.02  -0.01   0.02    -0.02  -0.01  -0.00
    22   8     0.09   0.01  -0.07    -0.03  -0.03   0.03    -0.01  -0.01   0.00
    23   6     0.06  -0.06  -0.00    -0.03   0.03   0.00    -0.03  -0.00  -0.00
    24   6     0.08   0.18  -0.03    -0.03  -0.03   0.01    -0.03  -0.02  -0.02
    25   8    -0.12   0.03   0.07     0.03   0.14  -0.13    -0.01  -0.01   0.02
    26   8    -0.08   0.02   0.07    -0.04   0.07   0.03    -0.01  -0.01   0.01
    27   6    -0.05  -0.02  -0.02     0.03   0.01   0.03    -0.05  -0.00   0.02
    28   6    -0.04  -0.02  -0.00    -0.00  -0.00  -0.02     0.06   0.01  -0.01
    29   1    -0.06   0.01  -0.03     0.04  -0.01   0.07    -0.05   0.04   0.27
    30   1    -0.05  -0.02  -0.02     0.01  -0.01   0.03    -0.29  -0.02  -0.07
    31   1    -0.07  -0.04  -0.02     0.07   0.04   0.03     0.10  -0.02  -0.10
    32   1    -0.05   0.05   0.10    -0.01   0.04   0.05     0.00   0.35   0.35
    33   1     0.04  -0.01  -0.07     0.05   0.00  -0.07     0.45   0.02  -0.31
    34   1    -0.13  -0.10  -0.02    -0.06  -0.07  -0.03    -0.28  -0.35  -0.06
    35   1     0.04  -0.15  -0.01     0.00   0.10   0.00    -0.02   0.02   0.00
    36   1     0.11  -0.05   0.10    -0.08   0.03  -0.06    -0.05  -0.00  -0.01
    37   1     0.04  -0.08  -0.04    -0.01   0.02   0.02    -0.03  -0.02  -0.01
    38   1     0.16   0.35  -0.01    -0.01   0.05   0.06    -0.01   0.03  -0.00
    39   1     0.18   0.15  -0.03    -0.01  -0.14   0.06    -0.03  -0.06   0.01
    40   1    -0.11   0.21  -0.05    -0.07  -0.04  -0.09    -0.05  -0.02  -0.07
    41   1    -0.06  -0.01  -0.07     0.13  -0.03   0.24    -0.02  -0.00  -0.07
    42   1    -0.08   0.02  -0.01     0.18  -0.20   0.01    -0.01   0.05  -0.01
    43   1    -0.03   0.00   0.09     0.04  -0.03  -0.02    -0.02  -0.01   0.01
    44   1     0.00  -0.10   0.02    -0.01   0.02  -0.01    -0.01  -0.01   0.00
    45   1     0.03   0.01   0.01    -0.03   0.04  -0.00    -0.04   0.09  -0.02
    46   1     0.03   0.00   0.04     0.01   0.02   0.04     0.02   0.07   0.07
    47   1    -0.16  -0.33  -0.15    -0.18  -0.50  -0.08     0.01   0.04   0.00
    48   1     0.34  -0.12   0.20     0.45  -0.24   0.12    -0.04   0.02  -0.01
    49   1    -0.11   0.30  -0.03    -0.08   0.15  -0.02     0.00  -0.00   0.00
    50   1    -0.02  -0.03   0.00    -0.05  -0.06   0.02     0.01   0.01  -0.00
    51   1    -0.00   0.01   0.01    -0.02   0.02   0.04     0.00   0.00  -0.00
    52   1     0.01   0.05  -0.00     0.01   0.09   0.01     0.00  -0.01  -0.00
    53   1     0.02  -0.01  -0.01     0.02  -0.01  -0.01    -0.00  -0.00  -0.00
    54   1     0.00  -0.04  -0.02    -0.01  -0.08  -0.02     0.00   0.01  -0.00
    55   1    -0.01   0.02  -0.00    -0.02   0.09   0.00     0.00  -0.00   0.00
    56   1    -0.00  -0.02  -0.01    -0.02  -0.04  -0.02     0.00  -0.00   0.00
                     22                     23                     24
                      A                      A                      A
 Frequencies --    246.0025               273.1283               281.5742
 Red. masses --      1.1414                 2.1400                 2.8620
 Frc consts  --      0.0407                 0.0941                 0.1337
 IR Inten    --      1.1159                 0.6712                17.2033
  Atom  AN      X      Y      Z        X      Y      Z        X      Y      Z
     1   6     0.00   0.00   0.01    -0.01  -0.01  -0.00    -0.01   0.01  -0.01
     2   6     0.01   0.00   0.00    -0.01  -0.00  -0.00    -0.01   0.00  -0.01
     3   6     0.01   0.00  -0.00    -0.01  -0.01   0.01    -0.02   0.01   0.00
     4   6     0.00  -0.00  -0.01    -0.01  -0.00   0.01    -0.01   0.01   0.01
     5   6    -0.00  -0.00  -0.00    -0.00   0.01   0.01    -0.00  -0.01   0.01
     6   6    -0.00   0.00   0.00    -0.00  -0.00   0.00     0.00  -0.00  -0.00
     7   6     0.00   0.00   0.00    -0.00   0.01  -0.00    -0.01  -0.04  -0.00
     8   6     0.00  -0.01  -0.00    -0.00  -0.01   0.00     0.01   0.05   0.01
     9   6    -0.00   0.02  -0.00     0.01  -0.03   0.00     0.01  -0.07  -0.00
    10   8     0.00  -0.01  -0.00    -0.01  -0.02   0.09    -0.02  -0.02   0.02
    11   6    -0.00   0.00  -0.01    -0.03   0.01   0.04    -0.02  -0.01   0.03
    12   6    -0.00   0.01  -0.01    -0.06   0.01   0.02    -0.16   0.10  -0.12
    13   8     0.02  -0.01   0.01    -0.08   0.02  -0.01    -0.01  -0.06   0.01
    14   6     0.00  -0.01   0.01    -0.01   0.00   0.01    -0.03  -0.04  -0.00
    15   6    -0.01  -0.01  -0.01    -0.00   0.04   0.00     0.03  -0.02   0.01
    16   6    -0.00  -0.01  -0.01    -0.02   0.05  -0.03     0.01  -0.03  -0.03
    17   6    -0.00  -0.00   0.00    -0.01   0.06  -0.01     0.01  -0.00  -0.00
    18   6     0.00   0.06   0.02    -0.02  -0.09  -0.05     0.01   0.04   0.04
    19   8    -0.01   0.00  -0.00    -0.05  -0.03  -0.06     0.05   0.01   0.06
    20   8     0.00  -0.02   0.01    -0.02   0.01  -0.03    -0.00  -0.01  -0.00
    21   6     0.01  -0.02   0.01     0.01   0.01   0.01    -0.01  -0.01   0.01
    22   8     0.01  -0.02   0.01     0.01   0.05   0.00    -0.02  -0.01   0.03
    23   6    -0.01   0.00  -0.00     0.05  -0.02   0.02    -0.01   0.05  -0.01
    24   6    -0.01   0.01  -0.01     0.05  -0.03   0.06    -0.02   0.00   0.01
    25   8    -0.01  -0.01  -0.01     0.07   0.01   0.02     0.17   0.03  -0.04
    26   8    -0.02  -0.01  -0.01     0.07   0.00  -0.03     0.12   0.03   0.05
    27   6    -0.02  -0.01   0.01     0.08   0.02  -0.08    -0.08  -0.03  -0.04
    28   6     0.03   0.01   0.01    -0.03  -0.01   0.01    -0.00  -0.03  -0.02
    29   1    -0.04   0.04  -0.08     0.11  -0.10   0.07    -0.10   0.04  -0.11
    30   1     0.06  -0.04   0.05    -0.06   0.16  -0.16    -0.04  -0.02  -0.03
    31   1    -0.12  -0.01   0.07     0.27  -0.00  -0.23    -0.16  -0.08  -0.03
    32   1     0.03  -0.05  -0.11    -0.04   0.08   0.19    -0.00  -0.05  -0.08
    33   1    -0.05   0.00   0.09     0.09  -0.00  -0.12    -0.04  -0.03  -0.01
    34   1     0.14   0.10   0.03    -0.21  -0.16  -0.03     0.05  -0.01   0.00
    35   1     0.13   0.22  -0.08     0.17   0.10  -0.08    -0.03   0.05   0.02
    36   1    -0.28   0.02  -0.05    -0.12  -0.00   0.03     0.03   0.03  -0.07
    37   1     0.09  -0.19   0.09     0.15  -0.16   0.12    -0.03   0.11  -0.01
    38   1     0.10   0.42   0.18     0.05   0.18   0.23    -0.02  -0.03  -0.01
    39   1     0.15  -0.37   0.17     0.19  -0.27   0.16    -0.03   0.04  -0.00
    40   1    -0.29   0.01  -0.38    -0.04  -0.04  -0.16    -0.00   0.00   0.05
    41   1    -0.02   0.00  -0.05    -0.05   0.02   0.04    -0.22   0.05  -0.46
    42   1    -0.01   0.05  -0.01    -0.07  -0.02   0.02    -0.34   0.37  -0.01
    43   1    -0.00  -0.01  -0.01    -0.04   0.05  -0.04     0.03  -0.02  -0.04
    44   1    -0.01   0.01  -0.01     0.00   0.07  -0.00     0.00   0.03  -0.01
    45   1    -0.02   0.13  -0.04     0.07  -0.25   0.05    -0.04   0.09   0.01
    46   1     0.04   0.09   0.10    -0.13  -0.16  -0.22     0.03   0.06   0.10
    47   1     0.03   0.07   0.01    -0.01  -0.05   0.01    -0.10  -0.25  -0.06
    48   1    -0.06   0.03  -0.01     0.03  -0.04  -0.01     0.23  -0.12   0.03
    49   1     0.01  -0.02  -0.00     0.00  -0.03   0.00    -0.07   0.07   0.00
    50   1     0.01   0.00  -0.00    -0.02  -0.01   0.01    -0.03   0.02   0.00
    51   1     0.00  -0.00  -0.01    -0.01   0.00   0.01    -0.01   0.02   0.02
    52   1    -0.00  -0.00  -0.01    -0.00   0.02   0.01     0.00  -0.03   0.02
    53   1    -0.01   0.01   0.00     0.00  -0.00  -0.00     0.01  -0.01  -0.00
    54   1     0.00   0.01   0.01    -0.01  -0.01  -0.00    -0.01   0.01  -0.01
    55   1     0.00  -0.04  -0.00    -0.00  -0.00   0.00     0.01   0.17   0.02
    56   1     0.00   0.03   0.00     0.00   0.01  -0.00    -0.01  -0.16  -0.00
                     25                     26                     27
                      A                      A                      A
 Frequencies --    305.5353               312.5355               325.9155
 Red. masses --      2.8010                 3.2912                 3.1820
 Frc consts  --      0.1541                 0.1894                 0.1991
 IR Inten    --      1.4733                14.7489                 9.9534
  Atom  AN      X      Y      Z        X      Y      Z        X      Y      Z
     1   6     0.01  -0.12   0.02    -0.02  -0.06   0.01    -0.02  -0.05  -0.01
     2   6     0.01  -0.00   0.00    -0.02   0.01  -0.00    -0.02   0.01  -0.02
     3   6     0.01  -0.10   0.01    -0.03  -0.05   0.03    -0.03  -0.04   0.01
     4   6     0.01  -0.06  -0.00    -0.02  -0.02   0.03    -0.02  -0.02   0.02
     5   6     0.01   0.11  -0.03    -0.02   0.06   0.02    -0.00   0.05   0.01
     6   6     0.01  -0.00  -0.00    -0.02  -0.01   0.01    -0.00  -0.01  -0.00
     7   6     0.01   0.26  -0.02    -0.00   0.12  -0.02     0.00   0.11  -0.01
     8   6    -0.04  -0.10  -0.04    -0.00   0.04  -0.04     0.00   0.03  -0.01
     9   6    -0.01   0.01  -0.00     0.05  -0.03  -0.03     0.02  -0.02  -0.02
    10   8    -0.01   0.00   0.03     0.01   0.06  -0.09     0.02  -0.08   0.03
    11   6    -0.02   0.01   0.03     0.02   0.00   0.00     0.04  -0.04  -0.03
    12   6    -0.05   0.01   0.00     0.02  -0.03  -0.02     0.05   0.03  -0.02
    13   8    -0.02  -0.02   0.01     0.08  -0.06  -0.01    -0.04   0.09  -0.02
    14   6    -0.00  -0.01   0.01     0.01  -0.00  -0.03    -0.01   0.01  -0.00
    15   6     0.00   0.01  -0.01     0.00   0.02   0.02     0.03   0.01   0.05
    16   6     0.02  -0.04  -0.00    -0.03   0.07  -0.00    -0.00   0.02   0.04
    17   6     0.01  -0.04   0.01     0.01   0.05  -0.03     0.02   0.00   0.01
    18   6    -0.00  -0.01   0.04    -0.00  -0.10  -0.03     0.06   0.13  -0.01
    19   8    -0.01   0.02   0.04     0.10   0.06   0.08    -0.01  -0.09  -0.11
    20   8     0.03  -0.02   0.01    -0.04   0.04  -0.00     0.02  -0.01   0.00
    21   6     0.01  -0.01   0.01    -0.02   0.03  -0.01     0.00  -0.01   0.00
    22   8     0.00  -0.04   0.02    -0.00   0.07  -0.04     0.01  -0.00   0.01
    23   6     0.02   0.05  -0.02    -0.03  -0.09   0.05    -0.12  -0.02   0.01
    24   6     0.01   0.05   0.02    -0.02  -0.08  -0.03    -0.06  -0.05  -0.09
    25   8     0.07   0.04  -0.04    -0.06  -0.05   0.09    -0.02  -0.05   0.11
    26   8    -0.05  -0.00  -0.03     0.13   0.04   0.01     0.12   0.03   0.05
    27   6    -0.02  -0.01  -0.03    -0.10  -0.02   0.06     0.05   0.01  -0.05
    28   6     0.01  -0.03  -0.01     0.00  -0.01  -0.04    -0.09  -0.02   0.04
    29   1    -0.02   0.00   0.01    -0.14   0.12   0.00     0.07  -0.06  -0.05
    30   1    -0.06   0.03  -0.05    -0.05  -0.17   0.11     0.05   0.10  -0.07
    31   1     0.01  -0.04  -0.08    -0.25  -0.01   0.17     0.11   0.00  -0.10
    32   1     0.00  -0.00  -0.01     0.01  -0.06  -0.12    -0.06  -0.12   0.11
    33   1     0.03  -0.02  -0.05    -0.05  -0.01  -0.01    -0.18  -0.01   0.08
    34   1     0.01  -0.07  -0.01     0.08   0.02  -0.02    -0.15   0.06   0.01
    35   1    -0.00   0.03   0.01     0.03  -0.08  -0.03    -0.18  -0.01   0.11
    36   1     0.09   0.03  -0.08    -0.14  -0.06   0.18    -0.14  -0.02   0.03
    37   1     0.01   0.13  -0.01     0.02  -0.26   0.06    -0.18  -0.06  -0.11
    38   1     0.02   0.01  -0.02    -0.03  -0.04   0.03    -0.02  -0.08  -0.17
    39   1     0.02   0.14  -0.03    -0.04  -0.21   0.04    -0.18  -0.07  -0.07
    40   1    -0.00   0.06   0.11     0.01  -0.11  -0.17    -0.03  -0.06  -0.14
    41   1    -0.07  -0.01  -0.05    -0.01  -0.05  -0.03     0.12   0.08  -0.01
    42   1    -0.08   0.05   0.02     0.01  -0.02  -0.01     0.04   0.00  -0.03
    43   1     0.04  -0.04   0.01    -0.06   0.06  -0.00    -0.04   0.00   0.05
    44   1    -0.01  -0.02  -0.01     0.03   0.03  -0.01     0.04  -0.02   0.03
    45   1    -0.03  -0.00   0.04     0.01  -0.33   0.15     0.05   0.39  -0.22
    46   1     0.03  -0.01   0.04    -0.12  -0.20  -0.28     0.14   0.24   0.28
    47   1     0.07   0.14   0.04    -0.00  -0.11   0.03    -0.02  -0.08  -0.01
    48   1    -0.17   0.05  -0.03     0.15  -0.06  -0.05     0.08  -0.04  -0.04
    49   1     0.06  -0.09  -0.02     0.07  -0.02  -0.04    -0.00  -0.02  -0.01
    50   1     0.02  -0.14   0.01    -0.04  -0.08   0.04    -0.05  -0.06   0.02
    51   1     0.01  -0.09   0.00    -0.02  -0.04   0.04    -0.02  -0.04   0.04
    52   1     0.01   0.28  -0.06    -0.01   0.14   0.01     0.01   0.12   0.00
    53   1    -0.00   0.02  -0.01    -0.00  -0.01   0.01     0.02  -0.01  -0.01
    54   1     0.01  -0.17   0.02    -0.02  -0.10   0.02    -0.01  -0.08  -0.01
    55   1    -0.05  -0.34  -0.05    -0.01   0.04  -0.04     0.00   0.04  -0.01
    56   1     0.03   0.62  -0.02    -0.01   0.18  -0.02     0.02   0.16  -0.02
                     28                     29                     30
                      A                      A                      A
 Frequencies --    338.3599               352.5269               357.8371
 Red. masses --      4.2606                 3.7873                 3.1298
 Frc consts  --      0.2874                 0.2773                 0.2361
 IR Inten    --      8.2751                11.3113                11.4294
  Atom  AN      X      Y      Z        X      Y      Z        X      Y      Z
     1   6    -0.01   0.01   0.04    -0.06   0.02   0.06     0.01   0.02   0.01
     2   6     0.02   0.01   0.02     0.01   0.01   0.02     0.02  -0.01   0.02
     3   6     0.02   0.00   0.03    -0.02   0.02   0.08     0.03   0.01  -0.00
     4   6    -0.01   0.00   0.01    -0.05   0.01   0.07     0.01   0.01  -0.02
     5   6    -0.04   0.00   0.02    -0.10   0.00   0.09     0.00  -0.02  -0.01
     6   6    -0.04   0.00   0.03    -0.09   0.02   0.06    -0.00   0.01   0.00
     7   6    -0.02  -0.01  -0.03    -0.02  -0.02  -0.08    -0.01  -0.05  -0.00
     8   6     0.00   0.08  -0.09     0.03   0.04  -0.22    -0.02  -0.04  -0.01
     9   6     0.10   0.03  -0.03     0.24   0.04  -0.10    -0.01   0.01   0.01
    10   8     0.03   0.04  -0.04    -0.03  -0.02   0.04    -0.00   0.01   0.06
    11   6     0.00   0.07  -0.02    -0.03  -0.01   0.00    -0.01   0.06   0.02
    12   6     0.07  -0.03   0.03    -0.04  -0.01   0.01     0.03  -0.00   0.07
    13   8     0.09  -0.03  -0.01    -0.06  -0.01   0.02     0.02  -0.01   0.05
    14   6     0.03   0.01  -0.03    -0.02  -0.02   0.03     0.00  -0.01   0.04
    15   6     0.02   0.06   0.05    -0.02  -0.03  -0.06     0.01   0.05   0.00
    16   6    -0.02  -0.02   0.03     0.02  -0.02  -0.02     0.02   0.02   0.04
    17   6    -0.05  -0.02   0.04     0.04  -0.04  -0.03     0.04  -0.02  -0.01
    18   6    -0.04   0.00  -0.04     0.02   0.02   0.02     0.03   0.02   0.00
    19   8    -0.13   0.00  -0.12     0.02   0.01   0.02    -0.01   0.04  -0.02
    20   8     0.06  -0.06  -0.08    -0.03   0.00   0.07    -0.04   0.06   0.12
    21   6     0.00  -0.03   0.00     0.01  -0.01   0.01     0.01   0.02   0.01
    22   8    -0.06  -0.04   0.08     0.04  -0.03  -0.04     0.08   0.02  -0.10
    23   6     0.03   0.08  -0.06     0.02  -0.01   0.01    -0.06  -0.10   0.08
    24   6     0.05  -0.01   0.07    -0.02   0.06  -0.02    -0.06  -0.00  -0.09
    25   8     0.15  -0.07   0.16    -0.02  -0.07  -0.02     0.10   0.07  -0.02
    26   8    -0.08   0.01   0.02    -0.01   0.03  -0.08    -0.05  -0.01  -0.04
    27   6    -0.13   0.02  -0.03     0.07  -0.02   0.01    -0.09   0.03  -0.12
    28   6    -0.06  -0.09  -0.06     0.06   0.04   0.03    -0.02  -0.14  -0.06
    29   1    -0.18   0.22  -0.10     0.09  -0.13   0.05    -0.12   0.14  -0.20
    30   1    -0.12  -0.05  -0.01     0.04   0.04  -0.01    -0.10   0.16  -0.15
    31   1    -0.30  -0.07   0.00     0.16   0.01  -0.03    -0.18  -0.16  -0.22
    32   1    -0.03  -0.22  -0.05     0.03   0.16   0.01    -0.00  -0.22  -0.09
    33   1    -0.20  -0.06  -0.12     0.17   0.02   0.05    -0.11  -0.09  -0.21
    34   1    -0.04  -0.11  -0.05     0.06   0.03   0.03     0.05  -0.26  -0.02
    35   1    -0.00   0.11   0.00     0.04  -0.01  -0.01    -0.04  -0.12   0.04
    36   1     0.11   0.06  -0.21     0.02  -0.01   0.02    -0.15  -0.06   0.26
    37   1     0.01   0.24  -0.03     0.04  -0.01   0.03    -0.04  -0.28   0.03
    38   1    -0.01   0.01   0.17     0.03   0.05  -0.10     0.02  -0.03  -0.23
    39   1     0.15  -0.03   0.08    -0.05   0.15  -0.06    -0.22   0.03  -0.09
    40   1     0.06  -0.01   0.09    -0.08   0.08   0.06    -0.07  -0.00  -0.11
    41   1     0.02  -0.06   0.16    -0.04  -0.01   0.02    -0.00  -0.02   0.15
    42   1     0.15  -0.12  -0.01    -0.04  -0.02   0.01     0.09  -0.05   0.04
    43   1    -0.09  -0.03   0.04     0.06  -0.03  -0.00     0.06   0.01   0.07
    44   1    -0.02   0.00   0.05     0.01  -0.04  -0.04     0.00  -0.09  -0.02
    45   1     0.02   0.00  -0.06    -0.03   0.08  -0.02     0.01   0.03  -0.01
    46   1     0.01   0.00  -0.05     0.07   0.04   0.09     0.07   0.02   0.01
    47   1     0.07  -0.00   0.09     0.20   0.02   0.12     0.02   0.05   0.02
    48   1     0.15   0.02  -0.02     0.28   0.03  -0.02    -0.05   0.02   0.04
    49   1     0.20   0.02  -0.08     0.46   0.06  -0.22     0.03   0.00  -0.00
    50   1     0.02   0.00   0.03    -0.05   0.03   0.09     0.04   0.02  -0.01
    51   1     0.00  -0.01  -0.02    -0.04  -0.01   0.02     0.02   0.03  -0.03
    52   1    -0.05  -0.00   0.01    -0.10  -0.02   0.08    -0.01  -0.05  -0.01
    53   1    -0.05  -0.00   0.03    -0.08   0.01   0.05    -0.02   0.01   0.01
    54   1    -0.02  -0.00   0.08    -0.07  -0.00   0.12     0.01   0.05   0.02
    55   1    -0.02   0.14  -0.07     0.02   0.11  -0.20    -0.03  -0.05  -0.01
    56   1    -0.08  -0.07  -0.01    -0.13  -0.08  -0.03    -0.03  -0.06   0.01
                     31                     32                     33
                      A                      A                      A
 Frequencies --    368.0923               385.9942               391.4122
 Red. masses --      3.4327                 3.9289                 4.2802
 Frc consts  --      0.2740                 0.3449                 0.3864
 IR Inten    --      4.3400                 0.7269                 9.5603
  Atom  AN      X      Y      Z        X      Y      Z        X      Y      Z
     1   6    -0.00   0.01   0.02     0.02  -0.01   0.02    -0.02   0.02  -0.02
     2   6     0.01  -0.01   0.01     0.02   0.01   0.02    -0.01  -0.03  -0.01
     3   6     0.01   0.01   0.01     0.04  -0.01  -0.00    -0.02   0.02   0.00
     4   6     0.00   0.01   0.00     0.02  -0.01  -0.02    -0.01   0.02   0.01
     5   6    -0.02  -0.01   0.01     0.01   0.01  -0.02    -0.01  -0.03   0.02
     6   6    -0.02   0.01   0.01     0.00  -0.01   0.01    -0.01   0.01  -0.00
     7   6    -0.01  -0.03  -0.02    -0.03   0.02  -0.02     0.02  -0.04   0.01
     8   6    -0.01  -0.02  -0.05    -0.03   0.05  -0.02     0.02  -0.11   0.01
     9   6     0.04   0.02  -0.01     0.00   0.02   0.01    -0.01  -0.01  -0.00
    10   8    -0.02  -0.02   0.05     0.03  -0.02  -0.04    -0.02   0.08  -0.03
    11   6     0.01  -0.01   0.02    -0.00  -0.02   0.00    -0.08   0.08  -0.00
    12   6    -0.01   0.02   0.01    -0.06  -0.05  -0.06    -0.08  -0.08   0.02
    13   8    -0.03   0.01   0.04    -0.05  -0.02  -0.11    -0.01  -0.10  -0.04
    14   6    -0.02  -0.02   0.04     0.02  -0.01  -0.09    -0.00   0.01  -0.05
    15   6     0.02  -0.01  -0.01     0.03  -0.03   0.01    -0.02   0.12   0.02
    16   6     0.05   0.03  -0.03     0.05   0.01   0.01     0.00   0.03   0.06
    17   6     0.04   0.11   0.05    -0.01   0.04   0.03     0.04  -0.02   0.07
    18   6     0.04  -0.04   0.04    -0.02  -0.03   0.03     0.03  -0.03   0.01
    19   8     0.08   0.02   0.07    -0.05  -0.05  -0.01    -0.13   0.04  -0.09
    20   8     0.12  -0.04  -0.13     0.02   0.06   0.02     0.07  -0.07   0.04
    21   6     0.06   0.01  -0.00     0.02   0.06  -0.01     0.08  -0.06   0.04
    22   8    -0.01   0.06   0.14     0.04   0.07  -0.04     0.08  -0.05   0.05
    23   6    -0.16   0.05  -0.02    -0.07  -0.06   0.06    -0.10   0.03  -0.00
    24   6     0.03  -0.10  -0.09     0.01  -0.05  -0.06    -0.00   0.02  -0.09
    25   8    -0.07   0.03  -0.04     0.22  -0.02   0.01     0.00   0.10   0.01
    26   8    -0.11  -0.01  -0.01    -0.19  -0.00   0.06     0.18  -0.01  -0.11
    27   6    -0.00   0.00  -0.06     0.03  -0.06   0.11    -0.00  -0.02   0.09
    28   6     0.01  -0.05  -0.01    -0.04   0.12   0.07     0.01   0.08  -0.00
    29   1     0.00  -0.02  -0.09     0.04  -0.07   0.20    -0.01  -0.00   0.16
    30   1    -0.01   0.12  -0.09     0.02  -0.27   0.15    -0.02  -0.21   0.13
    31   1     0.02  -0.07  -0.14     0.05   0.13   0.25    -0.02   0.10   0.21
    32   1     0.01  -0.04  -0.04    -0.03   0.13   0.16    -0.00   0.16   0.00
    33   1     0.01  -0.04  -0.07     0.01   0.07   0.25     0.11   0.06   0.04
    34   1     0.05  -0.11   0.01    -0.17   0.31  -0.01    -0.01   0.11  -0.02
    35   1    -0.30   0.13   0.22    -0.08  -0.08   0.06    -0.20   0.12   0.20
    36   1    -0.17   0.04  -0.09    -0.15  -0.03   0.22    -0.11   0.02  -0.11
    37   1    -0.30   0.07  -0.25    -0.08  -0.22  -0.03    -0.20   0.06  -0.17
    38   1     0.02  -0.13  -0.10     0.00  -0.08  -0.09     0.12   0.03  -0.27
    39   1    -0.08  -0.22  -0.02    -0.10  -0.12  -0.02    -0.15   0.10  -0.12
    40   1     0.12  -0.14  -0.23     0.08  -0.08  -0.16    -0.10   0.05  -0.05
    41   1    -0.00   0.02  -0.04    -0.04  -0.04  -0.09    -0.17  -0.13   0.14
    42   1    -0.04   0.05   0.03    -0.13  -0.06  -0.04    -0.03  -0.15  -0.01
    43   1    -0.00   0.06  -0.11     0.11   0.04  -0.03    -0.08  -0.01   0.11
    44   1     0.07   0.19   0.05    -0.05   0.02   0.01     0.01  -0.03   0.05
    45   1     0.12  -0.21   0.15     0.04  -0.07   0.05     0.11  -0.11   0.05
    46   1    -0.07  -0.12  -0.13    -0.07  -0.05  -0.02     0.06  -0.07  -0.10
    47   1     0.06   0.06   0.03    -0.00   0.02   0.07     0.02   0.03  -0.06
    48   1     0.00   0.03   0.03     0.01   0.02   0.02    -0.07   0.00   0.03
    49   1     0.10   0.02  -0.05     0.05   0.01  -0.01    -0.02  -0.00  -0.00
    50   1     0.02   0.01   0.01     0.06  -0.03  -0.01    -0.04   0.04   0.00
    51   1     0.00   0.01  -0.02     0.02  -0.02  -0.04    -0.01   0.04   0.02
    52   1    -0.02  -0.03   0.01    -0.00   0.03  -0.04    -0.00  -0.06   0.03
    53   1    -0.02   0.01   0.01    -0.02  -0.02   0.01     0.01   0.04  -0.01
    54   1    -0.00   0.02   0.03     0.02  -0.01   0.04    -0.02   0.05  -0.03
    55   1    -0.02  -0.04  -0.04    -0.04   0.05  -0.01     0.03  -0.15  -0.00
    56   1    -0.04  -0.03  -0.00    -0.06   0.02  -0.00     0.05  -0.01   0.00
                     34                     35                     36
                      A                      A                      A
 Frequencies --    401.2493               412.4502               423.2520
 Red. masses --      3.9518                 2.9291                 3.9574
 Frc consts  --      0.3749                 0.2936                 0.4177
 IR Inten    --     53.7864                 0.0405                 3.7944
  Atom  AN      X      Y      Z        X      Y      Z        X      Y      Z
     1   6    -0.03   0.02   0.00     0.00  -0.20   0.02    -0.08  -0.00  -0.08
     2   6     0.01  -0.04  -0.00    -0.00  -0.01  -0.00    -0.07  -0.01  -0.07
     3   6    -0.01   0.03   0.03    -0.00   0.21  -0.04    -0.11  -0.01   0.00
     4   6    -0.02   0.02   0.03    -0.00  -0.19   0.03    -0.05   0.02   0.08
     5   6    -0.04  -0.03   0.05     0.00  -0.02   0.00    -0.02   0.01   0.07
     6   6    -0.04   0.03   0.01     0.00   0.21  -0.04    -0.01  -0.01  -0.02
     7   6     0.02  -0.06  -0.04     0.00  -0.03   0.01     0.15   0.03   0.05
     8   6     0.01  -0.20  -0.11     0.00   0.02   0.01     0.18   0.01   0.07
     9   6     0.08   0.03  -0.04    -0.00  -0.00   0.00     0.04   0.02  -0.07
    10   8     0.11  -0.04  -0.01    -0.00   0.00  -0.00    -0.05   0.03  -0.05
    11   6     0.07  -0.04   0.03    -0.00  -0.00  -0.00    -0.01  -0.03  -0.02
    12   6     0.02   0.07  -0.07     0.00   0.00   0.00     0.01   0.06  -0.00
    13   8     0.05   0.08  -0.08     0.01  -0.00   0.01     0.08  -0.02   0.08
    14   6     0.09   0.03  -0.05    -0.00   0.00   0.00    -0.04   0.05   0.03
    15   6     0.03   0.02   0.08     0.00  -0.00   0.00     0.03  -0.08  -0.04
    16   6    -0.01   0.01   0.06     0.00  -0.00   0.00     0.07  -0.03   0.02
    17   6    -0.07  -0.03   0.03    -0.00   0.00   0.00    -0.05  -0.01   0.05
    18   6    -0.08  -0.03   0.05    -0.00  -0.00   0.00    -0.08  -0.04   0.05
    19   8    -0.03  -0.06   0.05    -0.01  -0.00  -0.00    -0.14  -0.06  -0.03
    20   8     0.02   0.03  -0.01     0.00   0.00   0.00     0.05   0.05   0.04
    21   6    -0.03   0.03  -0.02     0.00   0.00  -0.00     0.03   0.04  -0.02
    22   8    -0.05   0.00  -0.02     0.00   0.00  -0.00     0.01   0.01  -0.01
    23   6     0.02  -0.03   0.01    -0.00  -0.00   0.00    -0.03  -0.03   0.02
    24   6     0.01  -0.03   0.03     0.00  -0.00  -0.00     0.05  -0.02  -0.03
    25   8    -0.05   0.18  -0.06     0.00   0.00  -0.00     0.02  -0.07  -0.04
    26   8     0.05  -0.05  -0.00    -0.00  -0.00   0.01    -0.05  -0.00   0.04
    27   6    -0.02   0.04   0.01     0.00   0.00  -0.00     0.03   0.07   0.00
    28   6    -0.09  -0.03   0.03     0.00   0.00  -0.01     0.02   0.01  -0.08
    29   1    -0.05   0.15   0.04     0.00   0.00  -0.00     0.05  -0.02  -0.03
    30   1    -0.06  -0.06   0.02     0.00   0.01   0.00     0.07   0.14   0.01
    31   1    -0.09   0.03   0.05     0.00   0.01  -0.00     0.08   0.10  -0.01
    32   1    -0.04  -0.24   0.17     0.00   0.00  -0.01     0.00   0.07  -0.19
    33   1    -0.27  -0.01   0.08     0.00   0.00  -0.02     0.05   0.04  -0.23
    34   1    -0.22   0.09  -0.03     0.01  -0.01  -0.00     0.14  -0.15  -0.02
    35   1     0.05  -0.08  -0.06    -0.00  -0.00   0.00    -0.05  -0.06   0.04
    36   1     0.03  -0.02   0.08    -0.01  -0.00   0.01    -0.06  -0.01   0.13
    37   1     0.05  -0.06   0.04    -0.00  -0.01  -0.00    -0.04  -0.12  -0.04
    38   1    -0.05  -0.05   0.12     0.00  -0.01  -0.00     0.02  -0.05  -0.02
    39   1     0.06  -0.08   0.05    -0.00  -0.01  -0.00     0.01  -0.05  -0.01
    40   1     0.08  -0.05   0.00     0.01  -0.00  -0.01     0.11  -0.04  -0.07
    41   1     0.08   0.10  -0.24    -0.00   0.00  -0.01    -0.01   0.04  -0.17
    42   1    -0.11   0.16  -0.02     0.00   0.01   0.00    -0.04   0.21   0.04
    43   1    -0.02  -0.01   0.09     0.01  -0.00   0.00     0.15   0.00  -0.01
    44   1    -0.09  -0.06   0.02    -0.00   0.00   0.00    -0.12   0.01   0.00
    45   1    -0.09  -0.01   0.04     0.00  -0.00   0.00    -0.02  -0.05   0.04
    46   1    -0.08  -0.02   0.08    -0.01  -0.00  -0.00    -0.08  -0.05   0.03
    47   1     0.15   0.15  -0.04    -0.01  -0.01   0.00     0.07   0.04  -0.23
    48   1    -0.07   0.07   0.13     0.01  -0.00  -0.00     0.00   0.03  -0.15
    49   1     0.20   0.10  -0.13    -0.01  -0.00   0.01    -0.12  -0.02   0.02
    50   1    -0.03   0.07   0.03    -0.01   0.48  -0.08    -0.20  -0.02   0.03
    51   1    -0.01   0.05   0.00    -0.00  -0.41   0.07    -0.06   0.04   0.12
    52   1    -0.04  -0.07   0.05     0.01  -0.05   0.01     0.02   0.02   0.10
    53   1    -0.02   0.06   0.00     0.01   0.43  -0.08     0.08  -0.03  -0.05
    54   1    -0.03   0.07   0.01     0.00  -0.46   0.07    -0.08   0.01  -0.13
    55   1     0.02  -0.29  -0.11     0.01   0.05   0.01     0.25  -0.07   0.03
    56   1    -0.01   0.05  -0.02     0.00  -0.03   0.00     0.28   0.11  -0.01
                     37                     38                     39
                      A                      A                      A
 Frequencies --    428.7290               452.5676               471.7134
 Red. masses --      3.8538                 3.0895                 4.5534
 Frc consts  --      0.4174                 0.3728                 0.5970
 IR Inten    --      8.1870                23.8599                14.5953
  Atom  AN      X      Y      Z        X      Y      Z        X      Y      Z
     1   6    -0.08  -0.01  -0.08     0.01  -0.01   0.00    -0.01  -0.00  -0.00
     2   6    -0.06  -0.05  -0.07    -0.00   0.03   0.00     0.01  -0.01  -0.01
     3   6    -0.10   0.01  -0.01    -0.00  -0.00  -0.01     0.01   0.00   0.01
     4   6    -0.05   0.02   0.07     0.00  -0.01  -0.00     0.00   0.00   0.01
     5   6    -0.02  -0.02   0.07     0.01   0.02  -0.01    -0.02  -0.00   0.02
     6   6    -0.01   0.02  -0.02     0.01  -0.01   0.00    -0.01   0.00   0.00
     7   6     0.16  -0.01   0.06    -0.01   0.01   0.01     0.01  -0.01  -0.03
     8   6     0.17  -0.01   0.08     0.00   0.07   0.03    -0.00  -0.09  -0.05
     9   6     0.03   0.02  -0.06    -0.01  -0.01   0.01     0.02   0.02  -0.02
    10   8     0.05  -0.04   0.06     0.10  -0.04   0.03    -0.07   0.00  -0.06
    11   6     0.00   0.04   0.02     0.02  -0.02   0.01     0.03  -0.09   0.01
    12   6    -0.01  -0.07   0.01     0.02   0.06  -0.03     0.04  -0.02   0.01
    13   8    -0.08   0.01  -0.08     0.05   0.07  -0.05     0.06  -0.06   0.07
    14   6     0.05  -0.06  -0.03     0.09   0.02  -0.02    -0.09   0.06   0.01
    15   6    -0.03   0.04   0.02    -0.02  -0.03  -0.07    -0.02  -0.05   0.12
    16   6    -0.05   0.01  -0.03    -0.03   0.01  -0.06    -0.16   0.04  -0.00
    17   6     0.05   0.03  -0.05    -0.02   0.09   0.02     0.01   0.12   0.02
    18   6     0.07   0.04  -0.05    -0.08  -0.06   0.06     0.05   0.02  -0.05
    19   8     0.13   0.08   0.03    -0.06  -0.02   0.05     0.10  -0.12  -0.04
    20   8    -0.04  -0.03  -0.03    -0.07  -0.09   0.08    -0.13  -0.08  -0.04
    21   6    -0.03  -0.02   0.01     0.07  -0.11   0.05    -0.01  -0.09   0.04
    22   8     0.00   0.01   0.00     0.13   0.01  -0.00     0.11   0.09  -0.04
    23   6     0.02   0.02  -0.01    -0.02   0.02  -0.03     0.00   0.03  -0.03
    24   6    -0.04   0.01   0.02    -0.01   0.07  -0.03    -0.07   0.04   0.01
    25   8     0.06   0.02   0.03    -0.03  -0.08  -0.02     0.09   0.09   0.01
    26   8    -0.10  -0.02  -0.02    -0.01   0.03  -0.04    -0.04  -0.06   0.14
    27   6    -0.06  -0.07  -0.02    -0.02   0.04  -0.01     0.05   0.06   0.04
    28   6    -0.02  -0.03   0.08    -0.03  -0.04   0.03    -0.03   0.05  -0.10
    29   1    -0.09   0.06  -0.02    -0.05   0.16  -0.01     0.09  -0.12   0.04
    30   1    -0.09  -0.14  -0.02    -0.05  -0.01  -0.01     0.10   0.08   0.05
    31   1    -0.14  -0.12   0.00    -0.09  -0.02  -0.01     0.15   0.18   0.07
    32   1    -0.00  -0.09   0.19     0.02  -0.19   0.16    -0.05   0.11  -0.23
    33   1    -0.07  -0.05   0.21    -0.16  -0.02   0.05     0.01   0.07  -0.21
    34   1    -0.14   0.14   0.02    -0.14   0.03  -0.01     0.10  -0.09  -0.04
    35   1     0.03   0.05  -0.02    -0.06   0.16   0.12     0.01   0.15   0.03
    36   1     0.03   0.01  -0.08    -0.04  -0.00  -0.21     0.01   0.00  -0.24
    37   1     0.03   0.08   0.04    -0.07   0.11  -0.08     0.00   0.15   0.02
    38   1    -0.02   0.03   0.00     0.16   0.15  -0.22     0.06   0.14  -0.12
    39   1    -0.03   0.03   0.01    -0.07   0.22  -0.10    -0.09   0.14  -0.04
    40   1    -0.08   0.02   0.04    -0.24   0.13   0.09    -0.27   0.09   0.09
    41   1    -0.00  -0.05   0.20     0.06   0.08  -0.11     0.03  -0.03  -0.04
    42   1     0.05  -0.23  -0.04    -0.05   0.10  -0.00     0.04   0.03   0.02
    43   1    -0.09   0.01  -0.03    -0.05   0.05  -0.14    -0.26   0.09  -0.14
    44   1     0.10   0.02  -0.01    -0.11   0.08  -0.04     0.07   0.01   0.08
    45   1     0.03   0.01  -0.01     0.02  -0.26   0.19     0.17  -0.02  -0.06
    46   1     0.06   0.03  -0.07    -0.23  -0.15  -0.16    -0.11  -0.00  -0.05
    47   1     0.08   0.07  -0.22    -0.04  -0.06   0.02     0.07   0.10  -0.03
    48   1    -0.05   0.04  -0.15     0.05  -0.03  -0.05    -0.07   0.05   0.09
    49   1    -0.13  -0.04   0.03    -0.05  -0.03   0.03     0.08   0.07  -0.06
    50   1    -0.19   0.05   0.02     0.01  -0.02  -0.00    -0.00   0.01   0.01
    51   1    -0.06   0.05   0.11    -0.00  -0.03   0.01     0.00   0.01  -0.01
    52   1     0.02  -0.04   0.11     0.01   0.03  -0.01    -0.02   0.00   0.01
    53   1     0.08   0.05  -0.06     0.00  -0.03   0.01    -0.01   0.01  -0.00
    54   1    -0.07   0.03  -0.13     0.01  -0.04   0.00    -0.01   0.01   0.01
    55   1     0.25  -0.16   0.03    -0.00   0.12   0.03     0.00  -0.13  -0.05
    56   1     0.29   0.12  -0.00    -0.01  -0.05   0.01    -0.00   0.05  -0.02
                     40                     41                     42
                      A                      A                      A
 Frequencies --    504.9396               509.8060               511.3358
 Red. masses --      3.7384                 3.1064                 3.4780
 Frc consts  --      0.5616                 0.4757                 0.5358
 IR Inten    --     19.8553                 9.0482                13.8117
  Atom  AN      X      Y      Z        X      Y      Z        X      Y      Z
     1   6     0.00   0.00   0.00    -0.01   0.00  -0.01    -0.01   0.00  -0.00
     2   6    -0.01   0.01   0.00     0.01   0.25  -0.05     0.01   0.15  -0.03
     3   6    -0.00  -0.00  -0.00    -0.00   0.02   0.01     0.00   0.01   0.00
     4   6    -0.00  -0.00  -0.00    -0.00  -0.12   0.04    -0.00  -0.07   0.02
     5   6     0.01   0.00  -0.01    -0.02   0.16  -0.00    -0.01   0.10  -0.00
     6   6     0.01  -0.00   0.00    -0.01  -0.11   0.02    -0.01  -0.07   0.01
     7   6    -0.01   0.00   0.01     0.02  -0.09  -0.02     0.01  -0.06  -0.01
     8   6     0.00   0.03   0.01     0.03  -0.05   0.01     0.02  -0.04   0.01
     9   6    -0.01  -0.00   0.00    -0.00   0.02   0.00    -0.00   0.01   0.00
    10   8     0.06  -0.02   0.14     0.02   0.01   0.04    -0.02   0.01  -0.05
    11   6    -0.00  -0.01   0.08    -0.01   0.02   0.02     0.00   0.01  -0.03
    12   6    -0.11  -0.07   0.06    -0.03  -0.02   0.03     0.03   0.03  -0.02
    13   8     0.05  -0.13  -0.01     0.00  -0.03  -0.01    -0.02   0.05   0.00
    14   6     0.05   0.12  -0.05     0.03   0.02  -0.01    -0.02  -0.05   0.02
    15   6    -0.00   0.01  -0.05    -0.02  -0.02   0.01     0.02   0.01   0.01
    16   6     0.05  -0.01  -0.07    -0.02  -0.01   0.00     0.02   0.00   0.01
    17   6     0.07  -0.03  -0.08     0.01   0.01   0.02    -0.02  -0.03  -0.01
    18   6     0.05   0.00   0.01     0.04   0.02  -0.02    -0.05  -0.02   0.01
    19   8     0.02  -0.07  -0.00     0.02   0.01  -0.02    -0.05   0.03   0.01
    20   8     0.05  -0.00  -0.07    -0.05   0.03   0.05     0.10  -0.04  -0.11
    21   6    -0.04   0.03   0.05     0.01   0.00  -0.07    -0.03   0.02   0.12
    22   8     0.02  -0.01  -0.04    -0.05   0.00   0.06     0.09   0.00  -0.11
    23   6     0.03   0.06   0.08    -0.03  -0.05  -0.08     0.05   0.11   0.15
    24   6    -0.08  -0.03   0.02     0.08   0.02  -0.02    -0.15  -0.05   0.04
    25   8    -0.07  -0.04  -0.01    -0.00   0.02  -0.04    -0.01   0.02   0.01
    26   8    -0.03   0.02  -0.06     0.01  -0.04   0.02     0.00  -0.02   0.01
    27   6     0.02   0.17   0.08    -0.01   0.03   0.01    -0.01  -0.07  -0.03
    28   6    -0.10   0.02  -0.10    -0.02  -0.00  -0.01     0.04  -0.01   0.04
    29   1     0.01   0.22   0.16    -0.02   0.08   0.03    -0.01  -0.08  -0.06
    30   1    -0.00  -0.03   0.12    -0.02  -0.03   0.02    -0.00   0.01  -0.04
    31   1    -0.01   0.29   0.20    -0.03   0.04   0.04    -0.00  -0.12  -0.08
    32   1    -0.05  -0.19   0.00    -0.00  -0.06   0.03     0.02   0.07   0.00
    33   1    -0.30   0.09  -0.25    -0.07   0.01  -0.03     0.12  -0.03   0.10
    34   1    -0.16  -0.07  -0.10    -0.05  -0.01  -0.02     0.06   0.03   0.04
    35   1     0.07   0.03   0.01    -0.06  -0.07  -0.04     0.11   0.11   0.08
    36   1     0.08   0.05   0.05    -0.06  -0.04  -0.01     0.12   0.08   0.04
    37   1     0.07   0.11   0.17    -0.06  -0.13  -0.15     0.11   0.23   0.30
    38   1    -0.08  -0.07  -0.02     0.03   0.04   0.07    -0.07  -0.08  -0.12
    39   1    -0.20  -0.09   0.06     0.21   0.05  -0.04    -0.41  -0.11   0.09
    40   1    -0.02  -0.06  -0.06     0.08   0.03   0.04    -0.12  -0.07  -0.09
    41   1    -0.18  -0.12  -0.03    -0.06  -0.04   0.06     0.06   0.05  -0.01
    42   1    -0.19  -0.02   0.09    -0.02  -0.06   0.02     0.05   0.03  -0.03
    43   1     0.07  -0.03  -0.03     0.01   0.01  -0.01    -0.03  -0.01   0.02
    44   1     0.06   0.02  -0.10     0.06   0.04   0.04    -0.09  -0.10  -0.04
    45   1     0.01   0.14  -0.09     0.04   0.04  -0.04    -0.05  -0.06   0.05
    46   1     0.07   0.06   0.17     0.05   0.03   0.01    -0.04  -0.04  -0.06
    47   1    -0.02  -0.03   0.01     0.04   0.07  -0.07     0.03   0.04  -0.04
    48   1     0.02  -0.01  -0.03    -0.08   0.04   0.08    -0.05   0.02   0.05
    49   1    -0.02  -0.02   0.02    -0.01   0.07  -0.01    -0.01   0.04  -0.00
    50   1     0.00  -0.01  -0.01    -0.02  -0.20   0.05    -0.01  -0.12   0.03
    51   1    -0.00  -0.01   0.00     0.00  -0.38   0.07     0.00  -0.23   0.04
    52   1     0.01  -0.00  -0.01    -0.01   0.25  -0.02    -0.01   0.15  -0.01
    53   1     0.00  -0.01   0.00     0.00  -0.38   0.05     0.00  -0.23   0.03
    54   1     0.00  -0.01  -0.00    -0.02  -0.25   0.06    -0.01  -0.15   0.03
    55   1     0.00   0.04   0.01     0.04   0.10   0.01     0.02   0.05   0.01
    56   1    -0.00  -0.02   0.01     0.03  -0.36  -0.03     0.02  -0.22  -0.02
                     43                     44                     45
                      A                      A                      A
 Frequencies --    561.7650               604.7520               620.4642
 Red. masses --      6.0592                 5.8237                 5.0189
 Frc consts  --      1.1266                 1.2549                 1.1384
 IR Inten    --      3.3111                13.7028                13.0757
  Atom  AN      X      Y      Z        X      Y      Z        X      Y      Z
     1   6     0.00  -0.01   0.00     0.00  -0.01  -0.00     0.07   0.02   0.05
     2   6     0.01  -0.05   0.00     0.01  -0.01  -0.01    -0.15   0.03   0.13
     3   6     0.01  -0.01   0.01     0.01  -0.00   0.01    -0.16  -0.00  -0.09
     4   6    -0.00   0.03  -0.00     0.00   0.01   0.01    -0.12  -0.02  -0.08
     5   6    -0.01  -0.04   0.01    -0.01  -0.01   0.01     0.14  -0.01  -0.15
     6   6    -0.01   0.03  -0.01    -0.01   0.01  -0.01     0.11  -0.00   0.05
     7   6    -0.01   0.06  -0.03    -0.00   0.02  -0.02    -0.04   0.01   0.22
     8   6    -0.02  -0.04  -0.05    -0.01  -0.03  -0.02     0.01  -0.00  -0.05
     9   6     0.02   0.02  -0.02     0.00   0.01  -0.01     0.10   0.02  -0.08
    10   8     0.03   0.17   0.01     0.00  -0.19   0.21     0.00  -0.07   0.06
    11   6    -0.07   0.08   0.04     0.02   0.06  -0.07    -0.04   0.04  -0.04
    12   6    -0.12  -0.01   0.09     0.09  -0.00  -0.07     0.03   0.02  -0.02
    13   8    -0.06   0.01  -0.04     0.07  -0.06  -0.00     0.05   0.00  -0.00
    14   6     0.15   0.00   0.01    -0.10  -0.00  -0.04    -0.01  -0.00  -0.02
    15   6    -0.01  -0.24   0.01     0.05  -0.05   0.03    -0.04  -0.05  -0.03
    16   6     0.02  -0.10  -0.05     0.04  -0.03  -0.00    -0.06  -0.03   0.09
    17   6     0.00   0.04   0.02    -0.09   0.02  -0.06    -0.00  -0.03   0.17
    18   6     0.04   0.04  -0.09    -0.15   0.09  -0.16     0.11  -0.01   0.10
    19   8    -0.06   0.05  -0.12    -0.01   0.27   0.00    -0.03   0.07  -0.01
    20   8    -0.01   0.01  -0.04     0.04   0.00   0.06    -0.01  -0.01  -0.06
    21   6     0.00   0.03   0.01     0.05  -0.02   0.04    -0.05   0.03  -0.04
    22   8     0.04   0.06  -0.03     0.01  -0.05   0.02     0.01   0.07  -0.04
    23   6     0.01   0.03   0.04     0.00   0.03   0.06    -0.00  -0.02  -0.05
    24   6     0.00   0.00  -0.01     0.05   0.00  -0.03    -0.05  -0.00   0.03
    25   8    -0.08  -0.07  -0.16    -0.03  -0.01  -0.03     0.02  -0.03  -0.07
    26   8     0.08  -0.09   0.29     0.04  -0.06   0.15     0.03  -0.00  -0.01
    27   6    -0.02   0.04  -0.00     0.01  -0.06   0.00     0.00  -0.01  -0.00
    28   6     0.09  -0.09   0.10    -0.12   0.10  -0.12    -0.03   0.02  -0.03
    29   1    -0.09   0.32   0.02     0.06  -0.25   0.03     0.01  -0.05   0.00
    30   1    -0.13  -0.04  -0.03     0.07  -0.10   0.03     0.01  -0.03   0.00
    31   1    -0.19  -0.13  -0.03     0.11   0.12   0.08     0.02   0.03   0.02
    32   1     0.12  -0.17   0.22    -0.12   0.11  -0.14    -0.02   0.01  -0.01
    33   1     0.03  -0.09   0.12    -0.13   0.10  -0.12    -0.04   0.03  -0.02
    34   1    -0.01  -0.03   0.06    -0.12   0.10  -0.12    -0.05   0.04  -0.04
    35   1     0.01   0.03   0.03    -0.02   0.05   0.12     0.03  -0.05  -0.11
    36   1     0.01   0.03   0.04    -0.01   0.03   0.06     0.02  -0.02  -0.03
    37   1     0.00   0.03   0.03    -0.02   0.01   0.02     0.03  -0.01   0.00
    38   1     0.01  -0.01  -0.03     0.10   0.01  -0.10    -0.10  -0.01   0.10
    39   1    -0.05  -0.02   0.01    -0.02   0.01  -0.03    -0.01  -0.02   0.04
    40   1     0.02  -0.01  -0.05     0.03   0.01  -0.04    -0.02  -0.01   0.03
    41   1    -0.16  -0.03   0.25     0.01  -0.05   0.03    -0.00   0.00   0.07
    42   1    -0.06  -0.14   0.05     0.20  -0.03  -0.11     0.12  -0.01  -0.05
    43   1     0.15  -0.00  -0.20     0.12  -0.02  -0.00    -0.09   0.01   0.00
    44   1     0.03   0.02   0.04    -0.11   0.03  -0.08     0.01  -0.16   0.21
    45   1     0.12   0.02  -0.09    -0.20  -0.12   0.03     0.17  -0.09   0.14
    46   1     0.05   0.03  -0.12    -0.13   0.01  -0.42     0.20  -0.05  -0.03
    47   1     0.04   0.05  -0.00     0.02   0.03  -0.02     0.07  -0.00   0.08
    48   1    -0.02   0.03   0.07    -0.03   0.02   0.05     0.14   0.01  -0.02
    49   1     0.09   0.07  -0.07     0.03   0.04  -0.03     0.24   0.02  -0.16
    50   1     0.01   0.04   0.01     0.00   0.01   0.01    -0.02  -0.03  -0.13
    51   1     0.00   0.10  -0.03     0.00   0.03  -0.02    -0.16  -0.02   0.14
    52   1    -0.01  -0.04   0.01    -0.01  -0.00   0.01     0.17  -0.01  -0.12
    53   1    -0.01   0.10  -0.02    -0.00   0.03  -0.02    -0.03  -0.04   0.10
    54   1     0.00   0.06   0.00    -0.00   0.02   0.01     0.11  -0.05  -0.14
    55   1    -0.02   0.01  -0.04    -0.02   0.02  -0.01     0.17  -0.02  -0.13
    56   1    -0.04   0.10  -0.01    -0.02   0.01  -0.02    -0.11  -0.03   0.25
                     46                     47                     48
                      A                      A                      A
 Frequencies --    623.2862               631.6483               640.8471
 Red. masses --      4.9147                 6.4038                 4.5356
 Frc consts  --      1.1249                 1.5054                 1.0975
 IR Inten    --      2.5276                 0.0368                 8.8131
  Atom  AN      X      Y      Z        X      Y      Z        X      Y      Z
     1   6    -0.04  -0.02  -0.04    -0.31   0.01   0.05    -0.01   0.00   0.00
     2   6     0.11  -0.03  -0.10    -0.11  -0.02  -0.09     0.00  -0.00  -0.00
     3   6     0.12  -0.01   0.08     0.00  -0.04  -0.31     0.00  -0.00  -0.00
     4   6     0.08   0.03   0.06     0.35  -0.01  -0.04     0.01   0.00   0.00
     5   6    -0.11  -0.00   0.11     0.11   0.02   0.09    -0.00  -0.00   0.00
     6   6    -0.08   0.01  -0.04     0.01   0.05   0.35    -0.00   0.00   0.01
     7   6     0.02   0.02  -0.17    -0.02  -0.00  -0.02    -0.00   0.00  -0.01
     8   6    -0.00   0.03   0.05    -0.03  -0.00  -0.03     0.00   0.02   0.01
     9   6    -0.07  -0.01   0.06    -0.00  -0.00  -0.00    -0.00   0.00   0.00
    10   8     0.00  -0.08   0.07    -0.00  -0.00   0.01     0.01  -0.04  -0.02
    11   6    -0.05   0.04  -0.04    -0.00   0.01  -0.00    -0.05  -0.02  -0.02
    12   6     0.04   0.03  -0.01     0.00   0.00   0.00     0.01   0.01   0.00
    13   8     0.06   0.01  -0.00     0.00  -0.00  -0.00     0.03   0.02   0.00
    14   6    -0.00   0.00  -0.03    -0.00  -0.00  -0.00     0.02   0.01  -0.00
    15   6    -0.06  -0.06  -0.05     0.00  -0.01  -0.00    -0.13  -0.04  -0.02
    16   6    -0.06  -0.03   0.10     0.00  -0.00   0.00    -0.21  -0.01   0.03
    17   6     0.01  -0.04   0.21     0.00   0.00   0.01    -0.06  -0.13   0.04
    18   6     0.15  -0.03   0.14     0.00   0.00   0.00     0.01  -0.03  -0.02
    19   8    -0.04   0.07  -0.00    -0.00   0.01  -0.00     0.06  -0.02   0.02
    20   8    -0.01  -0.01  -0.07     0.00  -0.00   0.00    -0.12   0.06  -0.12
    21   6    -0.07   0.04  -0.05    -0.00  -0.00  -0.00     0.09   0.08   0.04
    22   8     0.01   0.09  -0.06     0.00   0.00  -0.00     0.00  -0.09   0.05
    23   6    -0.00  -0.03  -0.08     0.00  -0.00  -0.01     0.00   0.13   0.23
    24   6    -0.08  -0.00   0.04    -0.01  -0.00   0.00     0.20   0.03  -0.13
    25   8     0.02  -0.06  -0.06    -0.00  -0.00  -0.00     0.06  -0.02  -0.05
    26   8     0.03   0.05  -0.03     0.01   0.00   0.01     0.02   0.03  -0.04
    27   6     0.01  -0.02  -0.00     0.00  -0.00  -0.00     0.01   0.04   0.01
    28   6    -0.03   0.03  -0.04    -0.00   0.00  -0.00     0.01  -0.01   0.01
    29   1     0.02  -0.05   0.01     0.00  -0.01   0.00     0.01   0.05   0.00
    30   1     0.02  -0.04   0.01    -0.00  -0.01  -0.00     0.01   0.05   0.01
    31   1     0.03   0.03   0.02     0.00  -0.00   0.00     0.01   0.04   0.00
    32   1    -0.02   0.01  -0.01    -0.00   0.00  -0.00     0.02  -0.06   0.03
    33   1    -0.06   0.03  -0.03    -0.00   0.00  -0.00    -0.03  -0.01  -0.00
    34   1    -0.06   0.05  -0.05    -0.00   0.00  -0.00    -0.00  -0.02   0.01
    35   1     0.04  -0.08  -0.16     0.00  -0.01  -0.01    -0.05   0.15   0.33
    36   1     0.03  -0.03  -0.05     0.00  -0.00  -0.01    -0.05   0.15   0.32
    37   1     0.04  -0.01  -0.01     0.00  -0.00  -0.00    -0.05   0.04   0.11
    38   1    -0.15  -0.02   0.14    -0.01  -0.00   0.01     0.26   0.01  -0.23
    39   1    -0.01  -0.03   0.05    -0.00   0.00   0.00     0.04  -0.03  -0.08
    40   1    -0.03  -0.01   0.04    -0.01  -0.00   0.01     0.26   0.00  -0.25
    41   1    -0.00   0.00   0.08    -0.00  -0.00   0.00     0.01   0.01   0.07
    42   1     0.14  -0.01  -0.05     0.00  -0.00  -0.00     0.09  -0.02  -0.03
    43   1    -0.09   0.02  -0.02     0.01   0.00  -0.01    -0.19  -0.04   0.08
    44   1     0.01  -0.17   0.24    -0.00   0.00   0.00     0.01  -0.25   0.12
    45   1     0.23  -0.11   0.19     0.01  -0.01   0.01    -0.06   0.03  -0.05
    46   1     0.26  -0.06   0.01     0.01  -0.00  -0.01     0.07   0.00   0.05
    47   1    -0.07  -0.03  -0.05    -0.01  -0.00   0.04    -0.02  -0.02   0.01
    48   1    -0.07  -0.02  -0.02     0.00  -0.00   0.02     0.01  -0.01  -0.02
    49   1    -0.21  -0.04   0.13     0.04   0.01  -0.03    -0.02  -0.01   0.01
    50   1     0.02   0.02   0.11    -0.14  -0.03  -0.26    -0.00  -0.00  -0.00
    51   1     0.12   0.04  -0.11     0.32   0.01   0.12     0.01   0.01  -0.00
    52   1    -0.12  -0.01   0.10    -0.21  -0.02  -0.19    -0.01  -0.01  -0.00
    53   1     0.02   0.05  -0.09     0.16   0.05   0.30     0.00   0.00   0.01
    54   1    -0.08   0.03   0.12    -0.27  -0.00  -0.12    -0.01  -0.01   0.01
    55   1    -0.13   0.09   0.11    -0.04   0.03  -0.02    -0.01   0.01   0.01
    56   1     0.08   0.04  -0.19    -0.01  -0.03  -0.02     0.00   0.02  -0.01
                     49                     50                     51
                      A                      A                      A
 Frequencies --    662.0662               697.0283               737.6376
 Red. masses --      4.6169                 1.8890                 6.1031
 Frc consts  --      1.1924                 0.5407                 1.9565
 IR Inten    --      1.5695                22.7064                22.4112
  Atom  AN      X      Y      Z        X      Y      Z        X      Y      Z
     1   6    -0.00   0.00  -0.00    -0.00   0.08  -0.02     0.00   0.01   0.00
     2   6     0.00  -0.00  -0.00     0.00  -0.12   0.02     0.00  -0.01   0.00
     3   6     0.00   0.00   0.00     0.01   0.09  -0.01     0.00   0.01   0.00
     4   6     0.00  -0.00   0.00     0.00  -0.15   0.02     0.00  -0.00  -0.00
     5   6    -0.00   0.00   0.00    -0.00   0.08  -0.01    -0.00   0.01  -0.00
     6   6    -0.00  -0.00   0.00    -0.00  -0.15   0.02    -0.00  -0.00   0.00
     7   6    -0.00  -0.00  -0.00    -0.00  -0.01  -0.00    -0.01  -0.01  -0.01
     8   6    -0.00   0.01   0.00    -0.00   0.01  -0.00     0.01   0.04   0.02
     9   6    -0.00   0.00   0.00     0.00   0.00  -0.00    -0.00   0.01   0.01
    10   8     0.06  -0.09  -0.08     0.00  -0.00   0.00    -0.03   0.10   0.07
    11   6     0.03  -0.06  -0.14    -0.00   0.00  -0.00     0.05  -0.02   0.05
    12   6    -0.01  -0.14  -0.16    -0.00   0.00   0.00    -0.04   0.01   0.09
    13   8    -0.18  -0.08   0.01     0.00   0.00   0.00     0.00  -0.01  -0.01
    14   6    -0.01   0.05   0.11    -0.00   0.00   0.00     0.04   0.00  -0.03
    15   6     0.01   0.01  -0.00    -0.00  -0.01  -0.00     0.02  -0.11  -0.05
    16   6    -0.01   0.02   0.09    -0.00  -0.00  -0.00    -0.05   0.04   0.24
    17   6    -0.06   0.00   0.06     0.00   0.00   0.00    -0.20   0.01   0.15
    18   6    -0.04   0.03  -0.04     0.00   0.00   0.00    -0.17   0.05  -0.24
    19   8     0.02   0.11   0.01    -0.00   0.00  -0.00     0.19  -0.08  -0.03
    20   8     0.05  -0.02   0.01    -0.00   0.00  -0.00     0.16  -0.10   0.07
    21   6    -0.00  -0.01  -0.00    -0.00   0.00  -0.00     0.03  -0.02   0.02
    22   8     0.00   0.01  -0.02     0.00   0.00  -0.00    -0.02   0.11  -0.05
    23   6    -0.00  -0.02  -0.02     0.00   0.00   0.00     0.01  -0.01  -0.01
    24   6    -0.03  -0.01   0.02     0.00   0.00  -0.00    -0.01  -0.01   0.02
    25   8     0.04  -0.00  -0.00    -0.00  -0.00   0.00     0.02  -0.04  -0.09
    26   8     0.01   0.01  -0.01     0.00   0.01   0.00    -0.01   0.08  -0.14
    27   6     0.03   0.29   0.08     0.00   0.00   0.00    -0.00  -0.06  -0.02
    28   6     0.08  -0.11   0.11    -0.00   0.00  -0.00    -0.01   0.01  -0.02
    29   1     0.03   0.29   0.05     0.00  -0.00   0.00    -0.03   0.05   0.02
    30   1     0.06   0.40   0.07     0.00   0.00   0.00    -0.06  -0.16  -0.02
    31   1     0.04   0.27   0.05     0.00  -0.00  -0.00    -0.06  -0.09   0.00
    32   1     0.10  -0.22   0.09    -0.00  -0.00  -0.00    -0.00   0.01   0.02
    33   1    -0.05  -0.05  -0.08    -0.00   0.00  -0.00    -0.00   0.00   0.02
    34   1     0.15  -0.29   0.16    -0.00   0.00  -0.00    -0.06   0.07  -0.05
    35   1     0.01  -0.02  -0.03     0.00   0.00  -0.00    -0.01   0.02   0.02
    36   1     0.01  -0.02  -0.04     0.00   0.00   0.00    -0.00  -0.02  -0.05
    37   1     0.01  -0.00  -0.01     0.00   0.00   0.00    -0.01   0.01  -0.03
    38   1    -0.03  -0.00   0.02    -0.00   0.00   0.00     0.02   0.01  -0.01
    39   1    -0.02  -0.00   0.02     0.00  -0.00  -0.00    -0.03   0.00   0.01
    40   1    -0.03  -0.00   0.03     0.00  -0.00  -0.00    -0.04   0.00   0.02
    41   1     0.03  -0.12  -0.16    -0.00   0.00   0.00    -0.04   0.01   0.01
    42   1     0.06  -0.09  -0.17     0.00  -0.00  -0.00    -0.16   0.01   0.12
    43   1    -0.03   0.02   0.07     0.01  -0.00  -0.00    -0.09   0.09   0.12
    44   1    -0.05  -0.08   0.08    -0.00   0.00   0.00    -0.05  -0.25   0.30
    45   1    -0.04  -0.08   0.05     0.00  -0.00   0.00    -0.19   0.20  -0.36
    46   1    -0.02  -0.01  -0.19     0.00  -0.00  -0.00    -0.18   0.13  -0.01
    47   1    -0.01  -0.01   0.01    -0.01  -0.02   0.01    -0.04  -0.05   0.02
    48   1     0.01  -0.00  -0.01     0.03  -0.01  -0.03     0.06  -0.02  -0.09
    49   1    -0.01  -0.00   0.00    -0.00  -0.02   0.01    -0.05  -0.06   0.05
    50   1     0.00   0.00   0.00     0.00   0.52  -0.08     0.00  -0.02   0.00
    51   1     0.01  -0.00  -0.00     0.00   0.13  -0.03     0.00  -0.03   0.00
    52   1    -0.00   0.00   0.00    -0.00   0.56  -0.09    -0.00  -0.03   0.00
    53   1     0.00  -0.00  -0.00    -0.00   0.15  -0.03    -0.00  -0.04   0.01
    54   1    -0.00  -0.00   0.00    -0.00   0.51  -0.08     0.00  -0.02   0.01
    55   1     0.00  -0.02  -0.00    -0.02  -0.06   0.00    -0.02  -0.02   0.03
    56   1    -0.00   0.00  -0.01    -0.01   0.05   0.00     0.01   0.07  -0.01
                     52                     53                     54
                      A                      A                      A
 Frequencies --    767.6806               785.7917               796.3286
 Red. masses --      1.6180                 5.4812                 6.1973
 Frc consts  --      0.5618                 1.9941                 2.3155
 IR Inten    --     45.8565                15.1458                14.5211
  Atom  AN      X      Y      Z        X      Y      Z        X      Y      Z
     1   6     0.00  -0.09   0.02     0.00  -0.01   0.00    -0.00   0.00  -0.00
     2   6    -0.00   0.15  -0.02    -0.00   0.02  -0.00     0.00  -0.01   0.00
     3   6    -0.01  -0.09   0.01    -0.00  -0.01   0.00     0.00   0.01   0.00
     4   6    -0.01   0.00  -0.00    -0.00  -0.00  -0.00     0.00   0.00   0.00
     5   6     0.01  -0.11   0.01     0.00  -0.01   0.00    -0.00   0.00   0.00
     6   6     0.01   0.01   0.01     0.00   0.00   0.00    -0.00  -0.00  -0.00
     7   6     0.01   0.02  -0.00     0.00  -0.00  -0.00    -0.00   0.01   0.00
     8   6     0.01  -0.03   0.00     0.00   0.01   0.01     0.00   0.00   0.00
     9   6     0.00  -0.01  -0.00    -0.00   0.00   0.01     0.00   0.00  -0.00
    10   8     0.00  -0.00  -0.00     0.09   0.24   0.14    -0.01   0.02   0.01
    11   6    -0.00   0.00  -0.00     0.22  -0.02   0.06     0.00  -0.02   0.00
    12   6    -0.01   0.00   0.01     0.14  -0.10  -0.13    -0.02   0.01   0.03
    13   8     0.00   0.00   0.00    -0.14  -0.08   0.01     0.00   0.00   0.00
    14   6     0.00  -0.00  -0.00    -0.09  -0.01   0.08     0.02   0.00  -0.01
    15   6    -0.01   0.01  -0.01     0.18  -0.03  -0.01     0.00  -0.03  -0.02
    16   6    -0.00   0.01   0.01    -0.01  -0.07  -0.06    -0.02   0.17   0.08
    17   6    -0.00  -0.00  -0.00    -0.07  -0.03   0.12    -0.04  -0.01   0.02
    18   6    -0.01  -0.00  -0.00     0.04  -0.00   0.05    -0.03   0.03  -0.04
    19   8     0.01  -0.01   0.00    -0.04   0.02  -0.08     0.03  -0.01  -0.01
    20   8     0.01  -0.00   0.00    -0.14   0.04  -0.05    -0.02   0.37  -0.14
    21   6     0.00  -0.00   0.00    -0.02  -0.00  -0.01     0.06  -0.12   0.06
    22   8    -0.00  -0.00  -0.00     0.03  -0.02  -0.01     0.14  -0.22   0.12
    23   6     0.00  -0.00  -0.00    -0.00   0.02   0.04     0.01  -0.11  -0.13
    24   6    -0.00  -0.00   0.00     0.03   0.00  -0.02    -0.14  -0.05   0.12
    25   8     0.00  -0.00  -0.01    -0.06   0.01   0.01     0.02  -0.04  -0.06
    26   8    -0.01  -0.01  -0.01    -0.02   0.02  -0.05    -0.01   0.00   0.01
    27   6    -0.00   0.00  -0.00    -0.02  -0.08  -0.00     0.00  -0.01  -0.01
    28   6     0.00  -0.00   0.00    -0.06   0.04  -0.02     0.00   0.00  -0.01
    29   1    -0.00  -0.00  -0.00    -0.03  -0.04  -0.01    -0.01   0.03   0.01
    30   1     0.00   0.00   0.00    -0.06  -0.08  -0.02    -0.02  -0.05  -0.01
    31   1     0.00   0.00  -0.00    -0.07  -0.15  -0.02    -0.02  -0.02   0.00
    32   1     0.00  -0.00   0.00    -0.08   0.12  -0.12     0.01  -0.01   0.02
    33   1    -0.00   0.00  -0.00     0.01   0.04  -0.07    -0.01   0.00   0.01
    34   1    -0.00  -0.00  -0.00     0.04  -0.03   0.02    -0.02   0.02  -0.02
    35   1    -0.00  -0.00  -0.00     0.00   0.04   0.04    -0.02   0.03  -0.02
    36   1    -0.00  -0.00  -0.00     0.00   0.02   0.01    -0.03  -0.14  -0.34
    37   1    -0.00  -0.00  -0.00    -0.00   0.04   0.05    -0.04  -0.04  -0.19
    38   1    -0.00  -0.00   0.00     0.06   0.03  -0.04     0.01   0.01  -0.06
    39   1    -0.00  -0.00   0.00     0.04   0.03  -0.04    -0.32  -0.01   0.12
    40   1    -0.00  -0.00   0.00    -0.00   0.01  -0.01    -0.32  -0.02   0.12
    41   1    -0.01   0.00   0.01     0.26  -0.06  -0.54    -0.01   0.01   0.01
    42   1    -0.00  -0.00   0.00    -0.19   0.11  -0.01    -0.04   0.01   0.04
    43   1    -0.01   0.01   0.02    -0.02  -0.02  -0.16     0.25   0.12   0.26
    44   1     0.00  -0.01   0.00    -0.11  -0.08   0.10    -0.06  -0.14   0.03
    45   1    -0.01   0.01  -0.01     0.18  -0.04   0.03     0.03  -0.05  -0.00
    46   1    -0.01   0.00   0.01     0.15  -0.02  -0.06    -0.11  -0.01  -0.11
    47   1     0.04   0.04  -0.05    -0.02  -0.02   0.01    -0.00  -0.00   0.00
    48   1    -0.06   0.01   0.07     0.02  -0.00  -0.03     0.01   0.00  -0.01
    49   1     0.00   0.04  -0.01    -0.02  -0.02   0.02     0.00  -0.00   0.00
    50   1    -0.01   0.16  -0.03     0.00   0.01  -0.00     0.00  -0.01   0.00
    51   1    -0.02   0.52  -0.06    -0.00   0.06  -0.01     0.00  -0.03   0.00
    52   1     0.01   0.45  -0.08     0.00   0.06  -0.01    -0.00  -0.02   0.00
    53   1    -0.01   0.51  -0.07    -0.00   0.06  -0.01     0.00  -0.01  -0.00
    54   1     0.00   0.15  -0.02    -0.00   0.01  -0.00    -0.00   0.01  -0.00
    55   1     0.02   0.17   0.01    -0.01  -0.01   0.01    -0.00   0.01   0.00
    56   1    -0.01  -0.31  -0.01     0.00  -0.02  -0.00    -0.00   0.01   0.00
                     55                     56                     57
                      A                      A                      A
 Frequencies --    808.2462               839.7474               847.3077
 Red. masses --      7.7490                 2.5227                 1.5698
 Frc consts  --      2.9825                 1.0481                 0.6640
 IR Inten    --      7.1939                 3.4769                 1.4310
  Atom  AN      X      Y      Z        X      Y      Z        X      Y      Z
     1   6     0.00  -0.00   0.00    -0.06   0.03  -0.12     0.03   0.09   0.04
     2   6     0.00  -0.01   0.00    -0.01  -0.03   0.02     0.01  -0.05  -0.01
     3   6     0.00   0.00  -0.00     0.06  -0.04   0.01    -0.04  -0.07   0.00
     4   6     0.00   0.00  -0.00     0.12  -0.02   0.03    -0.06  -0.06  -0.00
     5   6    -0.00   0.01  -0.00    -0.04   0.02   0.06     0.02   0.01  -0.03
     6   6    -0.00  -0.00  -0.00    -0.03   0.01  -0.15     0.02   0.07   0.06
     7   6    -0.00   0.00  -0.00    -0.01   0.09   0.19     0.02   0.04  -0.10
     8   6     0.00   0.00   0.00    -0.03  -0.03  -0.04     0.03  -0.02   0.01
     9   6     0.00   0.00  -0.00    -0.03  -0.02  -0.01     0.00  -0.01   0.02
    10   8     0.39  -0.09  -0.25     0.02   0.02   0.02     0.00   0.01   0.00
    11   6     0.04  -0.04   0.00    -0.00  -0.00  -0.01    -0.00  -0.00  -0.00
    12   6    -0.14   0.04   0.23     0.01  -0.01  -0.01     0.01  -0.00  -0.01
    13   8    -0.19  -0.00   0.26    -0.00  -0.00  -0.00    -0.01  -0.00   0.01
    14   6     0.03  -0.01   0.03    -0.01  -0.00   0.01     0.00  -0.00  -0.00
    15   6    -0.01  -0.00  -0.01    -0.01   0.06  -0.03    -0.01   0.01  -0.00
    16   6    -0.01  -0.01   0.02    -0.02   0.04   0.02    -0.01   0.01   0.00
    17   6     0.01  -0.01   0.01     0.01  -0.01  -0.01     0.00   0.00  -0.01
    18   6     0.02   0.03  -0.06    -0.00  -0.02   0.01    -0.00  -0.00   0.00
    19   8    -0.03   0.07   0.01     0.00  -0.01   0.01    -0.00  -0.00   0.00
    20   8     0.00  -0.01  -0.00     0.01  -0.01   0.01     0.00  -0.00   0.00
    21   6    -0.01   0.01  -0.01     0.01  -0.01   0.01     0.00   0.00  -0.00
    22   8     0.01   0.00   0.00    -0.02   0.01  -0.01     0.00  -0.01   0.00
    23   6    -0.00   0.00  -0.00     0.00  -0.00   0.00    -0.00   0.00  -0.00
    24   6    -0.00   0.00  -0.00     0.00  -0.00  -0.00    -0.00   0.00   0.00
    25   8    -0.00  -0.02  -0.02     0.01  -0.03  -0.04     0.00  -0.00  -0.01
    26   8     0.00   0.00  -0.00    -0.01  -0.02   0.02    -0.01  -0.01   0.00
    27   6    -0.01  -0.12  -0.01    -0.00  -0.01   0.00     0.00  -0.00  -0.00
    28   6    -0.12   0.14  -0.15    -0.01   0.01  -0.00    -0.00   0.00  -0.00
    29   1    -0.00  -0.17  -0.07    -0.00  -0.01  -0.01    -0.00   0.01   0.00
    30   1     0.01  -0.04  -0.02    -0.00   0.01  -0.00    -0.01  -0.01  -0.00
    31   1     0.00  -0.19  -0.08    -0.00  -0.02  -0.01    -0.01  -0.01   0.00
    32   1    -0.11   0.05  -0.14    -0.01   0.01  -0.01     0.00  -0.00   0.00
    33   1    -0.23   0.18  -0.25    -0.01   0.01  -0.01    -0.01   0.00  -0.00
    34   1    -0.14   0.09  -0.15     0.00  -0.01   0.00    -0.01   0.00  -0.00
    35   1     0.00  -0.01  -0.01    -0.00   0.01   0.01    -0.00  -0.01  -0.01
    36   1     0.00   0.01   0.02    -0.00  -0.01  -0.02     0.00   0.00   0.01
    37   1     0.00  -0.01  -0.00    -0.00   0.01   0.00     0.00  -0.01  -0.00
    38   1    -0.02  -0.01   0.01     0.01   0.00  -0.01    -0.01  -0.00   0.01
    39   1     0.00  -0.01   0.00     0.00   0.00  -0.00    -0.00  -0.00   0.00
    40   1     0.02  -0.00  -0.01    -0.01   0.00   0.00     0.00  -0.00  -0.00
    41   1    -0.09   0.06   0.05     0.02  -0.00  -0.03     0.01  -0.00  -0.01
    42   1    -0.15   0.21   0.27     0.01   0.00  -0.01     0.02   0.01  -0.01
    43   1    -0.01  -0.01   0.01    -0.06   0.03   0.04    -0.02   0.01   0.00
    44   1     0.06  -0.05   0.05     0.02  -0.03   0.01     0.01  -0.00  -0.00
    45   1     0.02  -0.05   0.02    -0.04   0.03  -0.02    -0.00   0.00   0.00
    46   1     0.04   0.00  -0.15     0.02   0.00   0.07    -0.01  -0.00   0.01
    47   1     0.00  -0.00  -0.00    -0.01   0.04   0.20     0.05   0.04  -0.12
    48   1     0.00   0.00  -0.00    -0.04  -0.00   0.23    -0.09   0.01   0.04
    49   1     0.00  -0.00   0.00     0.24   0.08  -0.18    -0.09   0.02   0.06
    50   1    -0.00  -0.02   0.00     0.03   0.28  -0.02    -0.03   0.50  -0.09
    51   1     0.00  -0.03   0.00     0.14   0.16  -0.12    -0.08   0.36  -0.00
    52   1    -0.00  -0.03   0.01    -0.02  -0.03   0.09     0.01  -0.07  -0.02
    53   1     0.00  -0.01   0.00     0.14  -0.27  -0.17    -0.06  -0.42   0.17
    54   1    -0.00   0.02  -0.00    -0.06  -0.27  -0.07     0.03  -0.45   0.14
    55   1     0.00   0.02   0.00     0.17   0.25  -0.13    -0.04   0.15   0.05
    56   1    -0.00  -0.00  -0.00    -0.14  -0.32   0.25     0.04  -0.15  -0.11
                     58                     59                     60
                      A                      A                      A
 Frequencies --    857.9663               859.3839               864.3715
 Red. masses --      3.1066                 2.8558                 2.8809
 Frc consts  --      1.3473                 1.2427                 1.2682
 IR Inten    --     22.9743                71.8966                41.1611
  Atom  AN      X      Y      Z        X      Y      Z        X      Y      Z
     1   6     0.01  -0.03   0.03     0.02  -0.03   0.03    -0.00   0.00   0.00
     2   6     0.01  -0.04  -0.01     0.01  -0.05  -0.01     0.00  -0.00   0.00
     3   6    -0.02   0.04  -0.01    -0.02   0.03  -0.01    -0.00  -0.00   0.00
     4   6    -0.03   0.03  -0.01    -0.04   0.03  -0.01    -0.00  -0.00   0.00
     5   6     0.01   0.02  -0.02     0.01   0.03  -0.02     0.00   0.00  -0.00
     6   6     0.01  -0.02   0.04     0.01  -0.02   0.04     0.00   0.01   0.00
     7   6     0.01   0.03  -0.05     0.02   0.06  -0.06     0.00   0.01  -0.00
     8   6     0.01  -0.02   0.00     0.02  -0.03   0.00     0.00  -0.01   0.00
     9   6     0.01  -0.01  -0.00    -0.00  -0.02   0.01    -0.00  -0.00   0.00
    10   8    -0.02   0.06   0.06     0.13   0.05   0.02    -0.00  -0.05  -0.03
    11   6    -0.05   0.02  -0.07     0.01  -0.03   0.03     0.00   0.06  -0.01
    12   6     0.10   0.00  -0.10    -0.03  -0.03  -0.00    -0.04   0.02   0.02
    13   8    -0.11  -0.04   0.12     0.08   0.04  -0.13     0.01  -0.00  -0.01
    14   6     0.10  -0.00  -0.03    -0.15  -0.01   0.10    -0.01  -0.00  -0.00
    15   6    -0.07   0.08  -0.04    -0.05   0.05  -0.04     0.07  -0.01   0.01
    16   6    -0.03   0.12   0.04    -0.03   0.08   0.04     0.08  -0.06  -0.04
    17   6     0.05  -0.01  -0.07     0.05  -0.02  -0.04    -0.05  -0.06   0.04
    18   6    -0.01  -0.07   0.05     0.00  -0.03  -0.02     0.01  -0.07   0.01
    19   8    -0.00  -0.04   0.03    -0.03   0.00   0.02     0.01   0.02  -0.00
    20   8     0.04  -0.01   0.01     0.03  -0.01   0.00    -0.05   0.10  -0.04
    21   6     0.02  -0.05   0.03     0.01  -0.01   0.01     0.04  -0.16   0.09
    22   8    -0.07   0.04  -0.02    -0.03   0.03   0.00    -0.11   0.16  -0.06
    23   6     0.01  -0.02   0.01     0.00  -0.01  -0.01     0.02  -0.07   0.04
    24   6     0.02  -0.01   0.00    -0.00  -0.00   0.00     0.07  -0.05   0.00
    25   8     0.02  -0.05  -0.06     0.01  -0.05  -0.07    -0.02   0.03   0.04
    26   8     0.00  -0.03   0.08    -0.01  -0.02   0.04    -0.00   0.00  -0.02
    27   6     0.05  -0.02  -0.03    -0.06  -0.01   0.04    -0.01   0.01   0.00
    28   6    -0.01   0.04  -0.06    -0.03  -0.01   0.04     0.00  -0.01   0.01
    29   1    -0.03   0.28   0.09     0.01  -0.32  -0.14     0.01  -0.06  -0.01
    30   1    -0.11  -0.27  -0.04     0.10   0.35   0.03     0.03   0.05   0.01
    31   1    -0.13  -0.10   0.04     0.11  -0.03  -0.09     0.04   0.05   0.00
    32   1     0.02  -0.05   0.07    -0.08   0.12  -0.16    -0.00   0.00  -0.01
    33   1    -0.10   0.06  -0.05     0.08  -0.01  -0.02     0.01  -0.01   0.00
    34   1    -0.13   0.09  -0.11     0.16  -0.13   0.13     0.02  -0.02   0.02
    35   1    -0.00   0.06   0.06    -0.00   0.02   0.02    -0.00   0.25   0.25
    36   1    -0.01  -0.03  -0.10    -0.01  -0.01  -0.04    -0.03  -0.13  -0.42
    37   1    -0.01   0.04   0.01    -0.01   0.00  -0.02    -0.05   0.18   0.03
    38   1     0.07   0.02  -0.05     0.01   0.00  -0.01     0.30   0.11  -0.22
    39   1     0.00   0.02  -0.01    -0.01  -0.00   0.00    -0.01   0.10  -0.06
    40   1    -0.04   0.00   0.02    -0.02  -0.00   0.01    -0.23   0.02   0.07
    41   1     0.11   0.00  -0.10    -0.03  -0.03   0.01    -0.10  -0.01   0.13
    42   1     0.35   0.15  -0.15    -0.20  -0.16   0.02     0.01  -0.06  -0.01
    43   1    -0.09   0.07   0.11    -0.08   0.05   0.08     0.22  -0.06   0.01
    44   1     0.06  -0.01  -0.06     0.13  -0.06   0.02    -0.05  -0.01   0.03
    45   1    -0.13   0.08  -0.03    -0.08   0.06  -0.07    -0.14   0.14  -0.12
    46   1     0.05  -0.01   0.22     0.06   0.01   0.09     0.27   0.02   0.21
    47   1     0.05   0.05  -0.09     0.05   0.06  -0.08     0.00   0.00  -0.01
    48   1    -0.07   0.01   0.06    -0.11   0.02   0.10    -0.01   0.00   0.01
    49   1    -0.03   0.04   0.00    -0.04   0.06   0.00    -0.01   0.00   0.01
    50   1    -0.02  -0.17   0.02    -0.02  -0.12   0.01    -0.00   0.04  -0.01
    51   1    -0.04  -0.24   0.06    -0.05  -0.25   0.07    -0.01   0.03   0.00
    52   1     0.00  -0.09  -0.00     0.01  -0.14   0.01     0.00  -0.01  -0.00
    53   1    -0.03   0.15   0.02    -0.04   0.11   0.04    -0.00  -0.03   0.01
    54   1     0.01   0.25  -0.01     0.01   0.25   0.00    -0.00  -0.02   0.01
    55   1    -0.02   0.11   0.03    -0.00   0.26   0.03    -0.00   0.05   0.01
    56   1     0.00  -0.13  -0.05     0.01  -0.20  -0.06     0.00  -0.04  -0.00
                     61                     62                     63
                      A                      A                      A
 Frequencies --    873.6395               884.7666               904.6259
 Red. masses --      1.8297                 2.8135                 4.0466
 Frc consts  --      0.8228                 1.2977                 1.9511
 IR Inten    --      9.9976                43.2572                32.8588
  Atom  AN      X      Y      Z        X      Y      Z        X      Y      Z
     1   6    -0.00   0.03  -0.01    -0.00   0.00  -0.00     0.00   0.01   0.00
     2   6    -0.01   0.07  -0.00    -0.00   0.01   0.00    -0.00   0.01  -0.00
     3   6     0.02  -0.02   0.01     0.00  -0.00   0.00     0.00   0.01   0.00
     4   6     0.02  -0.03   0.01     0.00  -0.00   0.00     0.00  -0.01   0.00
     5   6    -0.01  -0.04   0.01    -0.00  -0.00   0.00    -0.00  -0.02   0.00
     6   6    -0.01   0.02  -0.02    -0.00   0.00  -0.00    -0.00   0.00   0.00
     7   6    -0.03  -0.13   0.01     0.00  -0.01   0.00    -0.01  -0.04  -0.01
     8   6    -0.02   0.05   0.01    -0.00   0.00  -0.00    -0.01   0.01   0.00
     9   6     0.01   0.04  -0.02    -0.00   0.00  -0.00     0.01   0.01  -0.01
    10   8     0.05   0.04   0.03     0.11   0.05   0.03    -0.02  -0.03  -0.02
    11   6    -0.03  -0.03  -0.01    -0.07   0.12  -0.09     0.05   0.01  -0.01
    12   6     0.02  -0.01  -0.04    -0.04   0.05  -0.10    -0.06   0.02   0.07
    13   8     0.01   0.01  -0.01    -0.01  -0.03  -0.00     0.02  -0.00  -0.02
    14   6    -0.03  -0.00   0.03    -0.04  -0.02   0.07    -0.01   0.01  -0.01
    15   6    -0.06  -0.01  -0.00    -0.07  -0.02   0.02     0.12   0.09  -0.05
    16   6    -0.02   0.04   0.03     0.04  -0.07  -0.05    -0.02   0.23  -0.02
    17   6     0.06  -0.02  -0.06    -0.10   0.04   0.04    -0.12   0.08   0.06
    18   6    -0.00  -0.03  -0.01    -0.05  -0.02   0.09     0.10   0.02   0.13
    19   8    -0.04   0.01   0.02     0.13  -0.11  -0.04     0.06   0.00  -0.07
    20   8     0.02   0.00  -0.00     0.03   0.02   0.02     0.05  -0.02   0.05
    21   6     0.02  -0.02   0.02     0.00   0.01  -0.01    -0.04  -0.09   0.02
    22   8    -0.03   0.04   0.00     0.04  -0.04  -0.00    -0.13  -0.15  -0.12
    23   6     0.01  -0.02  -0.01    -0.00   0.01  -0.01    -0.03   0.02   0.06
    24   6     0.00  -0.01   0.01    -0.01   0.01   0.01     0.07  -0.01  -0.04
    25   8     0.01  -0.02  -0.03    -0.00   0.02   0.03    -0.01  -0.05  -0.06
    26   8     0.02   0.00   0.04     0.02  -0.00  -0.00    -0.01  -0.02   0.08
    27   6    -0.01  -0.01   0.01    -0.01  -0.01   0.03    -0.01   0.00  -0.01
    28   6    -0.02   0.01  -0.00    -0.04   0.03  -0.01     0.01  -0.01   0.02
    29   1    -0.00  -0.04  -0.03    -0.00  -0.06  -0.06     0.01  -0.08  -0.00
    30   1     0.00   0.07  -0.00     0.02   0.15   0.01     0.03   0.00   0.01
    31   1     0.00  -0.06  -0.03     0.01  -0.10  -0.06     0.03   0.06   0.01
    32   1    -0.03   0.04  -0.05    -0.07   0.09  -0.11     0.01  -0.02   0.01
    33   1     0.00   0.01  -0.02    -0.02   0.04  -0.07     0.01  -0.01   0.00
    34   1     0.02  -0.01   0.01     0.04  -0.03   0.02     0.02  -0.03   0.02
    35   1    -0.00   0.03   0.04     0.00  -0.04  -0.04     0.06  -0.02  -0.09
    36   1    -0.01  -0.02  -0.07     0.01   0.02   0.06     0.09  -0.00   0.00
    37   1    -0.01   0.01  -0.03     0.01  -0.03  -0.01     0.07   0.13   0.28
    38   1     0.03   0.01  -0.03    -0.04  -0.02   0.02     0.09   0.01  -0.05
    39   1    -0.02   0.00   0.00    -0.05  -0.02   0.03     0.11   0.03  -0.06
    40   1    -0.03  -0.00   0.01     0.03  -0.00  -0.02     0.04   0.01  -0.01
    41   1     0.04  -0.00  -0.04    -0.22  -0.04   0.44    -0.10  -0.01   0.08
    42   1     0.03  -0.01  -0.04     0.42  -0.22  -0.29    -0.14  -0.05   0.09
    43   1    -0.02   0.01   0.09     0.13  -0.04  -0.08    -0.17   0.31  -0.20
    44   1     0.13  -0.01  -0.02    -0.28   0.17  -0.11    -0.34  -0.03  -0.08
    45   1    -0.09   0.05  -0.04     0.06  -0.02   0.05     0.31  -0.11   0.17
    46   1     0.04   0.01   0.08    -0.18  -0.03   0.12     0.13  -0.04  -0.08
    47   1    -0.08  -0.10   0.07    -0.01  -0.00   0.02    -0.01  -0.02  -0.02
    48   1     0.17  -0.02  -0.21     0.00  -0.00   0.00     0.04   0.00  -0.07
    49   1    -0.01  -0.09   0.03     0.01   0.00  -0.01    -0.02  -0.02   0.02
    50   1     0.02   0.03  -0.00     0.00   0.01  -0.00     0.00  -0.05   0.01
    51   1     0.03   0.29  -0.07     0.00   0.03  -0.01     0.00   0.06  -0.01
    52   1    -0.01   0.21  -0.03     0.00   0.01  -0.00    -0.01   0.08  -0.02
    53   1     0.01  -0.09  -0.01     0.00  -0.02   0.00    -0.01  -0.01   0.01
    54   1     0.00  -0.29   0.03    -0.00  -0.02   0.00     0.00  -0.09   0.02
    55   1    -0.04  -0.49  -0.02     0.01  -0.01  -0.01    -0.03  -0.17   0.01
    56   1     0.04   0.52  -0.00     0.01   0.06   0.00     0.01   0.19  -0.02
                     64                     65                     66
                      A                      A                      A
 Frequencies --    930.7444               933.1073               936.2380
 Red. masses --      1.4755                 1.7011                 1.5302
 Frc consts  --      0.7531                 0.8727                 0.7903
 IR Inten    --      2.9022                 9.8820                10.2575
  Atom  AN      X      Y      Z        X      Y      Z        X      Y      Z
     1   6     0.00   0.09  -0.01    -0.00   0.04  -0.01    -0.00  -0.01   0.00
     2   6     0.01  -0.06   0.00     0.00  -0.03   0.00    -0.00   0.01  -0.00
     3   6    -0.01   0.09  -0.02    -0.00   0.04  -0.01     0.00  -0.01   0.00
     4   6    -0.01   0.00   0.00    -0.01   0.00  -0.00     0.00  -0.00   0.00
     5   6     0.00  -0.09   0.01     0.00  -0.04   0.01    -0.00   0.01  -0.00
     6   6     0.00  -0.02   0.01     0.00  -0.01   0.01    -0.00   0.00  -0.00
     7   6     0.02   0.01  -0.01     0.02   0.02  -0.00    -0.00  -0.01   0.00
     8   6     0.01  -0.01  -0.02     0.01  -0.00  -0.01    -0.00   0.00   0.00
     9   6    -0.02  -0.02   0.01    -0.02  -0.01   0.01     0.00   0.00  -0.00
    10   8     0.00  -0.01  -0.00     0.00   0.01   0.01     0.03   0.02   0.01
    11   6     0.01   0.01  -0.00    -0.01  -0.03   0.01    -0.00   0.01  -0.00
    12   6    -0.00   0.01   0.01     0.01  -0.02  -0.01     0.02   0.03   0.00
    13   8    -0.01  -0.01   0.00     0.01   0.01  -0.00    -0.02  -0.01   0.01
    14   6    -0.01   0.01  -0.01     0.01  -0.02   0.02    -0.05   0.08  -0.05
    15   6     0.02   0.03  -0.01    -0.05  -0.05   0.03    -0.03  -0.01   0.00
    16   6     0.01   0.00  -0.01    -0.01  -0.04   0.03    -0.00  -0.01   0.01
    17   6    -0.01  -0.02   0.01     0.03   0.04  -0.02     0.01   0.01  -0.01
    18   6    -0.02  -0.02  -0.00     0.02   0.05  -0.00    -0.01   0.00   0.00
    19   8     0.01   0.00  -0.00    -0.02  -0.01   0.01     0.00  -0.01   0.00
    20   8    -0.01  -0.01  -0.00     0.02   0.02   0.00     0.01   0.00   0.00
    21   6     0.02   0.01  -0.02    -0.07  -0.01   0.07    -0.02   0.01   0.02
    22   8     0.02   0.01   0.01    -0.03  -0.01  -0.02     0.00   0.00   0.00
    23   6     0.02   0.02   0.00    -0.08  -0.05  -0.03    -0.02  -0.02  -0.02
    24   6    -0.03  -0.01   0.00     0.10   0.04   0.00     0.03   0.02   0.01
    25   8    -0.00  -0.01  -0.01     0.01   0.02   0.01     0.00   0.00  -0.00
    26   8    -0.00  -0.01   0.01     0.00   0.01  -0.03     0.00   0.00  -0.00
    27   6    -0.01  -0.01  -0.02     0.02   0.00   0.02    -0.06  -0.04  -0.10
    28   6     0.02  -0.00   0.02    -0.02   0.00  -0.02     0.07   0.01   0.09
    29   1     0.01  -0.08   0.02    -0.01   0.10  -0.02     0.03  -0.38   0.09
    30   1     0.02  -0.08   0.01    -0.02   0.09  -0.01     0.07  -0.38   0.03
    31   1     0.03   0.10   0.04    -0.03  -0.12  -0.05     0.11   0.43   0.18
    32   1     0.03  -0.06   0.03    -0.03   0.06  -0.02     0.13  -0.28   0.10
    33   1    -0.03   0.02  -0.04     0.03  -0.02   0.04    -0.17   0.10  -0.21
    34   1     0.02  -0.06   0.03    -0.02   0.07  -0.03     0.10  -0.30   0.15
    35   1    -0.04   0.02   0.10     0.12  -0.07  -0.32     0.04  -0.03  -0.12
    36   1    -0.05   0.04   0.09     0.14  -0.11  -0.26     0.04  -0.04  -0.09
    37   1    -0.03  -0.07  -0.12     0.08   0.20   0.33     0.02   0.05   0.09
    38   1    -0.07   0.01   0.07     0.19  -0.05  -0.22     0.06  -0.03  -0.08
    39   1     0.06   0.02  -0.02    -0.23  -0.07   0.08    -0.11  -0.03   0.05
    40   1    -0.06   0.00   0.07     0.19  -0.01  -0.25     0.08  -0.01  -0.10
    41   1    -0.01   0.00   0.02     0.04  -0.00  -0.05     0.02   0.03   0.01
    42   1     0.01   0.00   0.00    -0.01   0.01  -0.00     0.06   0.03  -0.01
    43   1    -0.03   0.00  -0.02     0.07  -0.05   0.09     0.01  -0.02   0.03
    44   1    -0.01  -0.01   0.01     0.03   0.03  -0.02     0.01   0.02  -0.01
    45   1    -0.05   0.04  -0.04     0.10  -0.08   0.08     0.00  -0.00   0.01
    46   1     0.04   0.00   0.06    -0.13  -0.01  -0.13    -0.04  -0.00   0.00
    47   1     0.01   0.03   0.04    -0.00   0.02   0.04    -0.00  -0.00   0.00
    48   1    -0.07  -0.00   0.12    -0.04  -0.00   0.08     0.01  -0.00  -0.01
    49   1     0.04   0.04  -0.03     0.03   0.02  -0.02     0.00  -0.00  -0.00
    50   1    -0.01  -0.48   0.07    -0.00  -0.20   0.03     0.00   0.06  -0.01
    51   1    -0.02  -0.01   0.02    -0.01  -0.02   0.01     0.00   0.01  -0.00
    52   1     0.01   0.52  -0.08     0.01   0.22  -0.03    -0.00  -0.07   0.01
    53   1    -0.01   0.13  -0.01    -0.00   0.07  -0.01     0.00  -0.02   0.00
    54   1     0.01  -0.48   0.10     0.00  -0.21   0.04    -0.00   0.07  -0.01
    55   1     0.05   0.20  -0.03     0.04   0.16  -0.02     0.00  -0.01  -0.00
    56   1     0.03   0.08  -0.01     0.01  -0.02   0.00     0.00   0.02  -0.00
                     67                     68                     69
                      A                      A                      A
 Frequencies --    946.2910               963.5531               970.0334
 Red. masses --      2.5092                 1.6866                 1.3864
 Frc consts  --      1.3238                 0.9226                 0.7686
 IR Inten    --     30.3259                 9.4501                 3.1374
  Atom  AN      X      Y      Z        X      Y      Z        X      Y      Z
     1   6     0.00  -0.01   0.00    -0.01   0.02  -0.01    -0.00   0.07  -0.01
     2   6    -0.00   0.00  -0.00    -0.02  -0.03   0.03    -0.00   0.01  -0.00
     3   6     0.00  -0.00   0.00     0.02   0.02   0.01     0.00  -0.09   0.01
     4   6     0.01  -0.00   0.00     0.05   0.02  -0.00     0.00   0.09  -0.01
     5   6    -0.00   0.00  -0.00    -0.00  -0.03   0.00     0.00   0.01  -0.00
     6   6    -0.00   0.00  -0.00    -0.01  -0.01  -0.03    -0.00  -0.10   0.01
     7   6    -0.02  -0.02  -0.01    -0.08   0.07  -0.00     0.00  -0.00   0.00
     8   6    -0.01   0.00   0.01    -0.03  -0.03   0.08    -0.00   0.00  -0.00
     9   6     0.02   0.01  -0.01     0.13   0.05  -0.04    -0.00   0.01   0.00
    10   8    -0.02  -0.03  -0.02    -0.00   0.00   0.00     0.00   0.00   0.00
    11   6     0.02   0.03  -0.00     0.01   0.01  -0.01    -0.01  -0.01   0.00
    12   6    -0.02   0.01   0.02    -0.01   0.00   0.00     0.00  -0.00  -0.00
    13   8    -0.00  -0.01  -0.00     0.00  -0.00  -0.01     0.00   0.00   0.00
    14   6     0.01  -0.02  -0.00    -0.00   0.01   0.00    -0.00   0.00   0.00
    15   6     0.08   0.13  -0.05     0.00   0.05  -0.01    -0.01  -0.03   0.01
    16   6     0.02   0.03  -0.06     0.01  -0.05   0.04    -0.01   0.02  -0.02
    17   6    -0.04  -0.09   0.06     0.01   0.01  -0.01    -0.01  -0.00   0.00
    18   6    -0.06  -0.09  -0.02    -0.01   0.03   0.00     0.00  -0.01   0.00
    19   8     0.03   0.02  -0.00     0.01  -0.02   0.00    -0.00   0.01  -0.00
    20   8    -0.06  -0.05   0.01    -0.01   0.01  -0.01     0.01  -0.00   0.01
    21   6    -0.01   0.11   0.04    -0.02  -0.01  -0.01     0.01   0.00   0.01
    22   8     0.09   0.03   0.07     0.01   0.01   0.00    -0.01  -0.00  -0.00
    23   6    -0.04  -0.04  -0.09    -0.01   0.00   0.02     0.01  -0.00  -0.01
    24   6     0.04   0.07   0.05     0.01  -0.01  -0.02    -0.00   0.00   0.01
    25   8    -0.02  -0.03  -0.02     0.00  -0.01  -0.02     0.00   0.01   0.01
    26   8    -0.00  -0.03   0.06    -0.00  -0.01   0.01     0.00   0.00  -0.00
    27   6     0.01   0.02   0.01    -0.00  -0.00  -0.00    -0.00  -0.00  -0.00
    28   6    -0.01  -0.01  -0.01    -0.00   0.00   0.01    -0.00   0.00  -0.00
    29   1     0.00   0.05  -0.01     0.00  -0.02   0.00     0.00  -0.00  -0.00
    30   1    -0.00   0.06   0.00     0.00  -0.01   0.00     0.00   0.00  -0.00
    31   1    -0.01  -0.03  -0.02     0.00  -0.00  -0.00     0.00  -0.00  -0.00
    32   1    -0.02   0.05  -0.01    -0.00  -0.00  -0.01     0.00  -0.00   0.00
    33   1     0.04  -0.03   0.06    -0.01   0.01  -0.02    -0.00   0.00  -0.00
    34   1    -0.02   0.06  -0.03     0.02  -0.02   0.02    -0.00  -0.00  -0.00
    35   1     0.07  -0.11  -0.29     0.01   0.01  -0.00    -0.01  -0.00   0.01
    36   1     0.07  -0.06  -0.13     0.01  -0.00  -0.01    -0.01   0.00   0.01
    37   1     0.04   0.03   0.07     0.01   0.04   0.05    -0.01  -0.02  -0.04
    38   1     0.08  -0.10  -0.17    -0.00   0.02   0.02     0.00  -0.01  -0.01
    39   1    -0.41  -0.13   0.19     0.09   0.03  -0.04    -0.04  -0.01   0.02
    40   1     0.25  -0.02  -0.31    -0.03   0.01   0.04     0.01  -0.00  -0.02
    41   1    -0.06  -0.01   0.04    -0.02  -0.01   0.02     0.01   0.00  -0.00
    42   1    -0.02  -0.01   0.01    -0.01  -0.02   0.00     0.01   0.00  -0.00
    43   1    -0.15   0.05  -0.15     0.01  -0.11   0.16    -0.01   0.04  -0.07
    44   1    -0.02  -0.05   0.08     0.02   0.02  -0.00    -0.02  -0.00  -0.01
    45   1    -0.21   0.16  -0.18     0.04  -0.05   0.06    -0.01   0.02  -0.02
    46   1     0.21   0.02   0.22    -0.12  -0.01  -0.06     0.06   0.00   0.02
    47   1     0.02  -0.00  -0.07     0.11  -0.04  -0.39    -0.02  -0.02   0.02
    48   1     0.02   0.01  -0.06     0.10   0.04  -0.38     0.02  -0.00  -0.02
    49   1    -0.03  -0.01   0.02    -0.25  -0.07   0.18    -0.00  -0.01   0.01
    50   1    -0.00   0.01   0.00     0.01  -0.07   0.03    -0.00   0.44  -0.07
    51   1     0.01   0.01  -0.01     0.05  -0.12  -0.01     0.00  -0.47   0.07
    52   1    -0.01  -0.01  -0.00    -0.01   0.16  -0.04    -0.00  -0.08   0.01
    53   1    -0.00  -0.02   0.00     0.01   0.01  -0.04    -0.00   0.57  -0.09
    54   1     0.00   0.02   0.00    -0.01  -0.15   0.03     0.00  -0.41   0.07
    55   1    -0.05  -0.15   0.02    -0.24  -0.26   0.18     0.01  -0.06  -0.01
    56   1    -0.02   0.02  -0.01    -0.19  -0.41   0.04     0.01  -0.00  -0.00
                     70                     71                     72
                      A                      A                      A
 Frequencies --    975.0162               988.0295               989.5387
 Red. masses --      2.6607                 2.2585                 2.6479
 Frc consts  --      1.4903                 1.2990                 1.5276
 IR Inten    --     41.0464                56.8097                64.9631
  Atom  AN      X      Y      Z        X      Y      Z        X      Y      Z
     1   6     0.01   0.01   0.01     0.01  -0.00   0.00    -0.02   0.01  -0.01
     2   6     0.02   0.02  -0.02     0.00   0.00  -0.00    -0.01   0.01   0.01
     3   6    -0.01  -0.04  -0.01    -0.00  -0.00  -0.00     0.01  -0.00   0.01
     4   6    -0.02   0.01  -0.00     0.00  -0.00   0.00     0.01  -0.00   0.00
     5   6    -0.01   0.02   0.00    -0.00   0.00   0.00     0.01   0.01  -0.01
     6   6     0.01  -0.03   0.03    -0.00   0.00   0.00    -0.00  -0.02  -0.01
     7   6     0.03  -0.06  -0.01    -0.00  -0.00  -0.00    -0.01  -0.02   0.01
     8   6     0.01   0.03  -0.04    -0.00   0.00   0.00    -0.01  -0.03   0.02
     9   6    -0.06  -0.02   0.01     0.00  -0.00  -0.00     0.03   0.01  -0.01
    10   8    -0.02  -0.00   0.00     0.07   0.04   0.03     0.03  -0.02  -0.01
    11   6     0.03   0.03  -0.04    -0.02  -0.08   0.01     0.05   0.15   0.02
    12   6    -0.03   0.00   0.02     0.05   0.08   0.07     0.01   0.09  -0.03
    13   8     0.00   0.00  -0.01    -0.02  -0.04   0.02    -0.04  -0.06   0.01
    14   6     0.01   0.00   0.01    -0.11  -0.07  -0.11    -0.04  -0.04  -0.04
    15   6     0.05   0.19  -0.08    -0.07   0.06  -0.01     0.13  -0.12   0.03
    16   6     0.06  -0.11   0.11     0.00  -0.05  -0.02    -0.01   0.09   0.07
    17   6     0.02   0.01  -0.00    -0.04   0.00   0.00     0.10   0.00  -0.03
    18   6    -0.03   0.06   0.01     0.01   0.01   0.02    -0.03  -0.02  -0.03
    19   8     0.03  -0.05   0.01     0.03   0.01  -0.03    -0.05  -0.04   0.05
    20   8    -0.06   0.01  -0.05     0.02   0.01   0.01    -0.03  -0.02  -0.02
    21   6    -0.08  -0.02  -0.04     0.02   0.00   0.00    -0.06  -0.01  -0.02
    22   8     0.05   0.04   0.03    -0.01   0.01  -0.01     0.03  -0.02   0.03
    23   6    -0.04   0.01   0.04     0.01  -0.01  -0.00    -0.04   0.02   0.02
    24   6     0.02  -0.03  -0.05    -0.00   0.00   0.01     0.01  -0.02  -0.04
    25   8    -0.01  -0.07  -0.05     0.01  -0.01  -0.00    -0.02   0.01  -0.02
    26   8     0.01  -0.01   0.05     0.01  -0.01   0.01    -0.01   0.01  -0.03
    27   6     0.00  -0.01  -0.00    -0.01   0.10  -0.04    -0.01   0.06  -0.01
    28   6     0.00   0.00   0.00    -0.00  -0.13  -0.03    -0.02  -0.06  -0.00
    29   1    -0.00   0.02  -0.00     0.01   0.03   0.08     0.01  -0.02   0.03
    30   1    -0.01  -0.00  -0.01     0.01  -0.09   0.02     0.03  -0.01   0.02
    31   1    -0.01  -0.02  -0.01     0.04   0.37   0.15     0.04   0.20   0.07
    32   1     0.00  -0.00   0.00    -0.08   0.23  -0.00    -0.08   0.18  -0.08
    33   1    -0.01   0.01  -0.01     0.36  -0.29   0.46     0.20  -0.14   0.19
    34   1    -0.00  -0.01   0.00    -0.06   0.30  -0.11     0.02   0.11  -0.02
    35   1     0.04   0.01  -0.06    -0.01   0.03   0.06     0.04  -0.06  -0.15
    36   1     0.04  -0.01  -0.05    -0.02  -0.01  -0.02     0.06   0.01   0.03
    37   1     0.03   0.13   0.20    -0.02  -0.02  -0.06     0.04   0.07   0.19
    38   1     0.01   0.06   0.05     0.00  -0.01  -0.01    -0.01   0.04   0.04
    39   1     0.25   0.08  -0.13    -0.05  -0.01   0.03     0.20   0.05  -0.09
    40   1    -0.08   0.02   0.10     0.00  -0.00  -0.01    -0.03   0.01   0.06
    41   1    -0.06  -0.02   0.02     0.12   0.11  -0.03    -0.14   0.01   0.24
    42   1    -0.06  -0.02   0.03     0.01   0.13   0.09     0.20  -0.04  -0.12
    43   1     0.01  -0.28   0.42     0.05  -0.10   0.08    -0.08   0.15  -0.06
    44   1     0.05   0.04   0.02    -0.12   0.08  -0.07     0.28  -0.15   0.12
    45   1     0.05  -0.10   0.11     0.09  -0.02   0.02    -0.16   0.03  -0.02
    46   1    -0.28  -0.01  -0.12     0.02  -0.01  -0.05    -0.12   0.01   0.11
    47   1    -0.04   0.02   0.18     0.01   0.01  -0.00     0.03  -0.00  -0.10
    48   1    -0.04  -0.02   0.18    -0.01   0.00   0.01     0.01   0.01  -0.05
    49   1     0.13   0.04  -0.10     0.01   0.01  -0.01    -0.04  -0.02   0.04
    50   1    -0.02   0.17  -0.04    -0.01  -0.00  -0.00     0.02   0.02   0.01
    51   1    -0.03  -0.05   0.02     0.00   0.00  -0.00     0.01   0.04  -0.00
    52   1    -0.01  -0.13   0.03    -0.01  -0.00   0.00     0.02  -0.07   0.00
    53   1    -0.01   0.18   0.00    -0.00  -0.00   0.00     0.00   0.08  -0.03
    54   1     0.02  -0.05   0.02     0.01   0.00   0.00    -0.02  -0.04   0.01
    55   1     0.11  -0.03  -0.09     0.01  -0.05  -0.01    -0.05   0.32   0.06
    56   1     0.11   0.27  -0.04     0.00  -0.00  -0.01    -0.02   0.22   0.02
                     73                     74                     75
                      A                      A                      A
 Frequencies --    999.4324              1007.9758              1012.7718
 Red. masses --      1.3185                 1.5509                 2.2628
 Frc consts  --      0.7759                 0.9284                 1.3675
 IR Inten    --      2.1370                43.1213                99.7489
  Atom  AN      X      Y      Z        X      Y      Z        X      Y      Z
     1   6     0.01  -0.03   0.01    -0.07  -0.01  -0.02     0.10   0.01   0.03
     2   6     0.01  -0.01  -0.01    -0.02   0.02   0.02     0.01  -0.01  -0.01
     3   6    -0.00  -0.04  -0.00     0.03  -0.02   0.07    -0.04  -0.01  -0.09
     4   6    -0.02   0.08  -0.02     0.01   0.04  -0.01     0.00  -0.01   0.01
     5   6    -0.01  -0.08   0.02     0.05  -0.04  -0.05    -0.06   0.02   0.07
     6   6     0.01   0.07   0.01    -0.00   0.02  -0.02    -0.00  -0.01  -0.00
     7   6     0.02   0.01  -0.00    -0.03  -0.05   0.01     0.02   0.02   0.00
     8   6     0.01   0.02  -0.02    -0.01  -0.03   0.03     0.00   0.01  -0.02
     9   6    -0.04   0.01   0.02     0.05  -0.02  -0.03    -0.03   0.02   0.02
    10   8     0.01   0.00   0.00    -0.01  -0.01  -0.01    -0.01  -0.03  -0.01
    11   6     0.00   0.01  -0.00     0.02   0.04   0.01     0.06   0.10   0.01
    12   6    -0.00   0.01  -0.00     0.01  -0.01   0.00    -0.01   0.03  -0.01
    13   8    -0.00  -0.01   0.00    -0.01  -0.00  -0.00    -0.02  -0.02  -0.01
    14   6    -0.01  -0.00  -0.00     0.01   0.00   0.00     0.00  -0.00   0.00
    15   6     0.02  -0.02   0.00     0.00   0.03  -0.01     0.08  -0.01  -0.00
    16   6     0.01   0.02   0.01    -0.03  -0.04   0.01    -0.06  -0.03   0.03
    17   6     0.01  -0.00   0.00    -0.01   0.00  -0.02     0.04   0.00  -0.05
    18   6    -0.01  -0.01  -0.01     0.02   0.04   0.02     0.02   0.07   0.03
    19   8    -0.01  -0.00   0.01     0.00  -0.02  -0.00    -0.02  -0.05   0.01
    20   8    -0.00  -0.00  -0.00    -0.00  -0.00   0.01    -0.02  -0.02   0.01
    21   6    -0.02  -0.01  -0.01     0.05   0.02   0.02     0.09   0.04   0.03
    22   8     0.01  -0.00   0.01    -0.04   0.00  -0.02    -0.07  -0.00  -0.04
    23   6    -0.01   0.00   0.01     0.04  -0.02  -0.02     0.07  -0.04  -0.02
    24   6     0.00  -0.01  -0.01    -0.01   0.03   0.03    -0.02   0.06   0.05
    25   8    -0.00   0.00  -0.00    -0.00  -0.01  -0.01    -0.01  -0.02  -0.02
    26   8    -0.00   0.01   0.00     0.00  -0.01   0.00    -0.00   0.01   0.00
    27   6    -0.00   0.01  -0.00     0.00  -0.00   0.01     0.01   0.01  -0.01
    28   6    -0.00  -0.01   0.00     0.00   0.00   0.00    -0.03  -0.01   0.02
    29   1     0.00  -0.00   0.01    -0.00   0.00  -0.01    -0.00   0.06   0.04
    30   1     0.00  -0.01   0.00     0.00   0.02   0.00    -0.02  -0.07  -0.01
    31   1     0.00   0.03   0.01     0.00  -0.02  -0.01    -0.02   0.03   0.03
    32   1    -0.01   0.02  -0.01     0.00  -0.00  -0.00    -0.07   0.11  -0.13
    33   1     0.02  -0.01   0.02    -0.01   0.01  -0.01     0.08  -0.02  -0.01
    34   1     0.01   0.01   0.00     0.00  -0.01   0.00     0.11  -0.05   0.07
    35   1     0.01  -0.02  -0.04    -0.03   0.06   0.13    -0.06   0.14   0.27
    36   1     0.02   0.00   0.01    -0.05  -0.01  -0.03    -0.10  -0.03  -0.12
    37   1     0.01   0.02   0.06    -0.04  -0.06  -0.17    -0.08  -0.09  -0.30
    38   1     0.00   0.01   0.01    -0.01  -0.05  -0.03    -0.06  -0.10  -0.02
    39   1     0.06   0.02  -0.03    -0.17  -0.06   0.09    -0.28  -0.13   0.17
    40   1    -0.02   0.00   0.02     0.07  -0.01  -0.08     0.19  -0.02  -0.17
    41   1    -0.02   0.01   0.04     0.01  -0.02  -0.05    -0.08  -0.01   0.09
    42   1     0.03  -0.01  -0.02    -0.05   0.01   0.03     0.01  -0.05  -0.03
    43   1     0.00   0.03  -0.02    -0.04  -0.08   0.09    -0.14  -0.09   0.11
    44   1     0.04  -0.02   0.02    -0.04  -0.02  -0.04     0.05  -0.13  -0.01
    45   1    -0.03   0.02  -0.02     0.06  -0.07   0.09     0.07  -0.13   0.18
    46   1     0.00   0.00   0.03    -0.09  -0.01  -0.08    -0.21  -0.02  -0.13
    47   1    -0.08  -0.04   0.16     0.13   0.08  -0.21    -0.09  -0.06   0.14
    48   1     0.05  -0.02   0.01    -0.10   0.02   0.07     0.08  -0.01  -0.05
    49   1     0.05  -0.03  -0.02    -0.04   0.06  -0.00     0.03  -0.05   0.01
    50   1    -0.01   0.25  -0.05     0.05   0.20   0.03    -0.07  -0.05  -0.08
    51   1    -0.02  -0.50   0.07     0.02  -0.24   0.03    -0.00   0.05   0.01
    52   1    -0.01   0.51  -0.07     0.05   0.20  -0.09    -0.06  -0.03   0.08
    53   1     0.00  -0.42   0.09     0.01  -0.19   0.01    -0.02   0.04  -0.00
    54   1     0.01   0.19  -0.05    -0.08   0.11  -0.04     0.10  -0.02   0.05
    55   1     0.06  -0.24  -0.07    -0.07   0.49   0.10     0.04  -0.22  -0.05
    56   1     0.03  -0.18  -0.01    -0.02   0.48   0.01     0.03  -0.20  -0.01
                     76                     77                     78
                      A                      A                      A
 Frequencies --   1016.4915              1018.0803              1022.2993
 Red. masses --      2.8931                 1.3770                 1.3705
 Frc consts  --      1.7613                 0.8409                 0.8439
 IR Inten    --     10.3831                 9.7468                 7.6587
  Atom  AN      X      Y      Z        X      Y      Z        X      Y      Z
     1   6     0.21   0.00   0.06    -0.01   0.00  -0.00     0.01  -0.00   0.00
     2   6    -0.03   0.01   0.02     0.00  -0.00  -0.00    -0.00   0.00   0.00
     3   6    -0.09  -0.05  -0.20     0.01   0.00   0.01    -0.01  -0.00  -0.01
     4   6     0.08   0.02   0.02    -0.01  -0.00  -0.00     0.01   0.00   0.00
     5   6    -0.13   0.01   0.15     0.01   0.00  -0.01    -0.00  -0.00   0.01
     6   6    -0.03   0.00  -0.08     0.00  -0.00   0.01    -0.00   0.00  -0.01
     7   6    -0.04  -0.04   0.02     0.01   0.00  -0.00    -0.01  -0.01   0.00
     8   6    -0.01  -0.03   0.04     0.00   0.00  -0.01    -0.00  -0.00   0.01
     9   6     0.05  -0.02  -0.03    -0.01   0.00   0.00     0.01  -0.01  -0.01
    10   8    -0.00   0.01   0.00    -0.00  -0.01  -0.00     0.01  -0.02  -0.00
    11   6    -0.01  -0.02   0.00     0.01   0.02   0.00    -0.01  -0.04  -0.00
    12   6     0.01  -0.02  -0.00    -0.00   0.00   0.00    -0.01   0.01   0.01
    13   8     0.00   0.01   0.01    -0.00  -0.00  -0.00     0.01   0.02  -0.02
    14   6     0.00   0.00  -0.00     0.00  -0.00   0.00    -0.00   0.00   0.01
    15   6    -0.03   0.00   0.00     0.01   0.00  -0.00    -0.03   0.01   0.00
    16   6     0.02  -0.00  -0.01    -0.01  -0.02   0.01     0.01   0.01  -0.01
    17   6    -0.02   0.00   0.01    -0.00   0.00  -0.02    -0.01  -0.00   0.01
    18   6    -0.00  -0.02  -0.01     0.01   0.01   0.01    -0.00  -0.01  -0.01
    19   8     0.01   0.01  -0.01    -0.00  -0.01  -0.00     0.00   0.02  -0.00
    20   8     0.01   0.00  -0.00    -0.00  -0.01  -0.02     0.01   0.01   0.00
    21   6    -0.01  -0.01  -0.01     0.03   0.02   0.01    -0.02  -0.01  -0.01
    22   8     0.01   0.00   0.01    -0.04   0.01   0.00     0.02   0.00   0.01
    23   6    -0.02   0.02  -0.01    -0.01   0.08  -0.06    -0.01  -0.00   0.01
    24   6     0.01  -0.03   0.00     0.04  -0.08   0.08    -0.00  -0.00  -0.01
    25   8     0.00   0.01   0.01    -0.00  -0.01  -0.01     0.00   0.00   0.01
    26   8    -0.00  -0.01  -0.01     0.00   0.00   0.00     0.00  -0.00  -0.00
    27   6    -0.02  -0.00   0.02     0.01   0.00  -0.01     0.09   0.00  -0.06
    28   6     0.03   0.01  -0.02    -0.01  -0.00   0.01    -0.09   0.00   0.07
    29   1     0.00  -0.07  -0.04    -0.00   0.04   0.02    -0.01   0.40   0.17
    30   1     0.03   0.09   0.01    -0.01  -0.04  -0.01    -0.15  -0.39  -0.06
    31   1     0.03  -0.02  -0.03    -0.01   0.00   0.01    -0.17  -0.03   0.10
    32   1     0.05  -0.08   0.10    -0.02   0.04  -0.05    -0.17   0.23  -0.37
    33   1    -0.06   0.01   0.02     0.03  -0.00  -0.01     0.14   0.02  -0.14
    34   1    -0.09   0.05  -0.06     0.04  -0.03   0.03     0.35  -0.26   0.25
    35   1     0.01  -0.09  -0.12    -0.02  -0.26  -0.25     0.01   0.00  -0.02
    36   1     0.03   0.03   0.11     0.03   0.14   0.42     0.01  -0.01  -0.02
    37   1     0.03  -0.02   0.06     0.05  -0.22  -0.07     0.01   0.03   0.05
    38   1     0.09   0.05  -0.06     0.41   0.14  -0.32    -0.03   0.00   0.03
    39   1     0.03   0.06  -0.04    -0.23   0.14  -0.01     0.06   0.01  -0.02
    40   1    -0.13   0.01   0.06    -0.42   0.02   0.10     0.00   0.00   0.02
    41   1     0.04  -0.01  -0.07    -0.01  -0.00   0.00     0.02   0.03   0.03
    42   1    -0.02   0.03   0.02    -0.02  -0.00   0.01    -0.04  -0.03   0.01
    43   1     0.04   0.01  -0.02    -0.02  -0.04   0.06     0.03   0.02  -0.03
    44   1    -0.03   0.05  -0.01    -0.01   0.01  -0.02    -0.02   0.03   0.00
    45   1    -0.01   0.03  -0.04     0.02  -0.03   0.04    -0.01   0.02  -0.03
    46   1     0.06   0.00   0.03    -0.03  -0.01  -0.03     0.06   0.00   0.01
    47   1     0.13   0.06  -0.22    -0.02  -0.01   0.03     0.04   0.03  -0.06
    48   1    -0.08   0.02   0.02     0.02  -0.00  -0.01    -0.04   0.01   0.03
    49   1    -0.05   0.05   0.01     0.01  -0.01  -0.00    -0.01   0.02  -0.00
    50   1    -0.15   0.09  -0.21     0.01  -0.01   0.01    -0.01   0.02  -0.01
    51   1     0.06  -0.12   0.09    -0.01   0.01  -0.01     0.01  -0.02   0.01
    52   1    -0.13   0.13   0.13     0.01  -0.01  -0.01    -0.00   0.01   0.00
    53   1    -0.07  -0.11  -0.04     0.01   0.01   0.00    -0.01  -0.02  -0.01
    54   1     0.19   0.11   0.16    -0.01  -0.01  -0.01     0.01   0.01   0.02
    55   1    -0.08   0.43   0.09     0.01  -0.06  -0.01    -0.02   0.09   0.02
    56   1    -0.01   0.37   0.01     0.00  -0.05  -0.00    -0.01   0.08   0.00
                     79                     80                     81
                      A                      A                      A
 Frequencies --   1054.1613              1058.4047              1060.9481
 Red. masses --      4.1720                 2.2045                 2.5202
 Frc consts  --      2.7316                 1.4550                 1.6714
 IR Inten    --     38.4524                 0.3507                 2.3361
  Atom  AN      X      Y      Z        X      Y      Z        X      Y      Z
     1   6     0.00   0.00  -0.00     0.00  -0.01  -0.07    -0.00   0.01   0.03
     2   6     0.00  -0.00  -0.01     0.01   0.00  -0.00     0.00  -0.00  -0.01
     3   6     0.00   0.00   0.00     0.07  -0.00  -0.02    -0.03   0.00   0.01
     4   6    -0.01  -0.00  -0.01    -0.14  -0.02  -0.10     0.05   0.01   0.04
     5   6    -0.01   0.00   0.01    -0.10   0.02   0.11     0.05  -0.01  -0.05
     6   6     0.01   0.00   0.01     0.12   0.02   0.12    -0.05  -0.01  -0.05
     7   6    -0.00  -0.01  -0.00    -0.01   0.00   0.02     0.02   0.01  -0.01
     8   6    -0.00   0.01   0.00    -0.02  -0.03   0.02     0.01  -0.03  -0.01
     9   6     0.00  -0.01  -0.00     0.02   0.03  -0.01    -0.03   0.04   0.01
    10   8     0.01  -0.04  -0.03    -0.00  -0.02  -0.01    -0.01  -0.05  -0.03
    11   6    -0.03   0.19   0.12     0.01   0.05   0.03     0.03   0.17   0.09
    12   6     0.05  -0.14  -0.08     0.02  -0.04   0.01     0.05  -0.11   0.00
    13   8    -0.00   0.07   0.06    -0.01   0.01   0.00    -0.01   0.04   0.02
    14   6     0.03  -0.01  -0.04     0.01  -0.00  -0.01     0.03  -0.01  -0.02
    15   6    -0.09   0.12  -0.05    -0.03  -0.02   0.01    -0.06  -0.05   0.02
    16   6    -0.03  -0.09  -0.13    -0.01   0.01   0.02    -0.02   0.02   0.06
    17   6     0.02   0.06   0.18    -0.03   0.00  -0.04    -0.07   0.01  -0.10
    18   6     0.04   0.02  -0.17     0.00  -0.03   0.03     0.01  -0.06   0.07
    19   8    -0.03  -0.08   0.12     0.02   0.01  -0.03     0.04   0.02  -0.07
    20   8     0.08   0.08   0.03     0.00  -0.01  -0.00     0.01  -0.01  -0.00
    21   6     0.02  -0.05   0.01    -0.01   0.00  -0.00    -0.02   0.00  -0.01
    22   8    -0.03  -0.06  -0.07     0.02   0.01   0.02     0.05   0.03   0.04
    23   6    -0.02   0.02   0.00    -0.01  -0.00   0.00    -0.01  -0.00   0.00
    24   6    -0.01  -0.01  -0.01    -0.00   0.00  -0.01    -0.01   0.01  -0.01
    25   8    -0.01  -0.02  -0.01     0.00  -0.00  -0.01     0.00  -0.01  -0.03
    26   8     0.01  -0.01   0.04     0.00  -0.00  -0.00     0.01   0.00  -0.00
    27   6    -0.04   0.02  -0.01    -0.00   0.00   0.00    -0.02   0.01  -0.00
    28   6    -0.03  -0.03   0.01    -0.01  -0.00   0.00    -0.03  -0.02   0.01
    29   1     0.01  -0.16  -0.02     0.00  -0.02  -0.01     0.01  -0.09  -0.02
    30   1     0.07   0.03   0.03     0.01   0.01   0.01     0.05   0.04   0.02
    31   1     0.09   0.16   0.02     0.01   0.01  -0.00     0.05   0.08   0.00
    32   1    -0.08   0.16  -0.14    -0.02   0.03  -0.03    -0.06   0.11  -0.10
    33   1     0.14  -0.06   0.06     0.02  -0.01   0.00     0.09  -0.04   0.02
    34   1     0.09   0.01   0.04     0.03  -0.01   0.02     0.08  -0.00   0.04
    35   1     0.01  -0.07  -0.08     0.00  -0.00  -0.01     0.01  -0.00  -0.03
    36   1     0.04   0.02   0.08     0.00  -0.00  -0.01     0.01  -0.01  -0.02
    37   1     0.03  -0.02   0.07     0.00   0.01   0.02     0.01   0.03   0.05
    38   1    -0.03  -0.00   0.03    -0.02  -0.00   0.02    -0.05  -0.01   0.04
    39   1     0.06  -0.00  -0.02     0.02  -0.00  -0.01     0.05  -0.00  -0.01
    40   1    -0.02  -0.00   0.04     0.02   0.00   0.00     0.04   0.00   0.00
    41   1     0.08  -0.12  -0.31     0.03  -0.03  -0.12     0.07  -0.11  -0.32
    42   1    -0.02   0.15   0.00    -0.08   0.05   0.05    -0.21   0.14   0.13
    43   1     0.03   0.05  -0.37     0.01  -0.03   0.11     0.02  -0.08   0.26
    44   1     0.21  -0.12   0.33    -0.11   0.10  -0.11    -0.28   0.25  -0.27
    45   1     0.03   0.04  -0.16    -0.02   0.02  -0.00    -0.04   0.05  -0.01
    46   1    -0.15   0.06   0.05     0.05  -0.01   0.06     0.11  -0.02   0.16
    47   1     0.02   0.02  -0.00    -0.02  -0.04  -0.02    -0.13  -0.10   0.16
    48   1    -0.02  -0.00   0.03     0.08   0.00  -0.11     0.15  -0.01  -0.12
    49   1     0.02   0.02  -0.02    -0.02  -0.05   0.03     0.03  -0.10   0.02
    50   1     0.02  -0.00  -0.00     0.36  -0.01  -0.12    -0.16   0.00   0.05
    51   1    -0.01  -0.00  -0.04    -0.07  -0.07  -0.45     0.02   0.03   0.21
    52   1    -0.01  -0.00   0.00    -0.11   0.01   0.13     0.05  -0.01  -0.05
    53   1     0.03   0.01   0.00     0.48   0.01   0.00    -0.21   0.00   0.00
    54   1     0.01  -0.02  -0.02     0.06  -0.07  -0.35    -0.03   0.02   0.16
    55   1     0.01  -0.15  -0.02    -0.03   0.16   0.03     0.02   0.02  -0.02
    56   1     0.01  -0.02  -0.01    -0.03   0.05   0.03     0.04  -0.06  -0.02
                     82                     83                     84
                      A                      A                      A
 Frequencies --   1079.1025              1083.9661              1111.8315
 Red. masses --      1.5405                 5.6283                 1.7655
 Frc consts  --      1.0569                 3.8964                 1.2859
 IR Inten    --     19.8994                65.3263                 0.1285
  Atom  AN      X      Y      Z        X      Y      Z        X      Y      Z
     1   6    -0.00   0.00   0.01     0.00  -0.00  -0.00    -0.10   0.00   0.03
     2   6     0.02  -0.01  -0.02    -0.00  -0.00  -0.00     0.08   0.01   0.04
     3   6    -0.00  -0.00  -0.00     0.00   0.00   0.01     0.02  -0.02  -0.11
     4   6    -0.01   0.00   0.01     0.00  -0.00  -0.00    -0.09   0.00  -0.00
     5   6     0.01  -0.00  -0.01    -0.00  -0.00  -0.00     0.07   0.01   0.06
     6   6    -0.00   0.00   0.00     0.00   0.00   0.00    -0.02  -0.01  -0.07
     7   6     0.02   0.01   0.00    -0.01   0.00  -0.00     0.03  -0.01   0.01
     8   6    -0.01  -0.13   0.02    -0.00  -0.02   0.02     0.01   0.01  -0.10
     9   6    -0.03   0.13  -0.01     0.00   0.01  -0.01     0.01   0.00   0.07
    10   8     0.00   0.01   0.00     0.04   0.06   0.06     0.00   0.00   0.00
    11   6    -0.01  -0.04  -0.02    -0.02  -0.10  -0.04    -0.00  -0.00   0.00
    12   6    -0.00   0.02   0.00    -0.24  -0.26  -0.17    -0.00  -0.00  -0.00
    13   8     0.00  -0.01  -0.01     0.13   0.25   0.23     0.00   0.00   0.00
    14   6    -0.01   0.00   0.01     0.00   0.01  -0.09    -0.00   0.00  -0.00
    15   6    -0.00   0.05  -0.01     0.10  -0.02   0.01     0.00   0.01   0.00
    16   6     0.00  -0.02  -0.03     0.06   0.05   0.05    -0.01  -0.00  -0.00
    17   6     0.01   0.00   0.03    -0.00  -0.03  -0.03    -0.00  -0.00   0.00
    18   6     0.00   0.01  -0.02    -0.01   0.03   0.02     0.00   0.00  -0.00
    19   8    -0.00  -0.00   0.02     0.00   0.01  -0.01    -0.00   0.00   0.00
    20   8     0.00   0.01   0.00    -0.07  -0.05  -0.02     0.00   0.00   0.00
    21   6     0.00  -0.00   0.00    -0.00   0.04  -0.01    -0.00  -0.00   0.00
    22   8    -0.01  -0.01  -0.01    -0.01   0.00   0.01     0.00   0.00   0.00
    23   6    -0.00   0.00  -0.00     0.02  -0.01   0.00    -0.00   0.00  -0.00
    24   6    -0.00  -0.00   0.00     0.01   0.00   0.01    -0.00  -0.00  -0.00
    25   8     0.00   0.00   0.00    -0.00   0.01   0.00    -0.00  -0.00  -0.00
    26   8    -0.01  -0.03   0.01    -0.01  -0.00  -0.02     0.00  -0.00   0.01
    27   6     0.01  -0.00   0.00    -0.02   0.00  -0.07     0.00   0.00  -0.00
    28   6     0.01   0.01  -0.00    -0.02  -0.07  -0.02     0.00  -0.00  -0.00
    29   1    -0.00   0.05   0.01     0.01  -0.11   0.05     0.00  -0.00   0.01
    30   1    -0.02  -0.02  -0.01     0.02  -0.24  -0.00    -0.00  -0.01  -0.00
    31   1    -0.02  -0.03  -0.00     0.04   0.25   0.09    -0.01  -0.00   0.00
    32   1     0.02  -0.03   0.03    -0.06   0.13  -0.04     0.00  -0.00   0.01
    33   1    -0.03   0.01  -0.01     0.21  -0.16   0.22     0.00  -0.00   0.01
    34   1    -0.02  -0.01  -0.01     0.00   0.15  -0.05    -0.00   0.00  -0.00
    35   1    -0.00  -0.00  -0.00    -0.01   0.05   0.08     0.00  -0.00  -0.00
    36   1     0.00   0.00   0.01    -0.03  -0.01  -0.04     0.00   0.00   0.00
    37   1     0.00  -0.00   0.00    -0.03  -0.00  -0.07     0.00   0.00   0.00
    38   1     0.00   0.00  -0.00     0.05   0.01  -0.05    -0.00   0.00   0.00
    39   1    -0.00   0.00   0.00    -0.07   0.01   0.02     0.00   0.00  -0.00
    40   1    -0.01  -0.00   0.00    -0.02   0.00  -0.03     0.00  -0.00   0.00
    41   1     0.01   0.03   0.04    -0.20  -0.20   0.16    -0.00  -0.00   0.00
    42   1     0.03  -0.02  -0.02     0.16  -0.22  -0.27     0.00  -0.01  -0.01
    43   1    -0.01  -0.00  -0.05     0.01   0.05   0.03    -0.01  -0.01   0.01
    44   1     0.05  -0.03   0.06     0.01  -0.07  -0.01    -0.00   0.00  -0.00
    45   1     0.02  -0.00  -0.02     0.05  -0.04   0.05     0.00  -0.00  -0.00
    46   1    -0.01   0.01  -0.03    -0.00  -0.01  -0.12     0.00   0.00  -0.00
    47   1    -0.30  -0.26   0.31    -0.01  -0.01   0.02    -0.01  -0.04  -0.09
    48   1     0.46  -0.02  -0.39     0.05  -0.00  -0.04    -0.06   0.01  -0.07
    49   1     0.09  -0.27   0.03     0.00  -0.01  -0.00    -0.23  -0.05   0.21
    50   1    -0.03   0.01   0.01     0.00   0.00   0.01     0.30  -0.02  -0.22
    51   1    -0.02   0.00   0.04     0.01  -0.00  -0.02    -0.15   0.04   0.26
    52   1     0.02   0.00   0.00    -0.01   0.00  -0.01     0.41   0.05   0.35
    53   1    -0.03  -0.01   0.01     0.01  -0.01   0.00     0.19  -0.03  -0.14
    54   1    -0.02   0.03   0.07     0.00   0.01  -0.01    -0.18   0.07   0.34
    55   1     0.00   0.45   0.05     0.01   0.12   0.02    -0.14  -0.01  -0.03
    56   1     0.09   0.06  -0.03     0.00   0.03  -0.01    -0.19   0.04   0.12
                     85                     86                     87
                      A                      A                      A
 Frequencies --   1129.1792              1132.9460              1139.4553
 Red. masses --      4.4963                 2.7153                 1.9021
 Frc consts  --      3.3778                 2.0535                 1.4550
 IR Inten    --    178.0298                13.7906                 3.6609
  Atom  AN      X      Y      Z        X      Y      Z        X      Y      Z
     1   6    -0.01   0.00   0.00     0.01  -0.00  -0.01    -0.04   0.01   0.04
     2   6     0.00  -0.00  -0.00    -0.00   0.00   0.00     0.02  -0.01  -0.02
     3   6     0.00  -0.00  -0.00    -0.01   0.00   0.01     0.04  -0.00  -0.04
     4   6    -0.01  -0.00  -0.00     0.01   0.00   0.00    -0.05   0.00   0.00
     5   6     0.00   0.00   0.00    -0.01  -0.00  -0.01     0.03   0.00   0.02
     6   6    -0.00  -0.00  -0.00     0.00   0.00   0.01     0.00  -0.00  -0.02
     7   6    -0.00   0.00  -0.00     0.00  -0.00   0.00    -0.03   0.01  -0.03
     8   6    -0.00  -0.00   0.00     0.01   0.00  -0.02    -0.06   0.01   0.19
     9   6    -0.00   0.00  -0.00     0.00  -0.00   0.02    -0.01  -0.01  -0.16
    10   8     0.01  -0.00  -0.01    -0.01  -0.00  -0.02    -0.00  -0.00  -0.00
    11   6    -0.08   0.00   0.08     0.01  -0.07   0.16     0.01  -0.00   0.02
    12   6     0.05   0.04  -0.02    -0.03   0.07  -0.11    -0.00   0.01  -0.01
    13   8    -0.02  -0.03  -0.03     0.00  -0.03   0.03    -0.00  -0.01   0.00
    14   6     0.03  -0.01  -0.01     0.02  -0.00  -0.01     0.01  -0.00  -0.00
    15   6    -0.09   0.00  -0.02     0.08   0.04   0.02     0.01  -0.01   0.00
    16   6     0.29   0.11   0.15    -0.10  -0.03  -0.03    -0.01   0.01  -0.01
    17   6    -0.09   0.08   0.04    -0.13  -0.00  -0.06    -0.02  -0.02  -0.02
    18   6     0.11  -0.00  -0.14     0.14  -0.01  -0.08     0.01   0.01  -0.00
    19   8    -0.04  -0.03   0.10    -0.06  -0.01   0.07    -0.01  -0.00   0.00
    20   8    -0.17  -0.13  -0.09     0.06   0.03   0.04     0.01   0.00   0.01
    21   6    -0.01   0.08  -0.04     0.00  -0.03  -0.01    -0.00   0.00  -0.00
    22   8    -0.02  -0.09  -0.04     0.04   0.04   0.03     0.01   0.01   0.01
    23   6     0.05  -0.01   0.02    -0.02   0.01  -0.00    -0.00  -0.00   0.00
    24   6     0.03   0.01   0.04    -0.01   0.01  -0.01    -0.00  -0.00  -0.00
    25   8     0.01   0.01  -0.00    -0.01  -0.04  -0.05    -0.00  -0.00   0.00
    26   8     0.00  -0.00  -0.00    -0.01   0.01  -0.01    -0.00   0.01  -0.01
    27   6    -0.02   0.01   0.02    -0.00   0.00   0.01    -0.01   0.00   0.00
    28   6    -0.02   0.01   0.02    -0.00   0.01   0.00    -0.00   0.00   0.00
    29   1     0.00  -0.07  -0.04     0.00  -0.02  -0.02    -0.00  -0.02  -0.01
    30   1     0.04   0.10   0.02     0.01   0.04   0.01     0.01   0.02   0.01
    31   1     0.04   0.00  -0.03     0.02  -0.02  -0.02     0.01   0.00  -0.01
    32   1    -0.03   0.02  -0.07     0.01  -0.03  -0.01    -0.01   0.01  -0.02
    33   1     0.01   0.02  -0.06    -0.01   0.02  -0.04     0.01   0.00  -0.01
    34   1     0.06  -0.06   0.05     0.01  -0.03   0.01     0.01  -0.01   0.01
    35   1    -0.03   0.13   0.21     0.01  -0.04  -0.07     0.00   0.00  -0.00
    36   1    -0.08  -0.01  -0.07     0.03   0.01   0.04     0.00  -0.01  -0.02
    37   1    -0.06  -0.00  -0.16     0.02   0.01   0.07    -0.00   0.01   0.01
    38   1     0.10   0.00  -0.10    -0.06  -0.02   0.04     0.00   0.01   0.00
    39   1    -0.19   0.01   0.06     0.03  -0.02   0.00     0.01   0.01  -0.01
    40   1    -0.00   0.00  -0.09     0.03  -0.00   0.01    -0.01   0.00   0.01
    41   1     0.10   0.06  -0.02     0.06   0.14   0.32     0.01   0.02   0.04
    42   1     0.17   0.08  -0.05     0.27  -0.23  -0.26     0.03  -0.02  -0.03
    43   1     0.41   0.16   0.08    -0.14  -0.21   0.31    -0.01  -0.00   0.01
    44   1    -0.21   0.29  -0.09    -0.26   0.18  -0.17    -0.03  -0.02  -0.02
    45   1     0.20   0.06  -0.21     0.18   0.01  -0.10     0.01  -0.02   0.02
    46   1     0.14   0.05  -0.01     0.38   0.02  -0.10     0.03  -0.00  -0.04
    47   1    -0.01  -0.01   0.01     0.00  -0.00  -0.03     0.04   0.10   0.14
    48   1     0.01  -0.00  -0.01    -0.02   0.00  -0.00     0.08  -0.02   0.16
    49   1     0.00  -0.01  -0.00    -0.06  -0.01   0.05     0.45   0.13  -0.44
    50   1     0.02   0.00  -0.01    -0.05   0.01   0.02     0.25  -0.03  -0.11
    51   1    -0.01   0.00   0.01     0.01  -0.00  -0.02    -0.07   0.02   0.10
    52   1     0.03   0.00   0.02    -0.05  -0.01  -0.04     0.22   0.03   0.19
    53   1     0.01   0.00  -0.01    -0.02   0.00   0.01     0.08  -0.01  -0.05
    54   1    -0.01  -0.01   0.03     0.02  -0.00  -0.06    -0.10   0.04   0.31
    55   1     0.00  -0.02  -0.00     0.01   0.02  -0.03    -0.04  -0.14   0.18
    56   1    -0.00  -0.00   0.00    -0.02   0.02   0.02     0.22  -0.08  -0.15
                     88                     89                     90
                      A                      A                      A
 Frequencies --   1144.9919              1170.2589              1195.8458
 Red. masses --      2.5317                 4.0436                 1.1128
 Frc consts  --      1.9556                 3.2627                 0.9376
 IR Inten    --      9.2545                64.8600                 0.4079
  Atom  AN      X      Y      Z        X      Y      Z        X      Y      Z
     1   6    -0.00   0.00   0.00    -0.00  -0.00   0.00    -0.00   0.00   0.00
     2   6     0.00  -0.00  -0.00    -0.00   0.00   0.00     0.02   0.00   0.00
     3   6     0.00  -0.00  -0.00     0.00  -0.00  -0.00     0.01  -0.00  -0.00
     4   6    -0.00   0.00   0.00    -0.00   0.00   0.00    -0.01   0.01   0.04
     5   6     0.00   0.00   0.00     0.00   0.00   0.00    -0.05  -0.01  -0.04
     6   6     0.00  -0.00  -0.00    -0.00   0.00  -0.00     0.04  -0.00  -0.01
     7   6    -0.00   0.00  -0.00    -0.00  -0.00  -0.00     0.00  -0.00   0.00
     8   6    -0.01   0.00   0.02    -0.00  -0.00   0.00    -0.00   0.00  -0.00
     9   6    -0.00  -0.00  -0.02     0.00  -0.00  -0.00    -0.00  -0.00  -0.00
    10   8     0.00   0.00   0.02    -0.01  -0.02  -0.04     0.00   0.00   0.01
    11   6     0.02  -0.01  -0.09    -0.05  -0.10   0.27    -0.01  -0.01  -0.01
    12   6    -0.03  -0.01   0.02    -0.01   0.04  -0.09     0.00  -0.00   0.01
    13   8     0.01   0.02   0.01    -0.01  -0.04   0.03    -0.00   0.00  -0.00
    14   6    -0.03   0.00   0.02     0.09  -0.01  -0.09     0.02   0.00  -0.01
    15   6     0.07  -0.01   0.00     0.01   0.04   0.02     0.01  -0.00  -0.00
    16   6    -0.04  -0.08   0.07     0.02  -0.04   0.02    -0.00   0.00  -0.00
    17   6     0.05   0.20   0.03     0.13   0.08   0.07    -0.00  -0.00  -0.00
    18   6    -0.00  -0.14  -0.02    -0.17  -0.03   0.11     0.00   0.00   0.00
    19   8    -0.02   0.05   0.03     0.08   0.11  -0.16     0.00  -0.00   0.00
    20   8    -0.03   0.02  -0.03    -0.02   0.01  -0.02    -0.00   0.00   0.00
    21   6     0.04  -0.10   0.03     0.00   0.01  -0.00     0.00  -0.01   0.00
    22   8    -0.02  -0.06  -0.06    -0.04  -0.05  -0.05     0.00   0.00   0.00
    23   6     0.00   0.06  -0.02     0.01  -0.01   0.00    -0.00   0.00  -0.00
    24   6    -0.01   0.06  -0.00     0.01  -0.00   0.01    -0.00   0.00  -0.00
    25   8    -0.00  -0.00  -0.00    -0.01  -0.03  -0.04    -0.00   0.00   0.00
    26   8    -0.00   0.01  -0.01    -0.01   0.02  -0.01    -0.00   0.00  -0.00
    27   6     0.02  -0.00  -0.02    -0.04   0.00   0.05    -0.01  -0.00   0.01
    28   6     0.02  -0.00  -0.01    -0.04   0.02   0.04    -0.01  -0.00   0.01
    29   1    -0.00   0.07   0.04    -0.00  -0.12  -0.11    -0.00  -0.03  -0.02
    30   1    -0.04  -0.08  -0.02     0.08   0.23   0.04     0.01   0.03   0.01
    31   1    -0.04  -0.00   0.03     0.10  -0.04  -0.09     0.02  -0.00  -0.01
    32   1     0.03  -0.03   0.06    -0.05   0.02  -0.15    -0.01   0.01  -0.03
    33   1    -0.02  -0.01   0.04     0.05   0.05  -0.14     0.02   0.00  -0.01
    34   1    -0.05   0.04  -0.04     0.15  -0.12   0.12     0.03  -0.01   0.02
    35   1    -0.04  -0.13  -0.06    -0.01   0.03   0.05    -0.00  -0.01  -0.01
    36   1     0.01   0.09   0.25    -0.02  -0.00  -0.01     0.00   0.00   0.01
    37   1     0.04  -0.14  -0.03    -0.01   0.00  -0.03     0.00  -0.01   0.00
    38   1    -0.13  -0.11   0.04     0.03   0.01  -0.03    -0.01  -0.00   0.00
    39   1    -0.07  -0.13   0.10    -0.04   0.01   0.01     0.00  -0.01   0.00
    40   1     0.22  -0.00  -0.11    -0.03  -0.00  -0.00     0.01  -0.00  -0.00
    41   1    -0.08  -0.04   0.01     0.32   0.25   0.17    -0.02  -0.02  -0.02
    42   1    -0.10  -0.03   0.04     0.23  -0.16  -0.20     0.05   0.06   0.01
    43   1    -0.05  -0.19   0.27    -0.05  -0.05   0.02     0.00  -0.01   0.01
    44   1     0.02   0.38  -0.03     0.27  -0.01   0.17    -0.00  -0.01   0.00
    45   1    -0.04   0.21  -0.30    -0.04   0.11  -0.08     0.00  -0.00   0.00
    46   1     0.12   0.01   0.40    -0.26  -0.01   0.17     0.00  -0.00  -0.01
    47   1     0.01   0.02   0.01     0.00  -0.00  -0.00     0.00   0.00   0.00
    48   1     0.00  -0.00   0.03    -0.00   0.00   0.00    -0.00  -0.00   0.00
    49   1     0.05   0.02  -0.05     0.01  -0.00  -0.00     0.00   0.00  -0.00
    50   1     0.03   0.00  -0.01     0.01   0.00  -0.01     0.16  -0.01  -0.05
    51   1    -0.01   0.00   0.01    -0.00   0.00   0.01    -0.11   0.08   0.51
    52   1     0.02   0.00   0.02     0.01   0.00   0.01    -0.49  -0.06  -0.43
    53   1     0.01  -0.00  -0.00    -0.01  -0.00   0.00     0.44  -0.03  -0.15
    54   1    -0.01   0.01   0.03    -0.00   0.00  -0.01    -0.03   0.03   0.15
    55   1    -0.01  -0.01   0.02     0.01   0.02  -0.00    -0.02  -0.01   0.01
    56   1     0.03  -0.01  -0.02    -0.00   0.01  -0.00    -0.02   0.00   0.01
                     91                     92                     93
                      A                      A                      A
 Frequencies --   1196.3095              1204.4027              1218.1694
 Red. masses --      1.9668                 2.0195                 1.1614
 Frc consts  --      1.6584                 1.7259                 1.0154
 IR Inten    --     26.5347                19.9232                 5.0691
  Atom  AN      X      Y      Z        X      Y      Z        X      Y      Z
     1   6     0.00  -0.00  -0.00    -0.00  -0.00   0.00     0.01  -0.01  -0.04
     2   6    -0.00   0.00   0.00     0.00  -0.00  -0.00    -0.05   0.00   0.03
     3   6    -0.00  -0.00   0.00    -0.00   0.00   0.00     0.06  -0.00  -0.02
     4   6     0.00  -0.00  -0.01     0.00  -0.00  -0.00     0.00   0.01   0.05
     5   6     0.01   0.00   0.01     0.00   0.00   0.00    -0.01   0.00   0.01
     6   6    -0.01   0.00   0.00     0.00   0.00   0.00    -0.04   0.00   0.00
     7   6     0.00  -0.00  -0.00     0.00  -0.00   0.00    -0.01   0.00  -0.03
     8   6     0.00  -0.00  -0.00     0.00   0.00   0.00     0.00  -0.01   0.00
     9   6    -0.00   0.00   0.01    -0.00  -0.00  -0.00     0.00   0.00   0.01
    10   8     0.00   0.03   0.04     0.01   0.01   0.01    -0.00   0.00   0.00
    11   6    -0.09  -0.06  -0.08    -0.03  -0.02  -0.05     0.00  -0.00  -0.00
    12   6     0.01  -0.02   0.07     0.01  -0.01   0.03     0.00  -0.00   0.00
    13   8    -0.03   0.00  -0.03    -0.01   0.01  -0.02     0.00   0.00  -0.00
    14   6     0.12   0.01  -0.09     0.02   0.00  -0.01     0.00  -0.00   0.01
    15   6     0.09  -0.01  -0.01     0.06  -0.00   0.01     0.00   0.00   0.00
    16   6    -0.02   0.01  -0.01    -0.06  -0.06   0.02     0.00   0.00  -0.00
    17   6    -0.02  -0.02  -0.02     0.00   0.06  -0.01     0.00  -0.00   0.00
    18   6     0.02   0.01   0.00     0.01  -0.05  -0.01     0.00   0.00  -0.00
    19   8     0.00  -0.01   0.01    -0.01   0.02   0.02    -0.00  -0.00   0.00
    20   8    -0.01   0.00  -0.00     0.05   0.03   0.04     0.00  -0.00   0.00
    21   6     0.02  -0.06   0.03    -0.04   0.15  -0.11    -0.00   0.00  -0.00
    22   8     0.00   0.03   0.01     0.01  -0.06  -0.00     0.00  -0.00  -0.00
    23   6    -0.01   0.03  -0.02     0.02  -0.08   0.06     0.00  -0.00   0.00
    24   6    -0.01   0.03  -0.01     0.02  -0.08   0.05     0.00  -0.00   0.00
    25   8    -0.00   0.01   0.02    -0.00  -0.00  -0.00    -0.00  -0.00  -0.00
    26   8    -0.01  -0.00  -0.00    -0.00   0.00  -0.01     0.00   0.00   0.00
    27   6    -0.07  -0.01   0.05    -0.01  -0.00   0.01    -0.00   0.00  -0.00
    28   6    -0.06  -0.00   0.05    -0.01  -0.00   0.01    -0.00   0.00  -0.00
    29   1    -0.01  -0.23  -0.14    -0.00  -0.03  -0.02    -0.00  -0.00   0.00
    30   1     0.11   0.24   0.06     0.01   0.04   0.01     0.00  -0.01  -0.00
    31   1     0.14  -0.00  -0.10     0.02  -0.00  -0.01     0.00   0.01   0.01
    32   1    -0.10   0.11  -0.22    -0.02   0.02  -0.04    -0.00   0.00  -0.00
    33   1     0.14   0.00  -0.09     0.02  -0.00  -0.01    -0.00   0.00  -0.00
    34   1     0.21  -0.11   0.14     0.03  -0.02   0.02    -0.00   0.00  -0.00
    35   1    -0.02  -0.09  -0.08     0.05   0.24   0.19    -0.00   0.00   0.01
    36   1     0.02   0.04   0.12    -0.04  -0.12  -0.32    -0.00  -0.00  -0.00
    37   1     0.03  -0.07   0.01    -0.08   0.22   0.01    -0.00   0.00  -0.00
    38   1    -0.08  -0.04   0.04     0.21   0.11  -0.12     0.01   0.00  -0.00
    39   1     0.03  -0.06   0.03    -0.11   0.15  -0.06    -0.00   0.00  -0.00
    40   1     0.11  -0.00  -0.03    -0.30   0.00   0.07    -0.00  -0.00  -0.00
    41   1    -0.16  -0.14  -0.15    -0.17  -0.13  -0.07    -0.01  -0.01  -0.00
    42   1     0.37   0.45   0.06     0.15   0.21   0.04     0.01   0.01   0.00
    43   1     0.04  -0.04   0.10    -0.42  -0.04  -0.13    -0.00  -0.00   0.00
    44   1    -0.01  -0.11   0.01     0.00   0.25  -0.05     0.00   0.01   0.00
    45   1     0.02  -0.02   0.02     0.08   0.07  -0.14     0.00   0.00  -0.00
    46   1     0.02  -0.01  -0.06    -0.02   0.00   0.15     0.00   0.00  -0.00
    47   1    -0.00  -0.00  -0.01     0.00   0.00  -0.00    -0.00  -0.01  -0.01
    48   1     0.01  -0.00  -0.01     0.00  -0.00   0.00     0.01   0.00  -0.01
    49   1     0.00  -0.01   0.01     0.00   0.00  -0.00    -0.01  -0.01   0.02
    50   1    -0.04   0.00   0.01    -0.02  -0.00   0.01     0.55  -0.03  -0.18
    51   1     0.02  -0.02  -0.11     0.00  -0.00  -0.02    -0.07   0.06   0.41
    52   1     0.10   0.01   0.09     0.01   0.00   0.01     0.01   0.01   0.03
    53   1    -0.10   0.00   0.03     0.00  -0.00  -0.00    -0.43   0.02   0.13
    54   1     0.01   0.00  -0.04    -0.00   0.01   0.00     0.11  -0.08  -0.48
    55   1     0.00   0.04  -0.00    -0.00   0.01   0.00     0.07   0.02  -0.03
    56   1    -0.01   0.01   0.01    -0.01   0.00   0.00     0.09  -0.02  -0.08
                     94                     95                     96
                      A                      A                      A
 Frequencies --   1232.5472              1240.1388              1250.0911
 Red. masses --      1.8673                 2.7914                 2.9700
 Frc consts  --      1.6713                 2.5294                 2.7346
 IR Inten    --     30.9110                96.4548               110.3719
  Atom  AN      X      Y      Z        X      Y      Z        X      Y      Z
     1   6    -0.00  -0.00   0.00    -0.00   0.00   0.02    -0.00   0.00   0.01
     2   6    -0.00   0.00   0.00    -0.03   0.00   0.02    -0.03   0.00   0.01
     3   6    -0.00   0.00   0.00    -0.00   0.00   0.00     0.00   0.00   0.00
     4   6     0.00  -0.00  -0.00     0.01  -0.00  -0.00     0.01  -0.00   0.00
     5   6     0.00   0.00   0.00    -0.00  -0.00  -0.00    -0.00  -0.00  -0.00
     6   6    -0.00  -0.00  -0.00     0.01  -0.00  -0.01     0.00  -0.00  -0.01
     7   6    -0.00   0.00  -0.00    -0.01   0.00  -0.02    -0.00   0.00  -0.01
     8   6     0.00  -0.00  -0.00     0.01  -0.00   0.00     0.01   0.00  -0.00
     9   6     0.00   0.00   0.00     0.00   0.00   0.00    -0.00   0.00   0.00
    10   8    -0.04   0.02   0.03    -0.01   0.01  -0.03     0.00  -0.00  -0.00
    11   6     0.07  -0.00  -0.12    -0.08  -0.04   0.07     0.01  -0.00   0.01
    12   6    -0.04   0.03  -0.00     0.04  -0.01   0.00     0.00  -0.00   0.00
    13   8    -0.01  -0.03   0.02     0.00   0.04  -0.07     0.00   0.00  -0.00
    14   6     0.18  -0.04   0.04     0.09  -0.18   0.25    -0.01   0.01  -0.00
    15   6    -0.04  -0.00  -0.01     0.05   0.00   0.01    -0.01  -0.01   0.01
    16   6    -0.01  -0.01   0.00     0.00   0.01  -0.01     0.03  -0.00  -0.00
    17   6     0.01   0.01   0.01    -0.00  -0.00  -0.00     0.02  -0.00   0.01
    18   6     0.01  -0.01  -0.01    -0.01   0.01   0.01    -0.00   0.01  -0.00
    19   8    -0.02  -0.01   0.02     0.01   0.02  -0.02     0.00  -0.00  -0.01
    20   8     0.01   0.01   0.00    -0.00  -0.00  -0.00    -0.05  -0.01   0.00
    21   6     0.01   0.02  -0.01     0.00  -0.01   0.00     0.32   0.00  -0.18
    22   8     0.00  -0.01  -0.00    -0.00   0.01   0.00    -0.05   0.01   0.01
    23   6    -0.00  -0.01   0.01    -0.00   0.01  -0.00    -0.14  -0.01   0.07
    24   6    -0.00  -0.01   0.00    -0.00   0.01  -0.00    -0.07   0.00   0.04
    25   8     0.01   0.01   0.02    -0.00  -0.01  -0.01     0.00   0.00  -0.00
    26   8     0.00  -0.01   0.01    -0.00   0.00  -0.01     0.00  -0.00  -0.00
    27   6    -0.08   0.02  -0.02    -0.04   0.06  -0.11     0.00  -0.00   0.00
    28   6    -0.06  -0.00  -0.01    -0.01   0.04  -0.06     0.00  -0.00  -0.00
    29   1    -0.00  -0.27   0.01     0.01  -0.08   0.26    -0.00   0.01  -0.01
    30   1     0.17   0.03   0.08     0.15  -0.23   0.04    -0.01  -0.01  -0.01
    31   1     0.16   0.24   0.01     0.04   0.51   0.23    -0.01  -0.02  -0.00
    32   1    -0.11   0.17  -0.17    -0.03   0.09  -0.04     0.00  -0.01   0.01
    33   1     0.08  -0.00  -0.06    -0.16   0.07  -0.08     0.01  -0.01   0.02
    34   1     0.06   0.06   0.01    -0.19   0.15  -0.14     0.00   0.00  -0.00
    35   1     0.01   0.02  -0.00    -0.00  -0.01  -0.01     0.17   0.10  -0.29
    36   1     0.01  -0.01  -0.04     0.00   0.01   0.03     0.33  -0.05  -0.05
    37   1    -0.00   0.03   0.02     0.01  -0.01   0.00     0.09   0.27   0.54
    38   1     0.01   0.01  -0.00    -0.01  -0.01   0.01    -0.20  -0.07   0.16
    39   1    -0.01   0.01  -0.01     0.00  -0.01   0.01    -0.21  -0.09   0.11
    40   1    -0.03   0.00   0.02     0.02  -0.00  -0.01    -0.16   0.02   0.11
    41   1     0.42   0.33   0.10    -0.30  -0.23  -0.07    -0.04  -0.03  -0.00
    42   1    -0.39  -0.39   0.01     0.17   0.15  -0.01     0.03   0.02  -0.00
    43   1    -0.05   0.02  -0.07     0.03  -0.04   0.08     0.01  -0.04   0.06
    44   1    -0.03   0.10  -0.04     0.03  -0.08   0.04    -0.04  -0.07  -0.02
    45   1    -0.09  -0.00   0.02     0.07   0.01  -0.02    -0.04  -0.01   0.03
    46   1     0.09  -0.00  -0.01    -0.06  -0.00  -0.01     0.00   0.00  -0.03
    47   1    -0.01  -0.01  -0.00    -0.00  -0.00   0.00    -0.00  -0.00   0.00
    48   1     0.00   0.00  -0.01    -0.00   0.00  -0.01     0.00  -0.00  -0.00
    49   1    -0.01  -0.01   0.01    -0.02  -0.00   0.02    -0.01  -0.00   0.01
    50   1    -0.00   0.00   0.00     0.02   0.00  -0.00     0.05  -0.00  -0.01
    51   1     0.00  -0.00  -0.00     0.02  -0.01  -0.06     0.02  -0.00  -0.03
    52   1     0.00   0.00   0.00     0.01   0.00   0.01     0.01   0.00   0.01
    53   1     0.01  -0.00  -0.01     0.07  -0.01  -0.04     0.03  -0.00  -0.02
    54   1    -0.00   0.01  -0.00    -0.01   0.01   0.05    -0.00   0.00   0.01
    55   1     0.02   0.03  -0.01     0.07   0.02  -0.03     0.04  -0.00  -0.02
    56   1    -0.02   0.01   0.01     0.03   0.00  -0.04     0.05  -0.01  -0.04
                     97                     98                     99
                      A                      A                      A
 Frequencies --   1251.3868              1266.7841              1276.4005
 Red. masses --      2.2058                 2.1967                 2.7863
 Frc consts  --      2.0351                 2.0770                 2.6746
 IR Inten    --      9.6294                84.1386                86.8335
  Atom  AN      X      Y      Z        X      Y      Z        X      Y      Z
     1   6     0.02  -0.01  -0.10    -0.00   0.00   0.00    -0.00   0.00   0.00
     2   6     0.21  -0.01  -0.13    -0.01   0.00   0.01    -0.00   0.00   0.00
     3   6     0.00  -0.01  -0.03    -0.00   0.00   0.00     0.00  -0.00  -0.00
     4   6    -0.07   0.00   0.00     0.00  -0.00  -0.00     0.00   0.00   0.00
     5   6     0.01   0.00   0.00     0.00  -0.00  -0.00    -0.00  -0.00  -0.00
     6   6    -0.03   0.01   0.09     0.00  -0.00  -0.00     0.00   0.00  -0.00
     7   6     0.02  -0.01   0.11     0.01  -0.00  -0.00    -0.00   0.00  -0.00
     8   6    -0.06   0.01   0.03    -0.00  -0.00  -0.00     0.00   0.00   0.00
     9   6     0.02  -0.01  -0.04    -0.00   0.00   0.00    -0.00  -0.00   0.00
    10   8    -0.00   0.00  -0.00    -0.04  -0.01  -0.01     0.01   0.00   0.00
    11   6    -0.00  -0.01   0.01     0.19  -0.05   0.03    -0.04   0.01  -0.01
    12   6     0.00  -0.00  -0.00    -0.01   0.02  -0.00     0.00  -0.00   0.00
    13   8    -0.00   0.00  -0.01    -0.02  -0.01  -0.02     0.01   0.00   0.00
    14   6     0.01  -0.01   0.03     0.06   0.14   0.06    -0.01  -0.02  -0.01
    15   6    -0.00  -0.01   0.00    -0.12   0.01   0.03     0.04  -0.02  -0.03
    16   6     0.00   0.00   0.00     0.01   0.01  -0.02    -0.02   0.00  -0.03
    17   6     0.00   0.00  -0.00     0.05  -0.00   0.06     0.00   0.01   0.02
    18   6    -0.00   0.00   0.00    -0.05   0.01  -0.00     0.00  -0.01  -0.02
    19   8     0.00   0.00  -0.00    -0.02   0.00  -0.01     0.00   0.01   0.01
    20   8    -0.00  -0.00  -0.00    -0.00  -0.00  -0.01    -0.02  -0.03  -0.02
    21   6     0.03   0.00  -0.01     0.01   0.03   0.05     0.12   0.20   0.26
    22   8    -0.00   0.00   0.00    -0.01  -0.02  -0.03    -0.03  -0.03  -0.04
    23   6    -0.01  -0.00   0.01     0.00  -0.01  -0.01    -0.04  -0.04  -0.04
    24   6    -0.01   0.00   0.00    -0.00  -0.01  -0.02    -0.04  -0.07  -0.10
    25   8     0.00   0.00   0.00     0.01  -0.02  -0.01    -0.00   0.01   0.01
    26   8    -0.00   0.01  -0.00     0.00   0.01  -0.00    -0.00  -0.01   0.00
    27   6    -0.01   0.01  -0.01    -0.02  -0.03  -0.01     0.01   0.00   0.00
    28   6    -0.00   0.00  -0.01    -0.02  -0.05  -0.02     0.00   0.01   0.00
    29   1     0.01  -0.03   0.04     0.01  -0.17  -0.02    -0.00   0.03   0.00
    30   1     0.02  -0.04   0.01     0.03  -0.11   0.02    -0.01   0.02  -0.00
    31   1     0.00   0.05   0.02     0.01  -0.04  -0.04    -0.01   0.00   0.01
    32   1    -0.01   0.02  -0.00    -0.06   0.14   0.01     0.01  -0.03   0.00
    33   1    -0.01   0.00   0.00     0.15  -0.11   0.14    -0.03   0.02  -0.02
    34   1    -0.02   0.03  -0.02     0.05   0.14  -0.02    -0.01  -0.03   0.00
    35   1     0.02   0.01  -0.03     0.01  -0.02  -0.03     0.10  -0.10  -0.29
    36   1     0.03  -0.01  -0.01    -0.00  -0.01  -0.03     0.11  -0.10  -0.30
    37   1     0.01   0.02   0.05    -0.01  -0.02  -0.03    -0.04  -0.08  -0.08
    38   1    -0.02  -0.01   0.01    -0.00   0.04   0.03    -0.08   0.22   0.23
    39   1    -0.02  -0.01   0.01     0.07   0.02  -0.04     0.39   0.10  -0.21
    40   1    -0.01   0.00   0.01    -0.00  -0.00   0.05    -0.04  -0.00   0.33
    41   1    -0.04  -0.03   0.00    -0.52  -0.30   0.11     0.08   0.05  -0.02
    42   1     0.02   0.01  -0.00     0.31   0.16  -0.07    -0.06  -0.03   0.01
    43   1     0.01  -0.00   0.01     0.02  -0.03   0.06     0.01  -0.14   0.25
    44   1    -0.00  -0.01   0.00    -0.00   0.28  -0.04    -0.17  -0.02  -0.09
    45   1     0.00   0.00   0.00    -0.17  -0.03   0.07     0.14   0.03  -0.10
    46   1    -0.00  -0.00  -0.00     0.30   0.01  -0.15    -0.09   0.01   0.08
    47   1     0.04   0.03  -0.03    -0.00  -0.00   0.00     0.00   0.00   0.00
    48   1    -0.01   0.00   0.02     0.00   0.00  -0.00     0.00  -0.00   0.00
    49   1     0.05   0.05  -0.08     0.00  -0.00  -0.00    -0.00  -0.00   0.00
    50   1    -0.32   0.01   0.07    -0.01   0.00   0.00     0.00  -0.00  -0.00
    51   1    -0.14   0.05   0.34     0.01  -0.00  -0.02     0.00   0.00   0.00
    52   1    -0.05  -0.01  -0.04    -0.00  -0.00  -0.00     0.00   0.00   0.00
    53   1    -0.35   0.03   0.20     0.02  -0.00  -0.01    -0.00  -0.00   0.00
    54   1     0.04  -0.05  -0.17    -0.00   0.00   0.01    -0.00  -0.00  -0.00
    55   1    -0.31  -0.01   0.16    -0.02   0.02   0.00     0.00  -0.00   0.00
    56   1    -0.42   0.07   0.33     0.02  -0.00  -0.01     0.00  -0.00  -0.00
                    100                    101                    102
                      A                      A                      A
 Frequencies --   1302.3133              1318.2896              1322.5724
 Red. masses --      1.6482                 1.6313                 2.1854
 Frc consts  --      1.6470                 1.6703                 2.2522
 IR Inten    --     16.6293                14.2817                27.9669
  Atom  AN      X      Y      Z        X      Y      Z        X      Y      Z
     1   6     0.00   0.00   0.00    -0.00   0.00   0.00    -0.00   0.00  -0.00
     2   6    -0.01   0.00   0.00    -0.00   0.00   0.00     0.01   0.00  -0.00
     3   6    -0.00   0.00   0.00     0.00  -0.00  -0.00     0.00  -0.00  -0.00
     4   6     0.00   0.00   0.00    -0.00   0.00   0.00    -0.00  -0.00  -0.00
     5   6    -0.00   0.00   0.00    -0.00  -0.00  -0.00     0.00   0.00   0.00
     6   6     0.00  -0.00  -0.00     0.00  -0.00  -0.00    -0.00   0.00   0.00
     7   6     0.01  -0.00   0.00     0.00   0.00   0.00    -0.02   0.00  -0.01
     8   6    -0.00  -0.00  -0.01    -0.00   0.00  -0.00     0.01  -0.00   0.01
     9   6     0.00   0.00  -0.00    -0.00  -0.00  -0.00    -0.00   0.00   0.01
    10   8    -0.00  -0.02  -0.01     0.00  -0.00   0.00    -0.03   0.02   0.02
    11   6    -0.01  -0.02   0.00    -0.01   0.02  -0.02     0.19  -0.03  -0.01
    12   6    -0.00   0.01  -0.01     0.00  -0.00   0.00    -0.00   0.03   0.00
    13   8    -0.01  -0.02  -0.01     0.00  -0.00   0.00    -0.01   0.03   0.02
    14   6     0.04   0.16   0.07    -0.00   0.00  -0.01    -0.00  -0.16  -0.10
    15   6     0.00   0.01  -0.03     0.02  -0.04  -0.01    -0.09   0.02  -0.03
    16   6    -0.01  -0.01  -0.00    -0.05   0.10  -0.14    -0.03  -0.01  -0.00
    17   6    -0.05   0.02  -0.06     0.00  -0.03   0.08    -0.03   0.03  -0.04
    18   6     0.04  -0.05   0.01    -0.03   0.01  -0.00     0.02  -0.05   0.01
    19   8    -0.01   0.05   0.00     0.00   0.00   0.01    -0.03   0.04   0.01
    20   8     0.01  -0.01   0.01     0.01  -0.04   0.02     0.01  -0.01   0.00
    21   6    -0.00   0.01  -0.01    -0.04   0.02  -0.07    -0.00   0.02  -0.01
    22   8     0.01   0.01   0.03     0.01  -0.01  -0.02     0.00   0.00   0.02
    23   6     0.00  -0.00   0.00     0.01  -0.01   0.01     0.00  -0.01   0.00
    24   6     0.00  -0.00   0.00     0.01  -0.01   0.02     0.00  -0.00   0.00
    25   8    -0.00   0.01   0.01     0.00   0.02   0.01     0.01   0.01   0.02
    26   8     0.00  -0.00   0.01    -0.00  -0.01   0.01     0.01  -0.01   0.01
    27   6    -0.01  -0.02  -0.02    -0.00  -0.00   0.00    -0.01   0.02   0.02
    28   6    -0.01  -0.06  -0.03     0.00  -0.00   0.00     0.00   0.06   0.03
    29   1     0.02  -0.16  -0.01     0.00  -0.00  -0.00    -0.03   0.15  -0.02
    30   1    -0.01  -0.17   0.01    -0.00   0.00   0.00     0.04   0.23   0.00
    31   1    -0.03  -0.09  -0.04     0.00  -0.01  -0.00     0.08   0.12   0.03
    32   1    -0.05   0.14   0.07    -0.00   0.01  -0.00     0.04  -0.15  -0.11
    33   1     0.12  -0.11   0.14    -0.00   0.00  -0.00    -0.07   0.11  -0.15
    34   1     0.05   0.16  -0.03     0.00  -0.00   0.00    -0.03  -0.17   0.05
    35   1     0.00   0.01   0.01    -0.00   0.07   0.08     0.01   0.02   0.01
    36   1    -0.00  -0.00  -0.01    -0.03  -0.00   0.01    -0.00  -0.01  -0.01
    37   1    -0.00   0.01   0.00    -0.01   0.07   0.02    -0.01   0.02   0.00
    38   1     0.01   0.00  -0.00     0.05  -0.01  -0.06     0.01   0.01   0.00
    39   1    -0.01   0.01  -0.00    -0.06   0.03   0.01    -0.01   0.02  -0.01
    40   1    -0.01  -0.00  -0.01    -0.05  -0.00  -0.06    -0.02  -0.00  -0.00
    41   1     0.03   0.03  -0.00     0.03   0.02  -0.00    -0.39  -0.21   0.17
    42   1     0.00  -0.05  -0.03    -0.07  -0.03   0.02    -0.01   0.01   0.00
    43   1     0.25   0.04  -0.02     0.34  -0.28   0.74     0.36   0.06  -0.04
    44   1    -0.00  -0.47   0.08     0.24   0.21   0.19     0.01  -0.33   0.06
    45   1     0.37   0.09  -0.21     0.14  -0.02  -0.03     0.25   0.06  -0.15
    46   1    -0.45  -0.03   0.29    -0.07   0.01   0.04    -0.21  -0.02   0.19
    47   1    -0.01  -0.01   0.01     0.00   0.00   0.00     0.00   0.01  -0.01
    48   1    -0.01   0.00   0.00    -0.00  -0.00   0.00     0.03  -0.01  -0.02
    49   1    -0.00   0.00  -0.00     0.00   0.00  -0.00     0.01  -0.01   0.00
    50   1     0.01  -0.00  -0.00    -0.01  -0.00   0.00    -0.02  -0.00   0.00
    51   1     0.00  -0.00  -0.01     0.00  -0.00  -0.00    -0.01   0.00   0.03
    52   1    -0.00  -0.00  -0.00     0.00  -0.00   0.00     0.01   0.00   0.01
    53   1     0.00   0.00  -0.00    -0.00  -0.00   0.00     0.02  -0.00  -0.01
    54   1     0.00   0.00  -0.00    -0.00  -0.00   0.00     0.00  -0.00  -0.01
    55   1    -0.05   0.01   0.02    -0.03  -0.00   0.01     0.16  -0.01  -0.06
    56   1     0.04  -0.00  -0.01     0.01  -0.01  -0.00    -0.10   0.02   0.02
                    103                    104                    105
                      A                      A                      A
 Frequencies --   1334.9824              1343.2602              1348.1905
 Red. masses --      2.5256                 1.4572                 1.5674
 Frc consts  --      2.6519                 1.5491                 1.6785
 IR Inten    --     12.0047                26.1403                19.7263
  Atom  AN      X      Y      Z        X      Y      Z        X      Y      Z
     1   6    -0.01  -0.01  -0.04    -0.01   0.00   0.02     0.00  -0.00  -0.00
     2   6     0.06   0.03   0.22     0.03  -0.01  -0.06    -0.00   0.00   0.01
     3   6    -0.10   0.00   0.00     0.04  -0.00  -0.01    -0.01   0.00   0.00
     4   6     0.04  -0.01  -0.10    -0.02   0.00   0.01     0.00  -0.00  -0.00
     5   6     0.04   0.01   0.04    -0.01  -0.00  -0.01     0.00   0.00   0.00
     6   6    -0.10  -0.00  -0.01     0.01   0.00   0.01    -0.00  -0.00  -0.00
     7   6     0.03  -0.00  -0.15    -0.13   0.01  -0.04     0.02  -0.00   0.00
     8   6     0.12  -0.01   0.07     0.06  -0.01   0.07    -0.01   0.00  -0.01
     9   6    -0.06   0.01  -0.04     0.01   0.00   0.03    -0.00   0.00  -0.01
    10   8     0.00  -0.00  -0.00     0.00  -0.01  -0.00     0.00   0.00  -0.00
    11   6    -0.01   0.00   0.00    -0.02   0.01   0.01    -0.01   0.00   0.03
    12   6    -0.00  -0.00  -0.00    -0.00  -0.00   0.00    -0.02  -0.01   0.00
    13   8     0.00  -0.00  -0.00     0.00  -0.01  -0.01     0.00  -0.00  -0.01
    14   6    -0.00   0.01   0.01    -0.00   0.04   0.02    -0.01   0.00   0.01
    15   6     0.00   0.00  -0.01     0.01  -0.01  -0.02     0.02   0.01  -0.10
    16   6     0.01   0.00  -0.00    -0.01  -0.00   0.00    -0.07  -0.04   0.03
    17   6     0.00  -0.00   0.00    -0.00   0.01  -0.00    -0.04   0.12  -0.04
    18   6    -0.00   0.00  -0.00    -0.00   0.00   0.00     0.01  -0.01   0.03
    19   8     0.00  -0.00   0.00     0.00  -0.01  -0.00     0.00  -0.03  -0.02
    20   8    -0.00   0.00   0.00     0.00  -0.00   0.00     0.01  -0.02  -0.00
    21   6    -0.00  -0.00   0.00    -0.00   0.00  -0.00    -0.00   0.05  -0.01
    22   8    -0.00   0.00  -0.00     0.00  -0.00  -0.00     0.01  -0.03   0.00
    23   6    -0.00   0.00  -0.00     0.00  -0.00   0.00     0.00  -0.01   0.01
    24   6    -0.00   0.00  -0.00     0.00  -0.00   0.00     0.00  -0.01   0.00
    25   8    -0.00   0.00   0.00    -0.00   0.01   0.01    -0.00   0.03   0.04
    26   8    -0.00  -0.00   0.00    -0.00  -0.01  -0.00     0.00  -0.02   0.02
    27   6     0.00  -0.00  -0.00     0.00  -0.02  -0.00     0.00   0.00  -0.00
    28   6     0.00  -0.00  -0.00     0.00  -0.01  -0.01     0.00  -0.00  -0.00
    29   1    -0.00   0.01  -0.00    -0.01   0.02  -0.03     0.00  -0.00   0.02
    30   1    -0.01  -0.01  -0.00    -0.03  -0.02  -0.02    -0.00  -0.02  -0.00
    31   1    -0.00  -0.01  -0.00     0.00  -0.01   0.00    -0.02  -0.00   0.01
    32   1    -0.00   0.01   0.01    -0.01   0.03   0.03     0.00   0.01   0.01
    33   1     0.00  -0.01   0.01     0.01  -0.02   0.03    -0.01  -0.00   0.01
    34   1     0.00   0.01  -0.00     0.01   0.04  -0.01    -0.01   0.01  -0.01
    35   1    -0.00  -0.00  -0.00    -0.00   0.00   0.01     0.02   0.04   0.01
    36   1     0.00   0.00   0.00    -0.01  -0.00  -0.00    -0.00  -0.02  -0.07
    37   1     0.00  -0.00   0.00    -0.00   0.00  -0.00    -0.03   0.03  -0.02
    38   1    -0.00  -0.00   0.00     0.00   0.00  -0.00     0.02   0.03  -0.00
    39   1    -0.00  -0.00   0.00     0.00   0.00  -0.00    -0.01   0.04  -0.02
    40   1     0.00   0.00  -0.00    -0.00  -0.00  -0.00    -0.04  -0.00   0.01
    41   1     0.02   0.01  -0.01     0.06   0.04  -0.02     0.10   0.06  -0.04
    42   1     0.00   0.00  -0.00     0.03   0.02  -0.01     0.12   0.04  -0.03
    43   1    -0.05  -0.01   0.01     0.03  -0.01   0.03     0.49   0.05   0.02
    44   1    -0.00   0.01  -0.00     0.03  -0.01   0.02     0.16  -0.27   0.17
    45   1     0.01  -0.00  -0.00    -0.08  -0.01   0.04    -0.47  -0.05   0.22
    46   1    -0.01   0.00  -0.00     0.07   0.00  -0.02     0.47   0.01  -0.11
    47   1    -0.05   0.05   0.18     0.03   0.02  -0.05    -0.01  -0.01   0.02
    48   1     0.12  -0.04   0.12     0.05  -0.01  -0.05    -0.01   0.00   0.01
    49   1     0.13  -0.04  -0.11     0.00  -0.01   0.04    -0.01   0.00  -0.00
    50   1    -0.18   0.01   0.03    -0.05   0.00   0.01     0.01  -0.00  -0.00
    51   1    -0.00   0.02   0.13    -0.03   0.01   0.09     0.01  -0.00  -0.01
    52   1    -0.02  -0.00  -0.01     0.06   0.01   0.06    -0.01  -0.00  -0.01
    53   1     0.31  -0.02  -0.16    -0.01   0.00   0.02     0.00   0.00  -0.00
    54   1     0.07  -0.08  -0.45    -0.01   0.02   0.06     0.00  -0.01  -0.01
    55   1    -0.10  -0.04   0.18     0.79  -0.00  -0.29    -0.13  -0.00   0.05
    56   1    -0.56   0.05   0.12    -0.42   0.08   0.09     0.06  -0.01  -0.02
                    106                    107                    108
                      A                      A                      A
 Frequencies --   1375.4791              1380.1910              1383.0341
 Red. masses --      1.9416                 1.7046                 1.8370
 Frc consts  --      2.1643                 1.9131                 2.0702
 IR Inten    --      3.0544                 7.2325                12.0642
  Atom  AN      X      Y      Z        X      Y      Z        X      Y      Z
     1   6     0.05  -0.02  -0.15     0.00  -0.00  -0.03     0.00  -0.00  -0.01
     2   6     0.03  -0.00  -0.01     0.10   0.00   0.06     0.05   0.00   0.03
     3   6    -0.14   0.01   0.06    -0.03   0.00   0.01    -0.01   0.00   0.00
     4   6     0.02  -0.01  -0.07     0.00  -0.01  -0.08     0.00  -0.01  -0.04
     5   6     0.12   0.02   0.10     0.03   0.00   0.02     0.01   0.00   0.01
     6   6    -0.06   0.01   0.04    -0.08   0.00   0.03    -0.04   0.00   0.01
     7   6    -0.03   0.00   0.01    -0.04  -0.00   0.02    -0.02   0.00   0.02
     8   6     0.01   0.00   0.00    -0.10   0.00   0.00    -0.06   0.00  -0.01
     9   6     0.00  -0.00   0.01     0.03  -0.00   0.03     0.02  -0.00   0.01
    10   8    -0.00  -0.00  -0.00     0.00   0.00   0.00    -0.01  -0.00  -0.00
    11   6     0.00   0.00  -0.00    -0.04  -0.01  -0.02     0.08   0.03   0.02
    12   6    -0.00  -0.00   0.00     0.05   0.01  -0.01    -0.12  -0.04   0.04
    13   8     0.00  -0.00  -0.00    -0.00   0.00   0.01     0.01  -0.01  -0.03
    14   6    -0.00   0.00   0.00     0.01   0.01  -0.01    -0.03  -0.02   0.03
    15   6     0.00  -0.00  -0.00     0.02   0.03   0.08    -0.03  -0.05  -0.14
    16   6    -0.00   0.00  -0.00    -0.01  -0.01  -0.01     0.00   0.01   0.01
    17   6     0.00  -0.00   0.00    -0.01   0.01  -0.01     0.03  -0.03   0.02
    18   6    -0.00   0.00  -0.00     0.01   0.00   0.00    -0.01  -0.00  -0.01
    19   8    -0.00   0.00   0.00     0.00  -0.00  -0.00    -0.01   0.01   0.00
    20   8     0.00  -0.00   0.00    -0.00  -0.01  -0.00     0.01   0.01   0.00
    21   6     0.00  -0.00  -0.00     0.00   0.01   0.00    -0.01  -0.02  -0.01
    22   8     0.00   0.00  -0.00     0.00  -0.01  -0.00    -0.00   0.01   0.00
    23   6    -0.00  -0.00  -0.00    -0.00  -0.00  -0.00    -0.00   0.01   0.00
    24   6    -0.00   0.00   0.00    -0.00  -0.00  -0.00     0.00   0.01   0.00
    25   8    -0.00   0.00   0.00    -0.00  -0.03  -0.03     0.00   0.04   0.05
    26   8     0.00  -0.00  -0.00    -0.00   0.02  -0.01     0.01  -0.02   0.02
    27   6    -0.00  -0.00  -0.00    -0.00  -0.00   0.00     0.01  -0.01  -0.01
    28   6    -0.00  -0.00  -0.00    -0.00  -0.00   0.00     0.01   0.01  -0.01
    29   1    -0.00   0.01  -0.00     0.00  -0.02  -0.03    -0.01   0.07   0.05
    30   1    -0.00   0.00  -0.00    -0.01  -0.01   0.00     0.01   0.04  -0.02
    31   1     0.00   0.00   0.00     0.01  -0.02  -0.02    -0.02   0.06   0.06
    32   1    -0.00   0.00   0.00    -0.00   0.01  -0.00     0.01  -0.00   0.01
    33   1     0.00  -0.00   0.00     0.02  -0.01  -0.00    -0.04   0.01   0.01
    34   1     0.00   0.00  -0.00     0.02   0.01   0.01    -0.04  -0.01  -0.02
    35   1    -0.00   0.00   0.00     0.01   0.01  -0.00    -0.00  -0.01   0.00
    36   1     0.00   0.00   0.00    -0.00  -0.00  -0.01     0.01   0.01   0.01
    37   1     0.00   0.00   0.00    -0.00   0.01  -0.00     0.01  -0.02   0.00
    38   1     0.00   0.00  -0.00     0.00   0.01   0.00    -0.01  -0.02  -0.01
    39   1     0.00  -0.00   0.00     0.01   0.01  -0.01    -0.01  -0.02   0.01
    40   1     0.00  -0.00  -0.00    -0.00  -0.00   0.01     0.00   0.00  -0.01
    41   1     0.01   0.01  -0.00    -0.13  -0.09   0.04     0.37   0.26  -0.12
    42   1     0.01   0.00  -0.00    -0.21  -0.09   0.04     0.53   0.23  -0.10
    43   1    -0.00  -0.00   0.01     0.17   0.04  -0.03    -0.22  -0.03   0.04
    44   1     0.00   0.01  -0.00     0.07  -0.00   0.05    -0.11   0.08  -0.10
    45   1     0.01  -0.00  -0.00    -0.08  -0.00   0.04     0.16   0.01  -0.08
    46   1    -0.00   0.00   0.00     0.03  -0.00  -0.02    -0.10   0.00   0.04
    47   1     0.01   0.00  -0.02     0.05  -0.02  -0.19     0.02  -0.01  -0.08
    48   1     0.00  -0.00  -0.02    -0.05   0.01  -0.17    -0.03   0.01  -0.08
    49   1    -0.01   0.00   0.01     0.02   0.06   0.01    -0.03   0.04   0.02
    50   1     0.51  -0.02  -0.15    -0.24   0.01   0.08    -0.12   0.01   0.04
    51   1     0.05  -0.03  -0.21    -0.06   0.04   0.24    -0.03   0.02   0.12
    52   1    -0.30  -0.04  -0.26     0.07   0.01   0.06     0.04   0.01   0.03
    53   1    -0.22   0.02   0.09     0.24  -0.01  -0.08     0.12  -0.01  -0.04
    54   1    -0.10   0.09   0.57     0.04  -0.03  -0.17     0.02  -0.01  -0.09
    55   1     0.14  -0.01  -0.06     0.31   0.03  -0.20     0.12   0.01  -0.10
    56   1    -0.01   0.00   0.00     0.55  -0.06  -0.25     0.32  -0.04  -0.14
                    109                    110                    111
                      A                      A                      A
 Frequencies --   1394.6683              1400.5823              1411.3462
 Red. masses --      1.3974                 2.5336                 1.5281
 Frc consts  --      1.6014                 2.9282                 1.7934
 IR Inten    --     26.8698                40.3394                 2.1535
  Atom  AN      X      Y      Z        X      Y      Z        X      Y      Z
     1   6    -0.00   0.00   0.00    -0.00   0.00   0.00     0.00  -0.00  -0.00
     2   6    -0.01  -0.00  -0.00    -0.01   0.00  -0.00     0.00   0.00  -0.00
     3   6     0.00  -0.00  -0.00     0.00  -0.00  -0.00     0.00   0.00   0.00
     4   6    -0.00   0.00   0.01    -0.00   0.00   0.01    -0.00  -0.00  -0.00
     5   6    -0.00  -0.00  -0.00    -0.00  -0.00  -0.00     0.00  -0.00  -0.00
     6   6     0.01  -0.00  -0.00     0.01  -0.00  -0.00    -0.00   0.00   0.00
     7   6     0.00  -0.00  -0.01     0.00  -0.00  -0.00    -0.00   0.00   0.00
     8   6     0.01  -0.00   0.00     0.01  -0.00   0.01    -0.00   0.00  -0.00
     9   6    -0.00  -0.00  -0.00    -0.00  -0.00  -0.00     0.00   0.00  -0.00
    10   8    -0.00  -0.00   0.00    -0.01   0.00   0.01    -0.00   0.00   0.00
    11   6     0.02   0.01  -0.01     0.06   0.03  -0.06     0.02  -0.01   0.00
    12   6    -0.04  -0.02   0.02    -0.09  -0.04   0.06    -0.00   0.00   0.00
    13   8     0.01  -0.00  -0.02     0.02  -0.01  -0.03    -0.00  -0.00  -0.00
    14   6    -0.01  -0.01   0.01    -0.02  -0.02   0.01     0.00  -0.00  -0.00
    15   6     0.03   0.05   0.07    -0.03   0.04   0.25    -0.04  -0.02  -0.00
    16   6    -0.08  -0.02   0.04     0.06   0.01  -0.09     0.09   0.01  -0.02
    17   6    -0.03  -0.08  -0.02    -0.00   0.09   0.01    -0.14   0.01  -0.06
    18   6     0.02   0.00   0.01     0.02  -0.02  -0.01     0.06  -0.01   0.03
    19   8    -0.00   0.01  -0.00    -0.01  -0.00   0.00    -0.01   0.01  -0.02
    20   8     0.00  -0.01  -0.00    -0.01  -0.01   0.00    -0.00   0.01   0.01
    21   6     0.03   0.01   0.02    -0.02   0.03   0.00     0.03  -0.01   0.01
    22   8     0.00   0.00  -0.02    -0.00  -0.01   0.01     0.01  -0.01  -0.02
    23   6    -0.01  -0.01  -0.01     0.01  -0.01  -0.01    -0.01   0.03   0.04
    24   6    -0.02  -0.00  -0.00     0.01  -0.01  -0.00    -0.04   0.00   0.01
    25   8    -0.01  -0.03  -0.03     0.00  -0.08  -0.10     0.00   0.01   0.00
    26   8    -0.00   0.01  -0.01    -0.00   0.05  -0.04     0.00  -0.00  -0.00
    27   6     0.00  -0.00  -0.01     0.01  -0.01  -0.01    -0.00  -0.00  -0.00
    28   6     0.00   0.00  -0.00     0.01   0.01  -0.00     0.00   0.00   0.00
    29   1    -0.00   0.03   0.02    -0.01   0.07   0.05    -0.00   0.01   0.00
    30   1     0.01   0.02  -0.01     0.01   0.06  -0.02     0.01   0.01  -0.00
    31   1    -0.01   0.02   0.02    -0.01   0.05   0.05     0.01   0.01   0.00
    32   1     0.00  -0.00   0.01     0.01  -0.01  -0.01    -0.00  -0.00  -0.01
    33   1    -0.02   0.00   0.01    -0.04   0.01   0.02    -0.00   0.00  -0.00
    34   1    -0.01  -0.01  -0.01    -0.04  -0.03  -0.01    -0.01  -0.00  -0.00
    35   1     0.01   0.02  -0.02    -0.01   0.02   0.04     0.06  -0.12  -0.15
    36   1     0.02  -0.01   0.01    -0.04  -0.00   0.03     0.05  -0.01  -0.18
    37   1     0.00   0.02   0.02     0.00   0.05   0.01    -0.06  -0.14  -0.12
    38   1     0.00   0.02  -0.01     0.00   0.02   0.03     0.05   0.02  -0.10
    39   1     0.05  -0.01  -0.00    -0.03   0.04  -0.02     0.14   0.01  -0.01
    40   1     0.03  -0.01   0.02    -0.03   0.00   0.00     0.11  -0.03  -0.05
    41   1     0.17   0.11  -0.05     0.38   0.25  -0.11    -0.01  -0.00   0.01
    42   1     0.19   0.11  -0.02     0.38   0.24  -0.02     0.02   0.01  -0.00
    43   1     0.52   0.25  -0.28    -0.01  -0.14   0.17    -0.41  -0.12   0.07
    44   1     0.27   0.57   0.05    -0.11  -0.55   0.06     0.59   0.13   0.41
    45   1     0.05  -0.01   0.01    -0.17   0.01   0.03    -0.16  -0.02   0.12
    46   1    -0.21  -0.01   0.07     0.06   0.00   0.04    -0.13  -0.02   0.08
    47   1    -0.00   0.01   0.02     0.01   0.01   0.01    -0.00  -0.00   0.00
    48   1     0.01  -0.00   0.02     0.01  -0.01   0.01    -0.01   0.00  -0.00
    49   1    -0.00  -0.01  -0.00    -0.00   0.00  -0.00    -0.01   0.00   0.00
    50   1     0.01  -0.00  -0.01     0.01  -0.00  -0.00    -0.00   0.00   0.00
    51   1     0.01  -0.00  -0.02     0.00  -0.00  -0.02    -0.00   0.00   0.00
    52   1    -0.01  -0.00  -0.01    -0.01  -0.00  -0.01     0.00   0.00   0.00
    53   1    -0.02   0.00   0.00    -0.02   0.00   0.01     0.00  -0.00  -0.00
    54   1    -0.00  -0.00   0.01    -0.00  -0.00   0.01    -0.00   0.00  -0.00
    55   1    -0.01  -0.01   0.02    -0.01  -0.01   0.01    -0.00   0.00  -0.00
    56   1    -0.07   0.01   0.03    -0.06   0.00   0.03     0.02  -0.00  -0.01
                    112                    113                    114
                      A                      A                      A
 Frequencies --   1428.1161              1430.0206              1433.4673
 Red. masses --      1.3694                 1.3392                 1.3243
 Frc consts  --      1.6455                 1.6135                 1.6032
 IR Inten    --     14.3304                27.1953                 9.7767
  Atom  AN      X      Y      Z        X      Y      Z        X      Y      Z
     1   6    -0.00   0.00   0.00     0.00  -0.00  -0.00     0.00   0.00  -0.00
     2   6    -0.00   0.00  -0.00     0.00  -0.00   0.00     0.00  -0.00  -0.00
     3   6     0.00  -0.00  -0.00    -0.00   0.00   0.00     0.00   0.00   0.00
     4   6    -0.00   0.00   0.00     0.00  -0.00  -0.00     0.00  -0.00  -0.00
     5   6    -0.00  -0.00  -0.00     0.00  -0.00  -0.00    -0.00  -0.00  -0.00
     6   6     0.00  -0.00  -0.00    -0.00   0.00   0.00    -0.00   0.00   0.00
     7   6     0.00  -0.00  -0.00     0.00  -0.00   0.00    -0.00   0.00  -0.00
     8   6    -0.00  -0.00   0.00    -0.00   0.00  -0.00     0.00  -0.00   0.00
     9   6     0.00   0.00  -0.00     0.01   0.00  -0.01     0.00   0.00   0.00
    10   8     0.00  -0.00  -0.00     0.00  -0.00  -0.00    -0.00  -0.00  -0.00
    11   6    -0.01   0.01  -0.01    -0.01   0.01  -0.00     0.00   0.03  -0.01
    12   6     0.00  -0.00   0.00     0.01   0.00  -0.00    -0.01  -0.01   0.01
    13   8    -0.00  -0.00  -0.00    -0.00  -0.00   0.00     0.00   0.00  -0.00
    14   6    -0.00   0.01  -0.00    -0.01   0.05  -0.01     0.00  -0.03   0.01
    15   6     0.01   0.01   0.02    -0.00  -0.00   0.00    -0.01   0.00   0.01
    16   6    -0.02  -0.01   0.01     0.01  -0.01   0.01     0.02  -0.01   0.01
    17   6     0.04   0.01  -0.00    -0.02   0.00  -0.03    -0.03   0.01  -0.06
    18   6    -0.07   0.01   0.00    -0.04   0.00   0.02    -0.10   0.01   0.03
    19   8     0.01  -0.01   0.02     0.00  -0.01   0.01     0.01  -0.02   0.02
    20   8    -0.00  -0.00  -0.00    -0.00   0.00  -0.00    -0.00   0.00  -0.00
    21   6     0.02  -0.01  -0.05     0.00   0.01   0.03     0.01   0.01   0.02
    22   8    -0.01   0.01   0.01     0.00  -0.00  -0.00     0.00  -0.00  -0.00
    23   6    -0.01   0.04   0.08    -0.00  -0.02  -0.04    -0.00  -0.01  -0.03
    24   6    -0.09  -0.01   0.06     0.03   0.00  -0.03     0.02   0.00  -0.02
    25   8    -0.00  -0.01  -0.01     0.00   0.00  -0.00     0.00  -0.00  -0.00
    26   8    -0.00   0.00  -0.00     0.00  -0.00  -0.00     0.00   0.00  -0.00
    27   6    -0.00  -0.02  -0.00    -0.00  -0.08  -0.01     0.00   0.05   0.01
    28   6     0.02  -0.02   0.02     0.06  -0.07   0.07    -0.03   0.03  -0.04
    29   1    -0.02   0.06   0.01    -0.08   0.25   0.05     0.05  -0.16  -0.04
    30   1     0.01   0.07  -0.02     0.05   0.27  -0.06    -0.04  -0.18   0.04
    31   1     0.02   0.04   0.04     0.08   0.18   0.14    -0.05  -0.11  -0.09
    32   1    -0.02   0.09  -0.06    -0.06   0.31  -0.28     0.03  -0.14   0.17
    33   1    -0.07   0.02  -0.08    -0.25   0.06  -0.29     0.11  -0.03   0.14
    34   1    -0.07   0.07  -0.03    -0.28   0.27  -0.10     0.16  -0.13   0.06
    35   1     0.10  -0.15  -0.20    -0.04   0.07   0.08    -0.03   0.07   0.06
    36   1     0.05  -0.02  -0.29    -0.01   0.01   0.13     0.01   0.01   0.11
    37   1    -0.11  -0.18  -0.19     0.05   0.07   0.09     0.04   0.06   0.08
    38   1     0.23   0.11  -0.31    -0.09  -0.05   0.12    -0.06  -0.03   0.07
    39   1     0.32   0.12  -0.05    -0.12  -0.06   0.02    -0.06  -0.04   0.01
    40   1     0.32  -0.12  -0.21    -0.13   0.05   0.09    -0.07   0.03   0.07
    41   1     0.02   0.01  -0.02    -0.01  -0.01  -0.02     0.05   0.03  -0.01
    42   1    -0.00  -0.00   0.00    -0.02  -0.03  -0.00     0.00   0.03   0.01
    43   1     0.10   0.03  -0.03    -0.06  -0.00  -0.03    -0.06   0.01  -0.06
    44   1    -0.07  -0.09  -0.06     0.18   0.01   0.10     0.31  -0.03   0.17
    45   1     0.34  -0.01  -0.11     0.24  -0.02  -0.05     0.57  -0.05  -0.13
    46   1     0.27   0.02  -0.09     0.19   0.01  -0.05     0.45   0.03  -0.11
    47   1    -0.00  -0.00   0.00    -0.01  -0.02   0.04    -0.00  -0.00  -0.00
    48   1    -0.00   0.00   0.00    -0.03   0.01   0.04    -0.00   0.00   0.00
    49   1    -0.00  -0.00   0.00    -0.04  -0.01   0.02     0.00  -0.00   0.00
    50   1     0.00  -0.00  -0.00    -0.00   0.00   0.00    -0.00  -0.00   0.00
    51   1     0.00  -0.00  -0.00    -0.00   0.00   0.00    -0.00   0.00   0.00
    52   1    -0.00  -0.00  -0.00     0.00   0.00   0.00     0.00   0.00   0.00
    53   1    -0.00   0.00   0.00     0.00  -0.00  -0.00     0.00  -0.00  -0.00
    54   1    -0.00  -0.00   0.00     0.00   0.00  -0.00     0.00  -0.00  -0.00
    55   1    -0.00  -0.00   0.00    -0.02  -0.00   0.01     0.01   0.00  -0.01
    56   1    -0.01   0.00   0.00     0.02  -0.00  -0.00    -0.00   0.00  -0.00
                    115                    116                    117
                      A                      A                      A
 Frequencies --   1439.5523              1441.0281              1444.1789
 Red. masses --      1.2563                 1.2756                 1.2821
 Frc consts  --      1.5339                 1.5606                 1.5755
 IR Inten    --     13.8020                32.7423                20.7723
  Atom  AN      X      Y      Z        X      Y      Z        X      Y      Z
     1   6     0.01  -0.00  -0.01    -0.00   0.00   0.00    -0.00   0.00   0.00
     2   6     0.01  -0.00  -0.01    -0.00   0.00   0.00    -0.00   0.00   0.00
     3   6     0.00   0.00   0.01    -0.00  -0.00  -0.00    -0.00  -0.00  -0.00
     4   6     0.00  -0.00  -0.02    -0.00   0.00   0.00    -0.00   0.00   0.00
     5   6     0.00   0.00   0.00    -0.00  -0.00  -0.00     0.00  -0.00  -0.00
     6   6    -0.02   0.00   0.01     0.00  -0.00  -0.00     0.00  -0.00  -0.00
     7   6    -0.02   0.00   0.00     0.00   0.00   0.00     0.01  -0.00   0.00
     8   6    -0.01   0.00   0.02     0.00   0.00  -0.00    -0.00  -0.00  -0.00
     9   6     0.08   0.03  -0.11    -0.01  -0.01   0.02    -0.01  -0.00   0.01
    10   8    -0.00  -0.00   0.00     0.00   0.00   0.00     0.00  -0.00  -0.00
    11   6    -0.00  -0.00  -0.00     0.00  -0.00   0.00    -0.02   0.00   0.00
    12   6     0.00   0.00   0.00     0.00   0.00  -0.00     0.01   0.00  -0.01
    13   8    -0.00  -0.00   0.00    -0.00   0.00   0.00    -0.00  -0.00   0.00
    14   6     0.00   0.00  -0.00    -0.00   0.00  -0.00     0.01   0.03   0.02
    15   6     0.00  -0.00   0.00    -0.00  -0.01  -0.01     0.00  -0.00  -0.00
    16   6     0.00  -0.00  -0.00     0.01  -0.00   0.00    -0.00  -0.00   0.00
    17   6     0.00   0.00   0.00    -0.01   0.01  -0.00    -0.00   0.00  -0.00
    18   6     0.01  -0.00  -0.00     0.01  -0.00  -0.00    -0.01   0.00   0.00
    19   8    -0.00   0.00  -0.00    -0.00   0.00  -0.00     0.00  -0.00   0.00
    20   8    -0.00  -0.00  -0.00    -0.00   0.00  -0.00     0.00   0.00  -0.00
    21   6     0.00   0.00   0.00     0.02   0.02   0.02     0.00  -0.00   0.00
    22   8    -0.00  -0.00   0.00    -0.00  -0.00  -0.00     0.00  -0.00   0.00
    23   6    -0.00  -0.01  -0.01    -0.01  -0.06  -0.10    -0.00  -0.00  -0.00
    24   6    -0.02  -0.00   0.01    -0.09  -0.02   0.04     0.00   0.00  -0.00
    25   8    -0.00   0.00  -0.00     0.00   0.01   0.01    -0.00   0.00   0.00
    26   8    -0.00  -0.00  -0.00     0.00  -0.00   0.00     0.00   0.00   0.00
    27   6    -0.00  -0.01  -0.00     0.00   0.00   0.00    -0.02  -0.12  -0.03
    28   6    -0.01   0.01  -0.01     0.00  -0.00   0.00    -0.05   0.03  -0.06
    29   1    -0.01   0.03   0.00     0.00  -0.00  -0.00    -0.13   0.40   0.18
    30   1     0.01   0.04  -0.01    -0.00  -0.01   0.00     0.18   0.43  -0.06
    31   1     0.01   0.03   0.02    -0.00  -0.00  -0.00     0.12   0.30   0.22
    32   1     0.01  -0.05   0.06    -0.00   0.01  -0.02     0.03  -0.17   0.33
    33   1     0.05  -0.01   0.05    -0.01   0.00  -0.01     0.19  -0.07   0.22
    34   1     0.06  -0.04   0.02    -0.02   0.01  -0.01     0.33  -0.13   0.09
    35   1    -0.02   0.05   0.04    -0.10   0.31   0.26    -0.00   0.01   0.00
    36   1     0.00   0.00   0.06     0.04   0.02   0.43     0.00   0.00   0.01
    37   1     0.02   0.04   0.04     0.14   0.25   0.29     0.00   0.00   0.00
    38   1     0.04   0.04  -0.05     0.22   0.20  -0.25    -0.00  -0.00  -0.00
    39   1     0.06   0.02  -0.01     0.31   0.10  -0.06     0.00  -0.00   0.00
    40   1     0.07  -0.02  -0.02     0.36  -0.12  -0.10    -0.00   0.00   0.00
    41   1    -0.02  -0.01  -0.01    -0.01  -0.00   0.00    -0.01  -0.01   0.02
    42   1    -0.00  -0.01  -0.00    -0.00  -0.01  -0.00    -0.05  -0.01   0.01
    43   1    -0.00  -0.00   0.00    -0.08  -0.02   0.01    -0.01   0.00  -0.00
    44   1    -0.01  -0.00  -0.01     0.01  -0.02   0.02     0.01   0.00   0.01
    45   1    -0.03   0.00   0.01    -0.06   0.00   0.02     0.02  -0.00  -0.01
    46   1    -0.02  -0.00   0.01    -0.02  -0.00   0.01     0.03   0.00  -0.01
    47   1    -0.17  -0.26   0.41     0.03   0.05  -0.07     0.02   0.04  -0.04
    48   1    -0.28   0.13   0.49     0.05  -0.02  -0.09     0.03  -0.02  -0.07
    49   1    -0.43  -0.25   0.25     0.07   0.04  -0.04     0.05   0.04  -0.03
    50   1    -0.02   0.00   0.01     0.00  -0.00  -0.00     0.00  -0.00  -0.00
    51   1    -0.01   0.01   0.06     0.00  -0.00  -0.01     0.00  -0.00  -0.02
    52   1     0.03   0.00   0.03    -0.00  -0.00  -0.00    -0.01  -0.00  -0.01
    53   1     0.04  -0.00  -0.01    -0.01   0.00   0.00    -0.01   0.00   0.00
    54   1     0.01   0.00   0.01    -0.00  -0.00  -0.00    -0.00   0.00  -0.00
    55   1     0.07  -0.01  -0.02    -0.02   0.00   0.00    -0.04   0.00   0.01
    56   1     0.06  -0.00  -0.04    -0.00  -0.00   0.00    -0.00  -0.00   0.01
                    118                    119                    120
                      A                      A                      A
 Frequencies --   1495.1466              1504.4687              1506.2766
 Red. masses --      2.1482                 1.0508                 1.0564
 Frc consts  --      2.8294                 1.4013                 1.4122
 IR Inten    --     11.1232                 7.1428                 1.9512
  Atom  AN      X      Y      Z        X      Y      Z        X      Y      Z
     1   6     0.10  -0.01  -0.05     0.00  -0.00  -0.00     0.01   0.00   0.00
     2   6    -0.11  -0.01  -0.10    -0.00  -0.00  -0.00    -0.01  -0.00  -0.01
     3   6     0.01   0.02   0.10     0.00   0.00   0.00    -0.01   0.00   0.01
     4   6     0.08  -0.02  -0.13     0.00  -0.00  -0.00     0.01  -0.00  -0.01
     5   6    -0.08  -0.01  -0.05    -0.00  -0.00  -0.00    -0.01  -0.00  -0.01
     6   6    -0.08   0.02   0.10    -0.00   0.00   0.00    -0.01   0.00   0.01
     7   6    -0.02   0.01   0.04     0.00  -0.00   0.00     0.01  -0.00  -0.01
     8   6     0.06   0.00  -0.03    -0.00   0.00  -0.00     0.00  -0.01   0.01
     9   6    -0.04  -0.01   0.01    -0.00   0.00   0.00     0.03  -0.04  -0.00
    10   8     0.00  -0.00  -0.00    -0.00  -0.00  -0.00    -0.00   0.00   0.00
    11   6     0.00  -0.00   0.00     0.00  -0.00   0.00     0.00  -0.00  -0.00
    12   6     0.00  -0.00  -0.00    -0.00  -0.00  -0.00     0.00   0.00   0.00
    13   8    -0.00  -0.00  -0.00    -0.00  -0.00  -0.00    -0.00   0.00   0.00
    14   6    -0.00   0.00  -0.00    -0.00   0.00   0.00     0.01  -0.01   0.00
    15   6    -0.00   0.00   0.00     0.00   0.00   0.00     0.00   0.00   0.00
    16   6    -0.00  -0.00  -0.00    -0.00  -0.00   0.00    -0.00   0.00  -0.00
    17   6     0.00  -0.00   0.00     0.00  -0.00   0.00     0.00   0.00   0.00
    18   6    -0.00   0.00  -0.00     0.00   0.00  -0.00     0.00  -0.00  -0.00
    19   8     0.00   0.00  -0.00     0.00   0.00  -0.00    -0.00   0.00   0.00
    20   8     0.00  -0.00   0.00     0.00   0.00  -0.00     0.00  -0.00  -0.00
    21   6     0.00   0.00  -0.00    -0.02  -0.00   0.02    -0.00  -0.00   0.00
    22   8    -0.00   0.00  -0.00     0.00  -0.00  -0.00     0.00  -0.00  -0.00
    23   6     0.00   0.00   0.00    -0.04   0.00  -0.01    -0.00   0.00  -0.00
    24   6    -0.00   0.00  -0.00     0.02  -0.01   0.03     0.00  -0.00   0.00
    25   8    -0.00   0.00  -0.00    -0.00  -0.00  -0.00    -0.00  -0.00  -0.00
    26   8     0.00  -0.00  -0.00    -0.00   0.00  -0.00    -0.00  -0.00  -0.00
    27   6    -0.00  -0.00  -0.01    -0.00   0.00  -0.00     0.02  -0.00   0.01
    28   6     0.00   0.00   0.00     0.00   0.00   0.00    -0.01  -0.01  -0.00
    29   1    -0.00  -0.00   0.09    -0.00   0.00   0.01     0.03  -0.09  -0.20
    30   1     0.07   0.02   0.02     0.01   0.00   0.00    -0.28   0.05  -0.12
    31   1    -0.03  -0.03  -0.01    -0.00  -0.00  -0.00    -0.06   0.10   0.15
    32   1     0.00  -0.01  -0.02     0.00  -0.00  -0.01    -0.00   0.01   0.09
    33   1     0.01  -0.00   0.01     0.00  -0.00   0.00     0.01   0.02  -0.10
    34   1    -0.02  -0.01  -0.00    -0.01  -0.00  -0.00     0.10   0.10   0.02
    35   1    -0.00  -0.01  -0.00     0.08   0.38   0.07     0.00   0.02   0.00
    36   1    -0.02   0.00  -0.01     0.55  -0.04   0.06     0.03  -0.00   0.00
    37   1    -0.00   0.01   0.00     0.01  -0.36  -0.08    -0.00  -0.02  -0.01
    38   1     0.00  -0.00  -0.00    -0.14  -0.16   0.14    -0.01  -0.01   0.01
    39   1     0.00  -0.01   0.00     0.03   0.33  -0.15     0.00   0.02  -0.01
    40   1     0.00   0.00   0.01    -0.17  -0.03  -0.41    -0.01  -0.00  -0.02
    41   1     0.00   0.00   0.03     0.00  -0.00   0.00    -0.01  -0.00  -0.02
    42   1    -0.01   0.02   0.01     0.00   0.00   0.00     0.01  -0.02  -0.00
    43   1     0.01   0.00  -0.00    -0.00   0.00  -0.00     0.00   0.00   0.00
    44   1    -0.00   0.00  -0.00    -0.01   0.01  -0.00    -0.00   0.00  -0.00
    45   1     0.00  -0.00   0.00    -0.00   0.00  -0.00    -0.01   0.00  -0.00
    46   1     0.00   0.00   0.00    -0.00  -0.00  -0.00    -0.00  -0.00  -0.00
    47   1     0.09   0.18  -0.00    -0.00  -0.00  -0.03    -0.01  -0.01   0.43
    48   1     0.20  -0.06   0.06     0.01  -0.00   0.02    -0.20   0.02  -0.41
    49   1    -0.01  -0.05   0.01     0.01  -0.03   0.00    -0.20   0.57  -0.06
    50   1     0.13   0.01   0.08     0.00   0.00   0.00     0.03   0.00  -0.00
    51   1    -0.03   0.07   0.47    -0.00   0.00   0.00     0.01   0.00   0.02
    52   1     0.41   0.06   0.38     0.00   0.00   0.00     0.04   0.00   0.03
    53   1     0.34  -0.00  -0.02     0.00  -0.00  -0.00     0.04  -0.00  -0.01
    54   1     0.05   0.04   0.24     0.00   0.00   0.00     0.01  -0.00   0.00
    55   1    -0.18   0.00   0.09     0.00  -0.00  -0.00    -0.01   0.03   0.02
    56   1    -0.07   0.01   0.06    -0.00  -0.00   0.00    -0.05   0.01   0.02
                    121                    122                    123
                      A                      A                      A
 Frequencies --   1507.8932              1508.8590              1510.3033
 Red. masses --      1.0495                 1.0601                 1.0495
 Frc consts  --      1.4059                 1.4219                 1.4105
 IR Inten    --      0.6711                 2.3290                 1.5145
  Atom  AN      X      Y      Z        X      Y      Z        X      Y      Z
     1   6     0.00   0.00   0.00    -0.00   0.00   0.00     0.00  -0.00  -0.00
     2   6    -0.00  -0.00  -0.00     0.01   0.00   0.00    -0.00  -0.00  -0.00
     3   6    -0.00   0.00   0.00     0.00  -0.00  -0.00     0.00   0.00   0.00
     4   6     0.00   0.00   0.00    -0.00   0.00   0.00     0.00  -0.00  -0.00
     5   6     0.00  -0.00  -0.00     0.00   0.00   0.00    -0.00  -0.00  -0.00
     6   6    -0.00   0.00   0.00     0.00  -0.00  -0.00    -0.00   0.00   0.00
     7   6     0.01  -0.00  -0.01    -0.00   0.00  -0.00     0.00   0.00   0.00
     8   6     0.00  -0.01   0.01     0.00  -0.00   0.00     0.00   0.00  -0.00
     9   6     0.02  -0.02  -0.00     0.00  -0.00  -0.00    -0.00   0.00   0.00
    10   8     0.00  -0.00  -0.00     0.00  -0.00  -0.00    -0.00   0.00   0.00
    11   6    -0.00   0.00   0.00    -0.01  -0.00  -0.00     0.00  -0.00   0.00
    12   6     0.00  -0.00  -0.00     0.00   0.00  -0.00    -0.00   0.00   0.00
    13   8     0.00  -0.00   0.00    -0.00  -0.00   0.00     0.00   0.00   0.00
    14   6    -0.01   0.02  -0.01     0.00   0.02   0.00     0.00  -0.00  -0.00
    15   6     0.00   0.00  -0.00     0.00   0.00   0.00    -0.00  -0.00  -0.00
    16   6    -0.00  -0.00   0.00     0.00  -0.00   0.00     0.00  -0.00   0.00
    17   6     0.00  -0.00  -0.00     0.00  -0.00  -0.00    -0.00  -0.00  -0.00
    18   6    -0.00   0.00  -0.00    -0.02   0.01  -0.03    -0.00   0.00  -0.01
    19   8     0.00  -0.00  -0.00     0.00   0.00  -0.01     0.00   0.00  -0.00
    20   8    -0.00   0.00  -0.00    -0.00   0.00  -0.00    -0.00   0.00   0.00
    21   6     0.00  -0.00   0.00     0.00  -0.00  -0.00     0.02  -0.01  -0.01
    22   8    -0.00   0.00  -0.00     0.00   0.00   0.00    -0.00   0.00   0.00
    23   6    -0.00   0.00  -0.00     0.00   0.00  -0.00     0.01   0.03  -0.01
    24   6     0.00  -0.00   0.00     0.00  -0.00   0.00     0.00  -0.04   0.01
    25   8    -0.00   0.00  -0.00     0.00   0.00   0.00    -0.00   0.00   0.00
    26   8    -0.00  -0.00  -0.00    -0.00  -0.00  -0.00     0.00  -0.00   0.00
    27   6    -0.04   0.00  -0.01     0.01  -0.00  -0.03    -0.00  -0.00   0.01
    28   6     0.02   0.01   0.00    -0.02   0.02   0.03     0.00  -0.00  -0.00
    29   1    -0.08   0.22   0.25     0.06  -0.18   0.31    -0.01   0.03  -0.06
    30   1     0.48  -0.16   0.23     0.06   0.20  -0.04    -0.02  -0.03   0.00
    31   1     0.21  -0.17  -0.32    -0.31  -0.09   0.14     0.05   0.02  -0.02
    32   1    -0.00   0.02  -0.17     0.06  -0.38  -0.29    -0.01   0.05   0.05
    33   1    -0.06  -0.03   0.22     0.41  -0.02  -0.07    -0.06   0.00   0.00
    34   1    -0.19  -0.22  -0.03    -0.24   0.09  -0.07     0.04  -0.00   0.01
    35   1    -0.00  -0.00   0.00    -0.01  -0.02   0.01    -0.27  -0.30   0.20
    36   1     0.00  -0.00  -0.00    -0.01   0.00  -0.01    -0.14   0.00  -0.22
    37   1     0.00  -0.01   0.00     0.01  -0.01   0.01     0.21  -0.13   0.27
    38   1    -0.00   0.00   0.01     0.00   0.02   0.01    -0.02   0.32   0.33
    39   1    -0.00   0.01  -0.00    -0.01   0.01  -0.01    -0.28   0.37  -0.17
    40   1     0.00  -0.00  -0.00     0.01  -0.00  -0.01     0.19  -0.09  -0.20
    41   1     0.00   0.00   0.03    -0.00  -0.00  -0.01    -0.00  -0.00  -0.00
    42   1    -0.02   0.04   0.01    -0.01  -0.02  -0.00     0.00  -0.00  -0.00
    43   1     0.00   0.00  -0.00    -0.00   0.00  -0.01    -0.00   0.00  -0.01
    44   1    -0.00   0.00  -0.00    -0.01  -0.00  -0.01     0.02   0.02   0.01
    45   1     0.01  -0.02   0.01     0.07  -0.27   0.18     0.02  -0.09   0.07
    46   1     0.01   0.01   0.02     0.07   0.12   0.30     0.02   0.04   0.10
    47   1    -0.05  -0.07   0.20     0.02   0.03   0.04    -0.00  -0.00  -0.01
    48   1    -0.17   0.03  -0.21     0.01  -0.01  -0.03     0.00   0.00   0.01
    49   1    -0.07   0.29  -0.04    -0.03   0.04   0.00     0.01  -0.01  -0.00
    50   1     0.01  -0.00  -0.00    -0.01  -0.00  -0.00    -0.00   0.00   0.00
    51   1     0.00  -0.00  -0.01    -0.00  -0.00  -0.01    -0.00  -0.00   0.00
    52   1     0.01   0.00   0.00    -0.02  -0.00  -0.01     0.00  -0.00   0.00
    53   1     0.01  -0.00  -0.00    -0.01   0.00   0.00     0.00   0.00   0.00
    54   1     0.00  -0.00  -0.01    -0.00  -0.00  -0.01    -0.00   0.00   0.00
    55   1     0.02   0.01   0.00     0.02   0.01  -0.01    -0.01  -0.00   0.00
    56   1    -0.03   0.01   0.01     0.01   0.00  -0.01     0.00  -0.00  -0.00
                    124                    125                    126
                      A                      A                      A
 Frequencies --   1511.5017              1521.4910              1524.3682
 Red. masses --      1.0786                 1.0797                 1.0653
 Frc consts  --      1.4519                 1.4726                 1.4585
 IR Inten    --      1.2013                 7.7762                 7.8750
  Atom  AN      X      Y      Z        X      Y      Z        X      Y      Z
     1   6     0.00  -0.00  -0.00    -0.01   0.00   0.00     0.00   0.00   0.00
     2   6    -0.00  -0.00  -0.00     0.02   0.00   0.01    -0.00  -0.00  -0.00
     3   6    -0.00   0.00   0.00     0.01  -0.00  -0.01    -0.00   0.00   0.00
     4   6     0.00  -0.00  -0.00    -0.02   0.00   0.01     0.00   0.00  -0.00
     5   6    -0.00  -0.00  -0.00     0.01   0.00   0.01    -0.00  -0.00  -0.00
     6   6    -0.00   0.00   0.00     0.01  -0.00  -0.01    -0.00   0.00   0.00
     7   6     0.00  -0.00   0.00    -0.03   0.00   0.01     0.00  -0.00  -0.00
     8   6    -0.00   0.00  -0.00    -0.00  -0.01  -0.01    -0.00  -0.00   0.00
     9   6    -0.00   0.00   0.00    -0.02  -0.03  -0.03     0.00  -0.00  -0.00
    10   8    -0.00   0.00   0.00    -0.00   0.00   0.00    -0.00  -0.00   0.00
    11   6     0.00  -0.01   0.00     0.00  -0.00   0.00     0.00   0.00  -0.00
    12   6    -0.00   0.00   0.00     0.01  -0.01  -0.02     0.00  -0.00  -0.00
    13   8     0.00   0.00   0.00    -0.00  -0.00  -0.00    -0.00  -0.00  -0.00
    14   6     0.00  -0.01   0.00     0.00   0.00  -0.00     0.00   0.00  -0.00
    15   6     0.00   0.00   0.00    -0.00   0.00  -0.00     0.00   0.00   0.00
    16   6     0.00  -0.00   0.00    -0.00  -0.00   0.00    -0.00   0.00  -0.00
    17   6     0.00  -0.00  -0.00     0.00  -0.00  -0.00     0.00   0.00   0.00
    18   6    -0.02   0.02  -0.06    -0.00   0.00  -0.00    -0.00  -0.00   0.00
    19   8     0.00   0.01  -0.01     0.00   0.00  -0.00    -0.00  -0.00   0.00
    20   8    -0.00   0.00  -0.00     0.00   0.00  -0.00     0.00  -0.00   0.00
    21   6    -0.01  -0.00   0.00     0.00   0.00   0.00    -0.04  -0.02  -0.03
    22   8     0.00   0.00   0.00    -0.00   0.00  -0.00     0.00   0.00   0.00
    23   6    -0.00  -0.01   0.00    -0.00   0.00  -0.00    -0.02   0.01   0.01
    24   6    -0.00   0.01  -0.00     0.00   0.00   0.00    -0.00  -0.01  -0.04
    25   8     0.00  -0.00  -0.00     0.00   0.00   0.00     0.00  -0.00  -0.00
    26   8    -0.00   0.00  -0.00     0.00  -0.00  -0.00    -0.00   0.00   0.00
    27   6    -0.01  -0.00   0.02    -0.00   0.00  -0.00     0.00   0.00  -0.00
    28   6     0.00  -0.01  -0.01     0.01  -0.00  -0.01     0.00  -0.00  -0.00
    29   1    -0.03   0.11  -0.20     0.01  -0.02   0.03     0.00  -0.01   0.01
    30   1    -0.05  -0.12   0.02     0.02   0.01   0.01     0.00   0.01  -0.00
    31   1     0.20   0.07  -0.07    -0.02  -0.02  -0.00    -0.01  -0.00   0.01
    32   1    -0.03   0.16   0.14    -0.02   0.11   0.01    -0.00   0.01   0.00
    33   1    -0.17   0.01   0.00    -0.12  -0.00   0.08    -0.01  -0.00   0.00
    34   1     0.13  -0.01   0.03     0.00  -0.09   0.01     0.00  -0.01   0.00
    35   1     0.06   0.07  -0.04    -0.00  -0.00   0.00     0.08   0.25   0.03
    36   1     0.04  -0.00   0.05    -0.00  -0.00  -0.00     0.37  -0.03   0.00
    37   1    -0.05   0.02  -0.06     0.00  -0.00   0.00    -0.02  -0.26  -0.10
    38   1     0.01  -0.06  -0.07    -0.00  -0.02  -0.01     0.17   0.45   0.09
    39   1     0.05  -0.09   0.04     0.01   0.00  -0.00    -0.33  -0.20   0.10
    40   1    -0.03   0.02   0.05    -0.01   0.00  -0.01     0.34  -0.01   0.44
    41   1    -0.02  -0.01  -0.02     0.03   0.02   0.21     0.00   0.00   0.02
    42   1     0.02  -0.02  -0.01    -0.09   0.18   0.05    -0.01   0.01   0.00
    43   1    -0.01   0.00  -0.01    -0.00   0.00  -0.00     0.01   0.00   0.01
    44   1    -0.04  -0.01  -0.03    -0.00   0.00  -0.00     0.00  -0.00   0.00
    45   1     0.08  -0.48   0.35     0.01  -0.03   0.02    -0.00   0.01  -0.01
    46   1     0.09   0.23   0.55     0.01   0.01   0.03    -0.00  -0.01  -0.01
    47   1    -0.02  -0.03  -0.04     0.29   0.51   0.25     0.01   0.01   0.01
    48   1    -0.02   0.01   0.02     0.48  -0.14   0.08     0.01  -0.00   0.00
    49   1     0.03  -0.03  -0.01    -0.38   0.05   0.15    -0.01   0.00   0.00
    50   1     0.01  -0.00   0.00    -0.06   0.00   0.01     0.00  -0.00  -0.00
    51   1     0.00   0.00   0.01    -0.01  -0.00  -0.03     0.00  -0.00  -0.00
    52   1     0.01   0.00   0.01    -0.06  -0.01  -0.05     0.00   0.00   0.00
    53   1     0.01  -0.00  -0.00    -0.06   0.00   0.01     0.00   0.00  -0.00
    54   1     0.00   0.00   0.00    -0.01  -0.00  -0.02     0.00   0.00   0.00
    55   1    -0.02  -0.00   0.01     0.01   0.01  -0.02     0.00   0.00  -0.00
    56   1    -0.00  -0.00   0.00     0.12  -0.01  -0.06    -0.00   0.00   0.00
                    127                    128                    129
                      A                      A                      A
 Frequencies --   1528.6809              1533.2644              1533.4176
 Red. masses --      1.0730                 1.0524                 1.0546
 Frc consts  --      1.4774                 1.4577                 1.4611
 IR Inten    --      2.3012                 7.8527                11.1342
  Atom  AN      X      Y      Z        X      Y      Z        X      Y      Z
     1   6    -0.00  -0.00  -0.00    -0.00  -0.00  -0.00    -0.00  -0.00  -0.00
     2   6     0.00   0.00   0.00     0.00   0.00   0.00     0.00   0.00   0.00
     3   6     0.00  -0.00  -0.00     0.00  -0.00  -0.00     0.00  -0.00  -0.00
     4   6    -0.00   0.00   0.00    -0.00  -0.00  -0.00    -0.00  -0.00  -0.00
     5   6     0.00   0.00   0.00     0.00   0.00   0.00     0.00   0.00   0.00
     6   6     0.00  -0.00  -0.00     0.00  -0.00  -0.00     0.00  -0.00  -0.00
     7   6    -0.01   0.00  -0.00    -0.00   0.00   0.00    -0.01   0.00   0.00
     8   6     0.00  -0.00   0.00     0.00  -0.00  -0.00     0.00  -0.00  -0.00
     9   6     0.00  -0.00  -0.00    -0.01  -0.00  -0.01    -0.01  -0.01  -0.01
    10   8     0.00   0.00   0.00     0.00  -0.00  -0.00     0.00  -0.00  -0.00
    11   6     0.01  -0.00   0.00    -0.00   0.01   0.00    -0.00   0.01   0.00
    12   6    -0.00   0.01   0.01    -0.00   0.01   0.02    -0.01   0.01   0.02
    13   8     0.00   0.00   0.01     0.00   0.00   0.00     0.00   0.00   0.00
    14   6    -0.02  -0.03  -0.04    -0.01  -0.00   0.01    -0.02  -0.01   0.01
    15   6    -0.00   0.00   0.00     0.00  -0.00  -0.00     0.00   0.00   0.01
    16   6     0.00   0.00  -0.00     0.00   0.00   0.00    -0.00   0.00  -0.00
    17   6    -0.00   0.00   0.00    -0.00  -0.00  -0.00     0.00   0.00   0.00
    18   6     0.00   0.00  -0.00    -0.00   0.00   0.00     0.00  -0.00   0.00
    19   8    -0.00   0.00  -0.00     0.00  -0.00   0.00     0.00  -0.00   0.00
    20   8    -0.00  -0.00   0.00    -0.00   0.00  -0.00     0.00  -0.00   0.00
    21   6     0.00  -0.00   0.00     0.00  -0.03   0.01    -0.01   0.02  -0.01
    22   8     0.00  -0.00   0.00    -0.00   0.00  -0.00     0.00  -0.00   0.00
    23   6     0.00  -0.00   0.00     0.01  -0.03   0.02    -0.01   0.02  -0.01
    24   6     0.00  -0.00   0.00     0.01  -0.02  -0.00    -0.00   0.01  -0.00
    25   8     0.00  -0.00  -0.00    -0.00   0.00   0.00    -0.00  -0.00  -0.00
    26   8    -0.00  -0.00  -0.00     0.00  -0.00   0.00     0.00   0.00  -0.00
    27   6    -0.00   0.03  -0.03    -0.01  -0.00   0.01    -0.02  -0.00   0.01
    28   6    -0.01  -0.04   0.00    -0.02  -0.00   0.01    -0.02  -0.00   0.02
    29   1     0.04  -0.11   0.44    -0.05   0.14  -0.11    -0.06   0.19  -0.14
    30   1     0.30   0.09   0.09     0.05  -0.13   0.06     0.07  -0.18   0.08
    31   1    -0.24  -0.24  -0.06     0.20   0.03  -0.12     0.26   0.03  -0.16
    32   1    -0.03   0.19   0.37     0.03  -0.18   0.01     0.04  -0.24   0.03
    33   1    -0.16   0.07  -0.33     0.21   0.01  -0.18     0.27   0.02  -0.26
    34   1     0.37   0.30   0.07     0.02   0.20  -0.01     0.04   0.28  -0.02
    35   1     0.01   0.00  -0.01     0.25   0.09  -0.27    -0.18  -0.06   0.20
    36   1    -0.01   0.00   0.01    -0.14   0.03   0.23     0.12  -0.02  -0.17
    37   1    -0.01   0.01  -0.01    -0.23   0.32  -0.25     0.17  -0.25   0.18
    38   1    -0.00   0.00   0.01    -0.03   0.18   0.22     0.03  -0.12  -0.16
    39   1    -0.00   0.01  -0.00    -0.18   0.23  -0.10     0.12  -0.17   0.08
    40   1     0.00  -0.00  -0.01     0.12  -0.05  -0.13    -0.08   0.04   0.11
    41   1    -0.03  -0.02  -0.07    -0.02  -0.02  -0.16    -0.03  -0.02  -0.22
    42   1     0.04  -0.07  -0.02     0.07  -0.14  -0.04     0.10  -0.19  -0.05
    43   1     0.00  -0.00   0.00    -0.02   0.00  -0.01     0.02  -0.00   0.01
    44   1    -0.01  -0.00  -0.00     0.02   0.01   0.01    -0.01  -0.01  -0.00
    45   1    -0.02  -0.01   0.02     0.01   0.02  -0.02    -0.01   0.04  -0.03
    46   1    -0.01   0.01   0.02    -0.01  -0.01  -0.03    -0.00  -0.02  -0.04
    47   1    -0.00  -0.01   0.03     0.06   0.10   0.04     0.08   0.13   0.05
    48   1    -0.02   0.00  -0.02     0.10  -0.03   0.02     0.12  -0.04   0.02
    49   1    -0.01   0.03  -0.00    -0.07   0.00   0.03    -0.09   0.01   0.03
    50   1    -0.01   0.00   0.00    -0.02   0.00   0.00    -0.02   0.00   0.00
    51   1    -0.00  -0.00  -0.00    -0.00   0.00   0.00    -0.00   0.00   0.00
    52   1    -0.01  -0.00  -0.01    -0.01  -0.00  -0.01    -0.01  -0.00  -0.01
    53   1    -0.01   0.00   0.00    -0.01   0.00   0.00    -0.02   0.00   0.00
    54   1    -0.00  -0.00  -0.00    -0.00   0.00   0.01    -0.00  -0.00   0.00
    55   1     0.02   0.00  -0.01    -0.01  -0.00   0.00    -0.01  -0.00   0.00
    56   1    -0.00   0.00  -0.00     0.02  -0.00  -0.01     0.03  -0.00  -0.01
                    130                    131                    132
                      A                      A                      A
 Frequencies --   1541.9120              1544.3647              1622.7090
 Red. masses --      2.0085                 1.1062                 3.9877
 Frc consts  --      2.8135                 1.5545                 6.1867
 IR Inten    --      1.6056                 4.8805                32.3953
  Atom  AN      X      Y      Z        X      Y      Z        X      Y      Z
     1   6    -0.03  -0.02  -0.10    -0.00  -0.00  -0.02     0.02   0.02   0.14
     2   6    -0.07   0.02   0.11    -0.02   0.00   0.02    -0.05  -0.02  -0.14
     3   6     0.12  -0.00  -0.01     0.02   0.00   0.00     0.13   0.00   0.00
     4   6    -0.02  -0.02  -0.12    -0.00  -0.00  -0.02    -0.10  -0.01  -0.09
     5   6    -0.05   0.01   0.08    -0.01   0.00   0.01     0.20   0.02   0.16
     6   6     0.14  -0.00  -0.02     0.02  -0.00  -0.00    -0.13  -0.01  -0.07
     7   6    -0.02   0.00  -0.03     0.00  -0.00  -0.01    -0.21   0.02   0.08
     8   6     0.04  -0.00  -0.01     0.01   0.00  -0.00     0.22   0.00  -0.06
     9   6    -0.01  -0.00   0.01     0.01   0.01   0.01    -0.03  -0.01   0.02
    10   8    -0.00  -0.00   0.00     0.00   0.00  -0.00    -0.00  -0.00  -0.00
    11   6    -0.00  -0.00  -0.00     0.00   0.00   0.00     0.00   0.00  -0.00
    12   6    -0.00   0.01   0.02     0.01  -0.04  -0.05    -0.00  -0.00  -0.00
    13   8    -0.00   0.00   0.00     0.00  -0.01  -0.01    -0.00  -0.00  -0.00
    14   6     0.01   0.00  -0.01    -0.02  -0.00   0.02     0.00  -0.00   0.00
    15   6     0.00   0.00   0.00    -0.00   0.00  -0.01    -0.00   0.00   0.01
    16   6    -0.00  -0.00   0.00    -0.00  -0.00   0.00    -0.00  -0.00  -0.00
    17   6    -0.00  -0.00  -0.00     0.00   0.00   0.00     0.00  -0.00  -0.00
    18   6    -0.00  -0.00   0.00     0.00   0.00  -0.00    -0.00  -0.00   0.00
    19   8     0.00   0.00  -0.00    -0.00  -0.00   0.00    -0.00   0.00  -0.00
    20   8    -0.00   0.00  -0.00     0.00   0.00  -0.00     0.00  -0.00  -0.00
    21   6    -0.00   0.00   0.00     0.00  -0.00   0.00    -0.00  -0.00   0.00
    22   8     0.00  -0.00   0.00    -0.00  -0.00   0.00     0.00   0.00  -0.00
    23   6    -0.00   0.00   0.00     0.00  -0.00  -0.00    -0.00   0.00   0.00
    24   6     0.00   0.00  -0.00    -0.00  -0.00   0.00     0.00  -0.00  -0.00
    25   8    -0.00  -0.00  -0.00     0.00   0.00   0.00    -0.00   0.01  -0.00
    26   8     0.00  -0.00  -0.00    -0.00  -0.00   0.00    -0.00  -0.02  -0.00
    27   6     0.00  -0.00  -0.00    -0.01   0.00   0.00     0.00  -0.00   0.00
    28   6     0.01   0.00  -0.00    -0.01  -0.01   0.01    -0.00   0.00  -0.00
    29   1     0.01  -0.03   0.01    -0.02   0.08  -0.06    -0.00   0.00  -0.02
    30   1    -0.02   0.04  -0.02     0.03  -0.10   0.04    -0.02   0.00  -0.01
    31   1    -0.04   0.01   0.03     0.11   0.01  -0.07     0.01   0.02   0.01
    32   1    -0.01   0.05  -0.03     0.02  -0.13   0.06     0.00  -0.00  -0.00
    33   1    -0.06  -0.01   0.10     0.16   0.03  -0.25     0.00  -0.00   0.00
    34   1    -0.03  -0.11   0.00     0.06   0.26  -0.01    -0.00  -0.00  -0.00
    35   1    -0.00   0.00   0.00     0.00  -0.00  -0.00     0.00   0.01  -0.00
    36   1     0.01  -0.00  -0.00    -0.01   0.00   0.00     0.01  -0.00  -0.00
    37   1     0.00  -0.01   0.00    -0.00   0.01   0.00    -0.00  -0.01  -0.01
    38   1     0.00  -0.00  -0.00    -0.00  -0.00   0.00     0.00   0.00   0.00
    39   1     0.00  -0.01   0.00     0.00   0.00  -0.00    -0.00   0.00  -0.00
    40   1    -0.00   0.00   0.00    -0.00  -0.00  -0.00     0.00  -0.00   0.00
    41   1    -0.04  -0.03  -0.18     0.13   0.08   0.57     0.00   0.00   0.01
    42   1     0.07  -0.17  -0.05    -0.21   0.54   0.15     0.00   0.01   0.00
    43   1     0.00   0.00  -0.01    -0.00   0.00  -0.00     0.01   0.01  -0.01
    44   1     0.00  -0.00   0.00    -0.00   0.00  -0.00    -0.00   0.00  -0.00
    45   1     0.00  -0.00  -0.00    -0.01  -0.00   0.00     0.00   0.00  -0.00
    46   1     0.00   0.00   0.00     0.00   0.00  -0.00    -0.00  -0.00  -0.00
    47   1    -0.03  -0.04   0.03    -0.07  -0.12  -0.04    -0.11  -0.11   0.05
    48   1    -0.05   0.01  -0.04    -0.11   0.03  -0.02    -0.12   0.02  -0.02
    49   1     0.03   0.05  -0.02     0.07  -0.00  -0.03     0.13   0.06  -0.09
    50   1    -0.43   0.03   0.18    -0.07   0.00   0.03    -0.18   0.01   0.11
    51   1    -0.13   0.06   0.37    -0.02   0.01   0.07    -0.14   0.01   0.03
    52   1    -0.12   0.01   0.04    -0.01   0.00   0.01    -0.31  -0.04  -0.28
    53   1    -0.43   0.03   0.18    -0.07   0.00   0.03     0.07  -0.02  -0.15
    54   1    -0.15   0.06   0.38    -0.03   0.01   0.07     0.12  -0.06  -0.31
    55   1    -0.03  -0.01   0.03    -0.01  -0.01   0.01    -0.37   0.01   0.25
    56   1     0.09  -0.01  -0.08    -0.00  -0.00  -0.00     0.23   0.01  -0.14
                    133                    134                    135
                      A                      A                      A
 Frequencies --   1639.4877              1656.0405              2979.8528
 Red. masses --      4.3003                 5.3307                 1.0829
 Frc consts  --      6.8104                 8.6134                 5.6653
 IR Inten    --     46.7870                 5.9529                36.6143
  Atom  AN      X      Y      Z        X      Y      Z        X      Y      Z
     1   6     0.06   0.01   0.08     0.13  -0.04  -0.26     0.00   0.00  -0.00
     2   6    -0.21  -0.01  -0.07    -0.10   0.02   0.14    -0.00   0.00  -0.00
     3   6     0.14   0.00   0.02     0.23  -0.03  -0.17     0.00   0.00   0.00
     4   6    -0.07  -0.02  -0.10    -0.13   0.04   0.26    -0.00  -0.00   0.00
     5   6     0.15   0.02   0.13     0.08  -0.02  -0.12    -0.00  -0.00   0.00
     6   6    -0.12  -0.01  -0.04    -0.23   0.03   0.16     0.00   0.00   0.00
     7   6     0.28  -0.03  -0.06    -0.03   0.01  -0.01     0.00   0.00  -0.00
     8   6    -0.24  -0.00   0.05     0.05  -0.01  -0.01    -0.00   0.00   0.00
     9   6     0.03   0.01  -0.02    -0.01   0.00   0.00     0.00   0.00  -0.00
    10   8     0.00   0.00   0.00    -0.00  -0.00  -0.00     0.00   0.00  -0.00
    11   6    -0.00  -0.00   0.00     0.00  -0.00   0.00    -0.00   0.00  -0.00
    12   6    -0.00   0.00   0.00     0.00  -0.00  -0.00     0.00  -0.00   0.00
    13   8     0.00   0.00   0.00    -0.00  -0.00  -0.00     0.00   0.00   0.00
    14   6    -0.00   0.00  -0.00     0.00   0.00   0.00    -0.00  -0.00  -0.00
    15   6     0.00  -0.00  -0.02     0.00   0.00  -0.00    -0.00  -0.00   0.00
    16   6     0.00   0.00   0.00    -0.00  -0.00   0.00     0.00   0.00   0.00
    17   6    -0.00   0.00   0.00    -0.00  -0.00  -0.00     0.05  -0.01  -0.07
    18   6     0.00   0.00  -0.00     0.00   0.00   0.00     0.00   0.00   0.01
    19   8     0.00  -0.00   0.00     0.00  -0.00   0.00    -0.00  -0.00   0.00
    20   8    -0.00   0.00   0.00     0.00   0.00   0.00    -0.00   0.00   0.00
    21   6     0.00   0.00  -0.00     0.00   0.00   0.00     0.00  -0.00   0.00
    22   8    -0.00  -0.00   0.00     0.00   0.00   0.00    -0.00  -0.00  -0.00
    23   6     0.00  -0.00  -0.00    -0.00   0.00   0.00    -0.00   0.00  -0.00
    24   6    -0.00   0.00   0.00    -0.00   0.00  -0.00    -0.00   0.00   0.00
    25   8     0.00  -0.01   0.00    -0.00  -0.00  -0.00     0.00   0.00  -0.00
    26   8     0.00   0.02   0.01     0.00  -0.00   0.00     0.00  -0.00  -0.00
    27   6     0.00   0.00  -0.00     0.00  -0.00   0.00     0.00   0.00   0.00
    28   6     0.00  -0.00   0.00    -0.00  -0.00   0.00     0.00   0.00  -0.00
    29   1     0.00  -0.01   0.01     0.00  -0.00  -0.00    -0.00  -0.00   0.00
    30   1     0.01  -0.00   0.00    -0.01   0.00  -0.00     0.00  -0.00  -0.00
    31   1    -0.01  -0.01  -0.00     0.00   0.00   0.00     0.00  -0.00   0.00
    32   1    -0.00   0.00   0.00    -0.00  -0.00  -0.00    -0.00  -0.00   0.00
    33   1    -0.00   0.00  -0.00     0.00  -0.00   0.00    -0.00  -0.00  -0.00
    34   1     0.00   0.00   0.00    -0.00   0.00  -0.00     0.00  -0.00   0.00
    35   1    -0.01  -0.01   0.00     0.00   0.00  -0.00     0.00  -0.00   0.00
    36   1    -0.01   0.00   0.00     0.00  -0.00   0.00     0.00  -0.00   0.00
    37   1     0.01   0.01   0.01    -0.00  -0.00  -0.00     0.00   0.00  -0.00
    38   1    -0.00  -0.00  -0.00     0.00  -0.00  -0.00     0.01  -0.01   0.01
    39   1     0.00  -0.00   0.00     0.00  -0.00   0.00    -0.00  -0.02  -0.03
    40   1    -0.00   0.00  -0.00     0.00   0.00   0.00     0.00   0.01   0.00
    41   1    -0.00  -0.00  -0.01     0.00   0.00   0.00    -0.00   0.00  -0.00
    42   1    -0.01  -0.01  -0.00    -0.00   0.00   0.00     0.00   0.00   0.00
    43   1    -0.01  -0.01   0.01     0.00   0.00  -0.01     0.00  -0.04  -0.03
    44   1     0.00  -0.00   0.00     0.00  -0.00   0.00    -0.53   0.16   0.81
    45   1    -0.00  -0.00   0.00    -0.00   0.00  -0.00    -0.02  -0.08  -0.09
    46   1    -0.00   0.00   0.00    -0.00  -0.00  -0.00    -0.00   0.04  -0.01
    47   1     0.11   0.11  -0.08    -0.02  -0.01   0.02    -0.00   0.00  -0.00
    48   1     0.12  -0.02   0.01    -0.01   0.00  -0.01    -0.00  -0.00   0.00
    49   1    -0.11  -0.06   0.08     0.01   0.01  -0.01     0.00   0.00   0.00
    50   1    -0.17   0.02   0.13    -0.39   0.00   0.03     0.00  -0.00  -0.00
    51   1    -0.12   0.02   0.10    -0.01  -0.06  -0.37     0.00   0.00   0.00
    52   1    -0.21  -0.03  -0.18     0.12  -0.01  -0.10     0.00   0.00  -0.00
    53   1     0.09  -0.02  -0.12     0.35  -0.00  -0.02    -0.00   0.00  -0.00
    54   1     0.09   0.01  -0.02    -0.00   0.07   0.40     0.00   0.00  -0.00
    55   1     0.32   0.00  -0.25    -0.03  -0.01   0.03    -0.00  -0.00  -0.00
    56   1    -0.45   0.01   0.29     0.05  -0.02  -0.05    -0.00   0.00  -0.00
                    136                    137                    138
                      A                      A                      A
 Frequencies --   3038.5945              3051.7714              3059.6564
 Red. masses --      1.0481                 1.0675                 1.0351
 Frc consts  --      5.7017                 5.8578                 5.7093
 IR Inten    --     25.9318                37.1477                11.0183
  Atom  AN      X      Y      Z        X      Y      Z        X      Y      Z
     1   6    -0.00   0.00  -0.00     0.00   0.00  -0.00     0.00  -0.00   0.00
     2   6    -0.00  -0.00   0.00    -0.00   0.00  -0.00     0.00  -0.00   0.00
     3   6     0.00  -0.00  -0.00     0.00   0.00   0.00    -0.00  -0.00  -0.00
     4   6    -0.00   0.00   0.00    -0.00   0.00   0.00     0.00   0.00   0.00
     5   6    -0.00   0.00   0.00    -0.00   0.00   0.00     0.00  -0.00  -0.00
     6   6    -0.00   0.00   0.00     0.00   0.00   0.00    -0.00  -0.00  -0.00
     7   6     0.00   0.00  -0.00     0.00   0.00  -0.00    -0.00   0.00  -0.00
     8   6     0.00  -0.00  -0.00    -0.00   0.00   0.00     0.00   0.00  -0.00
     9   6    -0.03  -0.05   0.03    -0.00  -0.00   0.00     0.00   0.00  -0.00
    10   8     0.00  -0.00   0.00    -0.00   0.00   0.00     0.00  -0.00  -0.00
    11   6    -0.00   0.00  -0.00     0.00  -0.00   0.00    -0.00   0.00   0.00
    12   6     0.00  -0.00  -0.00    -0.00   0.00   0.00     0.00  -0.00  -0.00
    13   8    -0.00   0.00   0.00     0.00   0.00   0.00    -0.00  -0.00  -0.00
    14   6    -0.00  -0.00  -0.00    -0.00   0.00  -0.00     0.00  -0.00   0.00
    15   6    -0.00   0.00  -0.00     0.00   0.00   0.00     0.00  -0.00  -0.00
    16   6     0.00  -0.00  -0.00    -0.00   0.00   0.00     0.00  -0.00  -0.00
    17   6    -0.00   0.00  -0.00     0.01  -0.00  -0.01    -0.00   0.00   0.00
    18   6     0.00   0.00   0.00    -0.02  -0.03  -0.06     0.00   0.00   0.00
    19   8    -0.00  -0.00   0.00     0.00   0.00  -0.00    -0.00  -0.00   0.00
    20   8    -0.00  -0.00  -0.00    -0.00   0.00  -0.00    -0.00  -0.00  -0.00
    21   6     0.00   0.00   0.00     0.00  -0.00   0.00     0.00   0.00  -0.00
    22   8    -0.00  -0.00   0.00    -0.00  -0.00   0.00    -0.00   0.00   0.00
    23   6    -0.00  -0.00  -0.00     0.00   0.00   0.00     0.01   0.01   0.01
    24   6    -0.00  -0.00   0.00    -0.00  -0.00   0.00    -0.04  -0.01   0.02
    25   8     0.00  -0.00   0.00     0.00   0.00  -0.00    -0.00  -0.00   0.00
    26   8     0.00   0.00  -0.00    -0.00  -0.00  -0.00    -0.00  -0.00   0.00
    27   6     0.00   0.00  -0.00     0.00  -0.00   0.00    -0.00   0.00  -0.00
    28   6     0.00   0.00   0.00     0.00  -0.00   0.00    -0.00   0.00  -0.00
    29   1    -0.00  -0.00   0.00     0.00   0.00   0.00    -0.00  -0.00  -0.00
    30   1    -0.00   0.00   0.00     0.00   0.00  -0.00     0.00  -0.00  -0.00
    31   1    -0.00  -0.00   0.00    -0.00   0.00  -0.00     0.00  -0.00   0.00
    32   1    -0.00  -0.00   0.00    -0.02  -0.00   0.00     0.00   0.00  -0.00
    33   1     0.00   0.00   0.00     0.00   0.01   0.00    -0.00  -0.00  -0.00
    34   1     0.00  -0.00  -0.00     0.01  -0.00  -0.03    -0.00   0.00   0.00
    35   1     0.00  -0.00   0.00    -0.00   0.00  -0.00    -0.20   0.09  -0.14
    36   1     0.00   0.00  -0.00    -0.00  -0.00   0.00    -0.02  -0.27   0.04
    37   1    -0.00  -0.00   0.00     0.00   0.00  -0.00     0.13   0.03  -0.07
    38   1     0.00  -0.00   0.00     0.02  -0.01   0.01     0.39  -0.22   0.26
    39   1    -0.00  -0.00  -0.00    -0.00  -0.01  -0.03    -0.05  -0.23  -0.46
    40   1     0.00   0.00  -0.00     0.00   0.03  -0.00     0.10   0.53  -0.07
    41   1    -0.00   0.00  -0.00     0.01  -0.01   0.00    -0.00   0.00  -0.00
    42   1     0.00   0.00   0.00    -0.00   0.00  -0.00    -0.00  -0.00   0.00
    43   1    -0.00   0.00   0.00     0.00  -0.04  -0.02    -0.00   0.01   0.01
    44   1    -0.00  -0.00   0.00    -0.07   0.02   0.10     0.02  -0.01  -0.03
    45   1    -0.00  -0.00  -0.00     0.22   0.60   0.69    -0.01  -0.02  -0.03
    46   1    -0.00   0.00  -0.00     0.03  -0.29   0.08    -0.00   0.01  -0.00
    47   1     0.24  -0.17   0.03     0.00  -0.00   0.00    -0.00   0.00  -0.00
    48   1     0.22   0.86  -0.03     0.00   0.00  -0.00    -0.00  -0.00  -0.00
    49   1    -0.16  -0.10  -0.30    -0.00  -0.00  -0.00     0.00   0.00   0.00
    50   1     0.00   0.00   0.00     0.00  -0.00  -0.00     0.00   0.00   0.00
    51   1     0.00   0.00   0.00     0.00   0.00   0.00    -0.00  -0.00  -0.00
    52   1     0.00  -0.00  -0.00     0.00  -0.00  -0.00    -0.00  -0.00   0.00
    53   1    -0.00  -0.00  -0.00    -0.00  -0.00  -0.00     0.00   0.00   0.00
    54   1     0.00  -0.00  -0.00    -0.00   0.00  -0.00    -0.00   0.00  -0.00
    55   1    -0.00  -0.00  -0.00     0.00  -0.00  -0.00    -0.00   0.00  -0.00
    56   1     0.00  -0.00   0.01    -0.00  -0.00  -0.00     0.00   0.00   0.00
                    139                    140                    141
                      A                      A                      A
 Frequencies --   3065.2609              3067.1106              3075.1413
 Red. masses --      1.0371                 1.0371                 1.0360
 Frc consts  --      5.7415                 5.7481                 5.7720
 IR Inten    --     14.6315                30.5288                12.1619
  Atom  AN      X      Y      Z        X      Y      Z        X      Y      Z
     1   6     0.00   0.00   0.00     0.00  -0.00   0.00    -0.00  -0.00  -0.00
     2   6    -0.00  -0.00   0.00     0.00   0.00  -0.00     0.00   0.00   0.00
     3   6     0.00   0.00  -0.00    -0.00   0.00   0.00     0.00   0.00   0.00
     4   6    -0.00   0.00  -0.00     0.00   0.00   0.00    -0.00   0.00   0.00
     5   6    -0.00   0.00   0.00     0.00  -0.00  -0.00     0.00  -0.00  -0.00
     6   6    -0.00   0.00   0.00     0.00  -0.00  -0.00     0.00   0.00   0.00
     7   6     0.00  -0.00  -0.00    -0.00  -0.00   0.00     0.00   0.00  -0.00
     8   6    -0.00   0.00  -0.00     0.00  -0.00  -0.00     0.00   0.00   0.00
     9   6    -0.00  -0.00   0.00     0.00   0.00  -0.00    -0.00  -0.00  -0.00
    10   8    -0.00   0.00   0.00    -0.00  -0.00  -0.00     0.00   0.00  -0.00
    11   6     0.00  -0.00   0.00     0.00   0.00   0.00    -0.00   0.00   0.00
    12   6     0.00  -0.00  -0.00    -0.00   0.00   0.00     0.00  -0.00  -0.00
    13   8    -0.00   0.00  -0.00    -0.00  -0.00   0.00    -0.00  -0.00  -0.00
    14   6     0.00  -0.00   0.00     0.00   0.00  -0.00     0.00   0.00   0.00
    15   6     0.00  -0.00   0.00    -0.00   0.00  -0.00     0.00  -0.00   0.00
    16   6     0.00   0.00   0.00     0.00  -0.00  -0.00     0.00  -0.00  -0.00
    17   6     0.00  -0.00  -0.00    -0.00   0.00   0.00     0.00  -0.00  -0.00
    18   6    -0.00  -0.00  -0.00     0.00   0.00   0.00    -0.00  -0.00  -0.00
    19   8     0.00   0.00   0.00    -0.00  -0.00   0.00     0.00  -0.00   0.00
    20   8    -0.00  -0.00  -0.00    -0.00   0.00  -0.00    -0.00  -0.00  -0.00
    21   6     0.00   0.00   0.00     0.00   0.00   0.00     0.00   0.00   0.00
    22   8    -0.00  -0.00   0.00     0.00  -0.00   0.00    -0.00  -0.00  -0.00
    23   6    -0.00  -0.00  -0.00    -0.02  -0.03  -0.03     0.00   0.00   0.00
    24   6    -0.00  -0.00   0.00    -0.02  -0.00   0.01     0.00   0.00  -0.00
    25   8    -0.00   0.00  -0.00     0.00  -0.00  -0.00    -0.00   0.00  -0.00
    26   8    -0.00  -0.00  -0.00     0.00   0.00   0.00    -0.00  -0.00  -0.00
    27   6     0.00   0.01   0.01    -0.00  -0.00  -0.00    -0.01  -0.04  -0.02
    28   6    -0.03   0.01  -0.04     0.00  -0.00   0.00    -0.01   0.00  -0.01
    29   1    -0.18  -0.04   0.00     0.01   0.00  -0.00     0.55   0.13  -0.01
    30   1     0.07  -0.03  -0.18    -0.00   0.00   0.01    -0.22   0.10   0.55
    31   1     0.07  -0.07   0.10    -0.00   0.00  -0.00    -0.24   0.26  -0.33
    32   1     0.57   0.13  -0.05    -0.01  -0.00   0.00     0.17   0.04  -0.01
    33   1    -0.06  -0.37  -0.10     0.00   0.01   0.00    -0.02  -0.13  -0.03
    34   1    -0.20   0.10   0.60     0.00  -0.00  -0.01    -0.06   0.03   0.18
    35   1     0.01  -0.00   0.01     0.45  -0.19   0.30    -0.00   0.00  -0.00
    36   1     0.00   0.01  -0.00     0.05   0.60  -0.09    -0.00  -0.00   0.00
    37   1    -0.01  -0.00   0.00    -0.30  -0.07   0.17     0.00   0.00  -0.00
    38   1     0.00  -0.00   0.00     0.17  -0.09   0.11    -0.00   0.00  -0.00
    39   1    -0.00  -0.00  -0.00    -0.02  -0.11  -0.23     0.00   0.00   0.00
    40   1     0.00   0.00  -0.00     0.04   0.22  -0.03    -0.00  -0.00   0.00
    41   1    -0.04   0.06  -0.00     0.00  -0.00   0.00    -0.03   0.04  -0.00
    42   1     0.01  -0.00   0.02    -0.00   0.00  -0.00     0.00  -0.00   0.01
    43   1     0.00  -0.00  -0.00    -0.00   0.00   0.00    -0.00   0.00   0.00
    44   1    -0.00   0.00   0.00     0.01  -0.00  -0.01    -0.00   0.00   0.00
    45   1     0.01   0.02   0.03    -0.00  -0.01  -0.01     0.00   0.01   0.01
    46   1     0.00  -0.01   0.00    -0.00   0.00  -0.00     0.00  -0.00   0.00
    47   1     0.00  -0.00   0.00    -0.00   0.00   0.00    -0.00   0.00   0.00
    48   1     0.00   0.00  -0.00    -0.00  -0.00   0.00     0.00   0.00   0.00
    49   1    -0.00  -0.00  -0.00     0.00   0.00   0.00     0.00   0.00   0.00
    50   1     0.00   0.00   0.00    -0.00  -0.00  -0.00     0.00  -0.00  -0.00
    51   1     0.00   0.00   0.00    -0.00  -0.00  -0.00     0.00  -0.00   0.00
    52   1     0.00  -0.00  -0.00    -0.00   0.00   0.00    -0.00   0.00   0.00
    53   1    -0.00  -0.00  -0.00     0.00   0.00   0.00    -0.00  -0.00  -0.00
    54   1    -0.00  -0.00  -0.00    -0.00   0.00   0.00     0.00  -0.00   0.00
    55   1     0.00  -0.00   0.00     0.00   0.00   0.00    -0.00   0.00  -0.01
    56   1     0.00  -0.00   0.00    -0.00  -0.00  -0.00    -0.00  -0.00  -0.00
                    142                    143                    144
                      A                      A                      A
 Frequencies --   3082.6054              3103.1462              3113.5647
 Red. masses --      1.0678                 1.0852                 1.0867
 Frc consts  --      5.9782                 6.1570                 6.2069
 IR Inten    --     25.1406                 9.7243                 7.7335
  Atom  AN      X      Y      Z        X      Y      Z        X      Y      Z
     1   6     0.00  -0.00   0.00     0.00  -0.00   0.00    -0.00   0.00  -0.00
     2   6     0.00   0.00  -0.00    -0.00  -0.00   0.00     0.00   0.00   0.00
     3   6     0.00   0.00   0.00    -0.00  -0.00  -0.00     0.00  -0.00  -0.00
     4   6     0.00   0.00   0.00     0.00   0.00   0.00     0.00   0.00   0.00
     5   6     0.00  -0.00  -0.00    -0.00  -0.00  -0.00    -0.00  -0.00  -0.00
     6   6     0.00  -0.00  -0.00     0.00  -0.00   0.00     0.00  -0.00   0.00
     7   6     0.00   0.00   0.00     0.00  -0.00  -0.00     0.00   0.00   0.00
     8   6    -0.00   0.00  -0.00     0.00   0.00   0.00     0.00  -0.00   0.00
     9   6    -0.00   0.00  -0.00    -0.00   0.00   0.00    -0.00  -0.07  -0.05
    10   8     0.00   0.00   0.00    -0.00   0.00   0.00     0.00   0.00   0.00
    11   6     0.00  -0.00   0.00     0.00  -0.00  -0.00    -0.00  -0.00  -0.00
    12   6     0.04  -0.06  -0.02    -0.00   0.00  -0.00     0.00  -0.00   0.00
    13   8    -0.00  -0.00  -0.00    -0.00   0.00   0.00     0.00  -0.00   0.00
    14   6    -0.00   0.00   0.00     0.00   0.00  -0.00    -0.00  -0.00  -0.00
    15   6    -0.00  -0.00  -0.00     0.00  -0.00   0.00    -0.00   0.00   0.00
    16   6    -0.00   0.00   0.00     0.01  -0.07  -0.04     0.00  -0.00  -0.00
    17   6     0.00  -0.00   0.00     0.00  -0.00  -0.00     0.00   0.00  -0.00
    18   6    -0.00  -0.00  -0.00    -0.00   0.00  -0.00    -0.00   0.00  -0.00
    19   8    -0.00   0.00  -0.00     0.00   0.00  -0.00     0.00   0.00   0.00
    20   8     0.00   0.00  -0.00    -0.00  -0.00  -0.00    -0.00   0.00   0.00
    21   6     0.00  -0.00   0.00     0.00   0.00  -0.00     0.00   0.00  -0.00
    22   8    -0.00   0.00  -0.00     0.00   0.00   0.00     0.00   0.00   0.00
    23   6    -0.00   0.00  -0.00    -0.00  -0.00   0.00     0.00  -0.00   0.00
    24   6    -0.00   0.00   0.00     0.00  -0.00   0.00     0.00   0.00   0.00
    25   8    -0.00   0.00   0.00    -0.00   0.00   0.00    -0.00   0.00  -0.00
    26   8    -0.00  -0.00   0.00     0.00  -0.00  -0.00     0.00  -0.00   0.00
    27   6     0.00   0.00  -0.00    -0.00   0.00   0.00     0.00   0.00   0.00
    28   6     0.00   0.00   0.00    -0.00   0.00   0.00     0.00   0.00   0.00
    29   1    -0.02  -0.00   0.00     0.00   0.00   0.00    -0.00  -0.00   0.00
    30   1     0.01  -0.00  -0.01     0.00  -0.00  -0.00     0.00  -0.00  -0.00
    31   1     0.01  -0.01   0.01     0.00  -0.00   0.00    -0.00   0.00  -0.00
    32   1    -0.06  -0.01   0.01     0.00   0.00  -0.00    -0.00  -0.00   0.00
    33   1     0.00   0.01   0.00    -0.00  -0.00  -0.00    -0.00  -0.00  -0.00
    34   1     0.02  -0.01  -0.06     0.00  -0.00  -0.00     0.00  -0.00  -0.00
    35   1     0.00  -0.00   0.00     0.00  -0.00   0.00    -0.00   0.00  -0.00
    36   1     0.00   0.00  -0.00    -0.00   0.00  -0.00     0.00   0.00  -0.00
    37   1    -0.00  -0.00   0.00     0.01   0.00  -0.00    -0.00  -0.00  -0.00
    38   1     0.00  -0.00   0.00    -0.01   0.01  -0.01    -0.00   0.00  -0.00
    39   1    -0.00  -0.00  -0.00     0.00   0.00   0.00    -0.00  -0.00  -0.00
    40   1     0.00   0.00  -0.00    -0.00  -0.00   0.00    -0.00  -0.00   0.00
    41   1    -0.51   0.80  -0.05     0.00  -0.00  -0.00    -0.00   0.00  -0.00
    42   1     0.09  -0.07   0.27     0.00  -0.00   0.00    -0.00  -0.00  -0.00
    43   1    -0.00  -0.00  -0.00    -0.14   0.88   0.45    -0.00   0.00   0.00
    44   1    -0.00   0.00   0.00    -0.03   0.01   0.04    -0.00   0.00   0.00
    45   1     0.00   0.01   0.01     0.01   0.02   0.02     0.00   0.00   0.00
    46   1     0.00  -0.00   0.00     0.00  -0.02   0.01     0.00  -0.00   0.00
    47   1     0.00  -0.00  -0.00     0.00  -0.00   0.00    -0.44   0.26  -0.06
    48   1    -0.00  -0.01   0.00    -0.00  -0.00   0.00     0.11   0.42  -0.02
    49   1     0.00   0.00  -0.00    -0.00  -0.00  -0.00     0.34   0.17   0.63
    50   1    -0.00  -0.00  -0.00    -0.00  -0.00  -0.00    -0.00  -0.00  -0.00
    51   1    -0.00  -0.00  -0.00    -0.00  -0.00  -0.00    -0.00  -0.00  -0.00
    52   1    -0.00   0.00   0.00    -0.00   0.00   0.00     0.00  -0.00  -0.00
    53   1     0.00   0.00   0.00    -0.00  -0.00  -0.00    -0.00  -0.00   0.00
    54   1    -0.00   0.00  -0.00    -0.01  -0.00  -0.00    -0.00   0.00   0.00
    55   1    -0.00   0.00   0.00    -0.00   0.00  -0.00    -0.01   0.00  -0.03
    56   1     0.00   0.00  -0.00     0.00   0.00   0.00    -0.00  -0.00  -0.01
                    145                    146                    147
                      A                      A                      A
 Frequencies --   3128.8899              3130.7334              3132.4433
 Red. masses --      1.1029                 1.1027                 1.0984
 Frc consts  --      6.3615                 6.3677                 6.3501
 IR Inten    --      2.6217                11.7529                14.8252
  Atom  AN      X      Y      Z        X      Y      Z        X      Y      Z
     1   6    -0.00   0.00   0.00    -0.00   0.00  -0.00     0.00  -0.00   0.00
     2   6    -0.00  -0.00  -0.00     0.00   0.00   0.00     0.00  -0.00  -0.00
     3   6    -0.00  -0.00  -0.00     0.00   0.00   0.00     0.00   0.00   0.00
     4   6     0.00   0.00   0.00     0.00   0.00   0.00     0.00   0.00   0.00
     5   6     0.00  -0.00  -0.00     0.00  -0.00  -0.00     0.00  -0.00  -0.00
     6   6    -0.00  -0.00  -0.00    -0.00  -0.00  -0.00     0.00  -0.00   0.00
     7   6    -0.00   0.00  -0.00     0.00   0.00   0.00     0.00   0.00   0.00
     8   6     0.00   0.00  -0.00    -0.00   0.00  -0.00    -0.00  -0.00  -0.00
     9   6    -0.00   0.00   0.00     0.00   0.00   0.00     0.00  -0.00   0.00
    10   8    -0.00   0.00  -0.00     0.00   0.00  -0.00    -0.00  -0.00   0.00
    11   6    -0.00  -0.00   0.00     0.00   0.00   0.00     0.00   0.00  -0.00
    12   6     0.00  -0.00  -0.00     0.00  -0.00   0.00     0.00   0.00   0.00
    13   8    -0.00   0.00  -0.00     0.00  -0.00  -0.00    -0.00  -0.00   0.00
    14   6     0.00  -0.00  -0.00    -0.00   0.00   0.00     0.00   0.00  -0.00
    15   6     0.00  -0.00   0.00     0.00  -0.00   0.00    -0.00  -0.00  -0.00
    16   6     0.00  -0.00  -0.00    -0.00   0.00  -0.00    -0.00  -0.00  -0.00
    17   6    -0.00  -0.00  -0.00    -0.00  -0.00  -0.00    -0.00  -0.00  -0.00
    18   6    -0.00   0.00  -0.00     0.00  -0.01   0.00     0.00  -0.09   0.01
    19   8     0.00   0.00  -0.00    -0.00   0.00   0.00    -0.00   0.00   0.00
    20   8    -0.00   0.00   0.00    -0.00   0.00  -0.00    -0.00   0.00  -0.00
    21   6     0.00  -0.00   0.00     0.00  -0.00   0.00     0.00   0.00   0.00
    22   8    -0.00   0.00  -0.00    -0.00   0.00  -0.00     0.00   0.00   0.00
    23   6     0.03  -0.06   0.03     0.00  -0.00   0.00    -0.00   0.00  -0.00
    24   6    -0.02   0.04  -0.02    -0.00   0.00  -0.00    -0.00   0.00   0.00
    25   8    -0.00   0.00  -0.00    -0.00   0.00  -0.00     0.00   0.00   0.00
    26   8    -0.00   0.00  -0.00     0.00  -0.00  -0.00     0.00  -0.00   0.00
    27   6    -0.00   0.00   0.00     0.02   0.00  -0.01    -0.00  -0.00   0.00
    28   6     0.00   0.00  -0.00    -0.07   0.00   0.06     0.01  -0.00  -0.01
    29   1     0.00   0.00  -0.00    -0.19  -0.05   0.00     0.04   0.01  -0.00
    30   1     0.00  -0.00  -0.00    -0.06   0.03   0.17     0.01  -0.01  -0.03
    31   1     0.00  -0.00   0.00     0.00   0.00  -0.01    -0.00  -0.00   0.00
    32   1    -0.00  -0.00   0.00     0.65   0.16  -0.04    -0.10  -0.02   0.01
    33   1     0.00   0.00  -0.00    -0.02  -0.07  -0.00     0.00   0.01   0.00
    34   1    -0.00   0.00   0.00     0.19  -0.10  -0.62    -0.03   0.02   0.09
    35   1    -0.49   0.19  -0.33    -0.00   0.00  -0.00     0.00  -0.00   0.00
    36   1     0.06   0.58  -0.08     0.00   0.00  -0.00     0.00  -0.00   0.00
    37   1     0.01  -0.01   0.00     0.00   0.00  -0.00     0.00   0.00  -0.00
    38   1     0.29  -0.15   0.19     0.01  -0.00   0.00     0.01  -0.00   0.01
    39   1    -0.00   0.02   0.01     0.00   0.00   0.00    -0.00  -0.01  -0.02
    40   1    -0.07  -0.33   0.04    -0.00  -0.00   0.00    -0.01  -0.04   0.01
    41   1    -0.00   0.00  -0.00    -0.00   0.01  -0.00     0.00  -0.00   0.00
    42   1     0.00  -0.00   0.00     0.00   0.00  -0.00    -0.00   0.00  -0.00
    43   1    -0.00   0.00   0.00     0.00  -0.00  -0.00    -0.00   0.01   0.01
    44   1     0.00   0.00   0.00     0.00   0.00  -0.00     0.00   0.00   0.00
    45   1    -0.00  -0.00  -0.00     0.01   0.02   0.03     0.07   0.17   0.21
    46   1     0.00  -0.02   0.01    -0.02   0.14  -0.05    -0.12   0.89  -0.29
    47   1     0.00  -0.00   0.00    -0.00   0.00  -0.00    -0.00   0.00  -0.00
    48   1    -0.00  -0.00   0.00    -0.00  -0.00   0.00    -0.00  -0.00   0.00
    49   1    -0.00  -0.00  -0.00    -0.00  -0.00  -0.00     0.00   0.00   0.00
    50   1     0.00   0.00   0.00    -0.00  -0.00  -0.00    -0.00  -0.00  -0.00
    51   1    -0.00  -0.00  -0.00    -0.00  -0.00  -0.00    -0.00  -0.00  -0.00
    52   1    -0.00   0.00   0.00    -0.00   0.00   0.00    -0.00   0.00   0.00
    53   1     0.00   0.00   0.00     0.00   0.00   0.00    -0.00   0.00  -0.00
    54   1     0.00  -0.00   0.00     0.00  -0.00   0.00    -0.00   0.00  -0.00
    55   1    -0.00  -0.00  -0.00     0.00  -0.00   0.00     0.00   0.00   0.00
    56   1     0.00   0.00   0.00    -0.00  -0.00  -0.00    -0.00   0.00  -0.00
                    148                    149                    150
                      A                      A                      A
 Frequencies --   3134.4592              3138.5873              3145.9055
 Red. masses --      1.1030                 1.1028                 1.1026
 Frc consts  --      6.3846                 6.4005                 6.4291
 IR Inten    --     31.3870                34.9072                23.3075
  Atom  AN      X      Y      Z        X      Y      Z        X      Y      Z
     1   6     0.00  -0.00  -0.00    -0.00  -0.00  -0.00     0.00   0.00   0.00
     2   6    -0.00  -0.00   0.00     0.00   0.00   0.00    -0.00   0.00   0.00
     3   6     0.00   0.00   0.00    -0.00  -0.00  -0.00    -0.00  -0.00  -0.00
     4   6     0.00  -0.00   0.00    -0.00  -0.00  -0.00    -0.00  -0.00  -0.00
     5   6    -0.00   0.00   0.00     0.00  -0.00  -0.00    -0.00   0.00   0.00
     6   6     0.00   0.00   0.00    -0.00  -0.00  -0.00    -0.00  -0.00  -0.00
     7   6     0.00  -0.00   0.00    -0.00   0.00  -0.00    -0.00   0.00  -0.00
     8   6    -0.00   0.00   0.00     0.00   0.00   0.00     0.00  -0.00   0.00
     9   6     0.00  -0.00  -0.00    -0.00   0.00  -0.00     0.00  -0.00   0.00
    10   8    -0.00  -0.00   0.00    -0.00   0.00  -0.00     0.00   0.00  -0.00
    11   6     0.00   0.00  -0.00     0.00  -0.00   0.00     0.00   0.00   0.00
    12   6     0.00  -0.00   0.00     0.00  -0.00  -0.00     0.00  -0.00   0.00
    13   8    -0.00  -0.00   0.00    -0.00  -0.00  -0.00     0.00  -0.00  -0.00
    14   6     0.00   0.00  -0.00     0.00  -0.00   0.00    -0.00  -0.00   0.00
    15   6     0.00  -0.00  -0.00    -0.00  -0.00  -0.00     0.00  -0.00   0.00
    16   6     0.00  -0.00  -0.00     0.00   0.00   0.00    -0.00   0.00   0.00
    17   6     0.00  -0.00  -0.00    -0.00  -0.00  -0.00    -0.00   0.00   0.00
    18   6     0.00  -0.00   0.00     0.00  -0.00   0.00     0.00   0.00   0.00
    19   8    -0.00  -0.00   0.00    -0.00   0.00  -0.00     0.00  -0.00  -0.00
    20   8     0.00   0.00   0.00    -0.00   0.00  -0.00    -0.00  -0.00  -0.00
    21   6    -0.00  -0.00  -0.00     0.00  -0.00   0.00     0.00   0.00   0.00
    22   8     0.00   0.00   0.00    -0.00   0.00  -0.00    -0.00  -0.00  -0.00
    23   6    -0.00   0.00  -0.00     0.02  -0.04   0.02    -0.00   0.00   0.00
    24   6    -0.04  -0.05  -0.07     0.03  -0.07   0.03     0.00   0.00   0.00
    25   8     0.00   0.00   0.00    -0.00   0.00  -0.00     0.00  -0.00  -0.00
    26   8     0.00  -0.00   0.00    -0.00  -0.00  -0.00     0.00   0.00  -0.00
    27   6    -0.00  -0.00   0.00    -0.00   0.00  -0.00    -0.08  -0.00   0.05
    28   6     0.00  -0.00  -0.00    -0.00   0.00   0.00    -0.02   0.00   0.02
    29   1     0.00   0.00  -0.00     0.00   0.00  -0.00     0.69   0.17  -0.00
    30   1     0.00  -0.00  -0.00    -0.00   0.00   0.00     0.22  -0.12  -0.58
    31   1     0.00  -0.00   0.00     0.00  -0.00   0.00     0.01  -0.03   0.04
    32   1    -0.01  -0.00   0.00     0.00   0.00  -0.00     0.18   0.04  -0.01
    33   1     0.00   0.00   0.00    -0.00  -0.00  -0.00    -0.01  -0.04  -0.01
    34   1    -0.00   0.00   0.01     0.00  -0.00  -0.00     0.06  -0.03  -0.19
    35   1     0.02  -0.01   0.02    -0.29   0.11  -0.20     0.00  -0.00   0.00
    36   1    -0.00   0.00  -0.00     0.03   0.35  -0.05    -0.00  -0.00   0.00
    37   1    -0.01  -0.00   0.01     0.00  -0.01   0.00     0.00   0.00  -0.00
    38   1     0.29  -0.18   0.18    -0.48   0.25  -0.31    -0.00   0.00  -0.00
    39   1     0.07   0.36   0.72     0.01  -0.01   0.00    -0.00  -0.00  -0.00
    40   1     0.07   0.42  -0.07     0.12   0.57  -0.07    -0.00  -0.00   0.00
    41   1    -0.00   0.00  -0.00    -0.00   0.00  -0.00    -0.00   0.00  -0.00
    42   1    -0.00   0.00  -0.00     0.00  -0.00   0.00    -0.00   0.00  -0.01
    43   1    -0.00   0.00   0.00     0.00  -0.01  -0.00     0.00  -0.00  -0.00
    44   1    -0.01   0.00   0.02    -0.00   0.00   0.00     0.00  -0.00  -0.00
    45   1     0.00   0.01   0.01     0.00   0.01   0.01    -0.00  -0.00  -0.00
    46   1    -0.00   0.03  -0.01    -0.00   0.03  -0.01     0.00  -0.01   0.00
    47   1    -0.00   0.00  -0.00     0.00  -0.00   0.00    -0.00   0.00  -0.00
    48   1    -0.00  -0.00   0.00    -0.00  -0.00   0.00     0.00   0.00  -0.00
    49   1     0.00   0.00   0.00     0.00   0.00   0.00    -0.00  -0.00  -0.00
    50   1    -0.00  -0.00  -0.00     0.00   0.00   0.00     0.00   0.00   0.00
    51   1    -0.00   0.00  -0.00     0.00   0.00   0.00     0.00   0.00   0.00
    52   1     0.00   0.00  -0.00    -0.00   0.00   0.00     0.00  -0.00  -0.00
    53   1    -0.00  -0.00  -0.00     0.00   0.00   0.00     0.00   0.00   0.00
    54   1    -0.00   0.00  -0.00     0.00   0.00   0.00    -0.00  -0.00   0.00
    55   1    -0.00   0.00  -0.00    -0.00  -0.00  -0.00    -0.00   0.00  -0.00
    56   1    -0.00   0.00  -0.00     0.00   0.00   0.00     0.00  -0.00   0.00
                    151                    152                    153
                      A                      A                      A
 Frequencies --   3157.6571              3157.9265              3166.2863
 Red. masses --      1.1026                 1.1033                 1.1009
 Frc consts  --      6.4774                 6.4826                 6.5027
 IR Inten    --     30.2200                 1.2751                 8.6981
  Atom  AN      X      Y      Z        X      Y      Z        X      Y      Z
     1   6     0.00   0.00   0.00    -0.00  -0.00  -0.00    -0.00   0.00  -0.00
     2   6     0.00  -0.00  -0.00     0.00  -0.00   0.00    -0.00  -0.00   0.00
     3   6    -0.00  -0.00   0.00     0.00  -0.00  -0.00     0.00   0.00   0.00
     4   6    -0.00  -0.00  -0.00     0.00   0.00   0.00    -0.00   0.00  -0.00
     5   6    -0.00   0.00   0.00    -0.00  -0.00  -0.00     0.00  -0.00  -0.00
     6   6     0.00   0.00   0.00     0.00   0.00   0.00     0.00   0.00   0.00
     7   6     0.00   0.00   0.00     0.00   0.00   0.00     0.00  -0.00   0.00
     8   6    -0.00   0.00  -0.00     0.00  -0.00   0.01    -0.00   0.00  -0.00
     9   6    -0.02   0.01  -0.01    -0.07   0.03  -0.04     0.00  -0.00   0.00
    10   8     0.00  -0.00   0.00    -0.00   0.00  -0.00     0.00   0.00   0.00
    11   6     0.00   0.00   0.00    -0.00  -0.00   0.00     0.00   0.00   0.00
    12   6    -0.00   0.00   0.00    -0.00   0.00  -0.00    -0.00   0.00  -0.01
    13   8     0.00  -0.00   0.00    -0.00   0.00  -0.00     0.00   0.00   0.00
    14   6    -0.00   0.00  -0.00     0.00  -0.00   0.00    -0.00  -0.00  -0.00
    15   6    -0.00   0.00  -0.00    -0.00  -0.00  -0.00     0.00  -0.00  -0.00
    16   6     0.00   0.00   0.00    -0.00   0.00   0.00     0.00  -0.00  -0.00
    17   6     0.00  -0.00  -0.00    -0.00  -0.00   0.00     0.00  -0.00  -0.00
    18   6    -0.00  -0.00  -0.00     0.00  -0.00   0.00     0.00  -0.00  -0.00
    19   8     0.00  -0.00   0.00    -0.00   0.00  -0.00    -0.00  -0.00  -0.00
    20   8    -0.00  -0.00   0.00     0.00   0.00   0.00    -0.00  -0.00  -0.00
    21   6     0.00   0.00  -0.00    -0.00  -0.00  -0.00     0.00   0.00   0.00
    22   8     0.00  -0.00   0.00     0.00   0.00   0.00    -0.00  -0.00  -0.00
    23   6    -0.00   0.00  -0.00    -0.00   0.00  -0.00    -0.00  -0.00   0.00
    24   6    -0.00   0.00  -0.00    -0.00  -0.00  -0.00     0.00   0.00   0.00
    25   8     0.00  -0.00   0.00    -0.00  -0.00   0.00    -0.00   0.00   0.00
    26   8     0.00   0.00   0.00     0.00   0.00  -0.00    -0.00  -0.00   0.00
    27   6    -0.04   0.03  -0.07     0.01  -0.01   0.02    -0.00   0.00  -0.00
    28   6     0.00   0.00   0.00    -0.00  -0.00   0.00    -0.03  -0.08  -0.03
    29   1     0.27   0.07  -0.02    -0.08  -0.02   0.01     0.03   0.01  -0.00
    30   1    -0.15   0.07   0.34     0.05  -0.02  -0.11    -0.00   0.00   0.00
    31   1     0.40  -0.46   0.55    -0.12   0.14  -0.17     0.01  -0.01   0.01
    32   1    -0.00  -0.00   0.00     0.00   0.00  -0.00     0.32   0.07  -0.03
    33   1    -0.00  -0.03  -0.01     0.00   0.01   0.00     0.12   0.87   0.21
    34   1    -0.00   0.00   0.01     0.00  -0.00  -0.00    -0.08   0.02   0.22
    35   1     0.00  -0.00   0.00     0.00  -0.00   0.00    -0.00   0.00  -0.00
    36   1    -0.00  -0.00   0.00    -0.00  -0.00   0.00     0.00   0.00  -0.00
    37   1    -0.00   0.00   0.00    -0.00   0.00  -0.00     0.00   0.00  -0.00
    38   1     0.00  -0.00   0.00     0.00  -0.00   0.00    -0.00   0.00  -0.00
    39   1     0.00   0.00   0.00     0.00   0.00   0.00    -0.00  -0.00  -0.00
    40   1    -0.00  -0.00   0.00     0.00   0.00  -0.00    -0.00  -0.00   0.00
    41   1     0.00  -0.01   0.00     0.00  -0.01   0.00    -0.00   0.00  -0.00
    42   1     0.00   0.00   0.00     0.01  -0.00   0.02     0.02  -0.02   0.08
    43   1    -0.00   0.00   0.00     0.00  -0.00  -0.00    -0.00   0.00   0.00
    44   1    -0.00   0.00   0.00     0.00  -0.00  -0.00    -0.00   0.00   0.00
    45   1     0.00   0.00   0.00    -0.00  -0.00  -0.00     0.00   0.00   0.00
    46   1    -0.00  -0.00   0.00    -0.00   0.00  -0.00    -0.00  -0.00   0.00
    47   1     0.20  -0.13   0.02     0.65  -0.42   0.07    -0.00   0.00  -0.00
    48   1    -0.01  -0.01  -0.00    -0.02  -0.03  -0.01     0.00   0.00  -0.00
    49   1     0.08   0.04   0.15     0.25   0.14   0.47    -0.00  -0.00  -0.00
    50   1    -0.00  -0.00  -0.00     0.00  -0.00   0.00    -0.00  -0.00  -0.00
    51   1     0.00   0.00   0.00    -0.00   0.00  -0.00     0.00   0.00   0.00
    52   1     0.00  -0.00  -0.00     0.00  -0.00   0.00    -0.00   0.00   0.00
    53   1    -0.00  -0.00  -0.00    -0.00  -0.00  -0.00    -0.00  -0.00  -0.00
    54   1    -0.00  -0.00  -0.00     0.01   0.00   0.00     0.00  -0.00  -0.00
    55   1     0.00  -0.00   0.01    -0.04   0.00  -0.07     0.00  -0.00   0.00
    56   1    -0.00   0.00  -0.01    -0.01  -0.00  -0.02    -0.00   0.00  -0.00
                    154                    155                    156
                      A                      A                      A
 Frequencies --   3176.4071              3177.1677              3180.1486
 Red. masses --      1.0885                 1.0995                 1.1010
 Frc consts  --      6.4706                 6.5394                 6.5607
 IR Inten    --      6.6812                 7.4237                 1.9280
  Atom  AN      X      Y      Z        X      Y      Z        X      Y      Z
     1   6    -0.00  -0.00  -0.00    -0.00  -0.00  -0.00     0.00   0.00   0.00
     2   6    -0.00   0.00   0.00    -0.00   0.00   0.00     0.00  -0.00  -0.00
     3   6     0.00   0.00   0.01     0.00   0.00   0.00    -0.00  -0.00  -0.00
     4   6    -0.00  -0.00  -0.00    -0.00  -0.00  -0.00     0.00   0.00   0.00
     5   6     0.00  -0.00  -0.00     0.00  -0.00  -0.00    -0.00   0.00   0.00
     6   6     0.00   0.00   0.00     0.00   0.00   0.00    -0.00  -0.00  -0.00
     7   6    -0.04   0.00  -0.08    -0.00   0.00  -0.00     0.00  -0.00   0.00
     8   6     0.01  -0.00   0.01    -0.00   0.00  -0.00    -0.00   0.00  -0.00
     9   6    -0.00   0.00  -0.00     0.00  -0.00   0.00     0.00  -0.00   0.00
    10   8     0.00   0.00   0.00    -0.00   0.00   0.00    -0.00  -0.00   0.00
    11   6    -0.00  -0.00  -0.00    -0.00   0.00  -0.00    -0.00   0.00   0.00
    12   6     0.00  -0.00   0.00    -0.03   0.04  -0.08    -0.00   0.00  -0.00
    13   8    -0.00   0.00   0.00     0.00  -0.00   0.00    -0.00  -0.00   0.00
    14   6     0.00  -0.00  -0.00     0.00   0.00   0.00     0.00   0.00   0.00
    15   6     0.00   0.00   0.00     0.00  -0.00  -0.00     0.00  -0.00  -0.00
    16   6    -0.00  -0.00  -0.00    -0.00   0.00   0.00     0.00   0.00   0.00
    17   6     0.00  -0.00   0.00    -0.00  -0.00  -0.00     0.00   0.00   0.00
    18   6    -0.00  -0.00  -0.00     0.00  -0.00   0.00     0.00   0.00   0.00
    19   8     0.00   0.00   0.00    -0.00  -0.00   0.00    -0.00  -0.00   0.00
    20   8     0.00   0.00   0.00     0.00   0.00   0.00     0.00   0.00  -0.00
    21   6    -0.00   0.00  -0.00    -0.00   0.00  -0.00    -0.00  -0.00   0.00
    22   8     0.00   0.00   0.00     0.00  -0.00   0.00     0.00  -0.00  -0.00
    23   6    -0.00  -0.00   0.00     0.00   0.00  -0.00    -0.08  -0.03   0.03
    24   6    -0.00  -0.00  -0.00    -0.00   0.00  -0.00    -0.00  -0.00  -0.00
    25   8    -0.00   0.00  -0.00    -0.00   0.00   0.00    -0.00  -0.00   0.00
    26   8     0.00  -0.00   0.00    -0.00  -0.00   0.00    -0.00  -0.00  -0.00
    27   6    -0.00   0.00  -0.00    -0.00   0.00   0.00     0.00   0.00  -0.00
    28   6    -0.00  -0.00  -0.00     0.00   0.01   0.00     0.00   0.00   0.00
    29   1    -0.00  -0.00  -0.00     0.00   0.00   0.00    -0.00  -0.00   0.00
    30   1    -0.00   0.00   0.00     0.00  -0.00  -0.00    -0.00   0.00   0.00
    31   1     0.00  -0.00   0.00     0.00  -0.00   0.00     0.00  -0.00   0.00
    32   1     0.00   0.00  -0.00    -0.02  -0.00   0.00    -0.00  -0.00   0.00
    33   1     0.00   0.00   0.00    -0.01  -0.07  -0.02    -0.00  -0.00  -0.00
    34   1    -0.00   0.00   0.00     0.01  -0.00  -0.02     0.00  -0.00  -0.00
    35   1     0.00  -0.00   0.00    -0.00   0.00  -0.00     0.20  -0.09   0.14
    36   1     0.00   0.00  -0.00    -0.00  -0.00   0.00     0.01   0.26  -0.04
    37   1     0.01   0.00  -0.00    -0.01  -0.00   0.00     0.78   0.18  -0.46
    38   1     0.00  -0.00   0.00     0.00  -0.00   0.00     0.00  -0.00   0.00
    39   1     0.00   0.00   0.00     0.00   0.00   0.00     0.00  -0.00  -0.00
    40   1     0.00   0.00  -0.00    -0.00  -0.00  -0.00     0.00   0.01  -0.00
    41   1    -0.00   0.01  -0.00     0.15  -0.23   0.00     0.00  -0.00   0.00
    42   1    -0.01   0.00  -0.02     0.26  -0.19   0.90     0.00  -0.00   0.01
    43   1     0.00  -0.00  -0.00     0.00  -0.00  -0.00     0.00  -0.01  -0.00
    44   1    -0.00   0.00   0.00     0.00  -0.00   0.00     0.00  -0.00  -0.00
    45   1     0.00   0.00   0.00    -0.00  -0.00  -0.00    -0.00  -0.00  -0.00
    46   1    -0.00   0.00  -0.00    -0.00   0.00  -0.00     0.00  -0.00   0.00
    47   1     0.00  -0.00   0.00    -0.02   0.01  -0.00    -0.00   0.00  -0.00
    48   1    -0.00  -0.00   0.00     0.00   0.00   0.00     0.00  -0.00  -0.00
    49   1     0.00   0.00   0.01    -0.00  -0.00  -0.01    -0.00  -0.00  -0.00
    50   1    -0.03  -0.02  -0.10    -0.00  -0.00  -0.00     0.00   0.00   0.00
    51   1     0.03   0.00   0.01     0.00   0.00   0.00    -0.00  -0.00  -0.00
    52   1    -0.01   0.00   0.01    -0.00   0.00   0.00     0.00  -0.00  -0.00
    53   1    -0.00  -0.00  -0.02    -0.00  -0.00  -0.00     0.00   0.00   0.00
    54   1     0.03   0.00   0.01     0.00   0.00  -0.00    -0.00  -0.00  -0.00
    55   1    -0.04   0.00  -0.09     0.00  -0.00   0.00     0.00  -0.00   0.00
    56   1     0.42  -0.02   0.89     0.01  -0.00   0.02    -0.00   0.00  -0.01
                    157                    158                    159
                      A                      A                      A
 Frequencies --   3188.2741              3194.6841              3203.4091
 Red. masses --      1.0853                 1.0881                 1.0915
 Frc consts  --      6.5001                 6.5427                 6.5996
 IR Inten    --      2.0462                 1.0432                17.0428
  Atom  AN      X      Y      Z        X      Y      Z        X      Y      Z
     1   6     0.01   0.00   0.00    -0.02  -0.00  -0.01     0.03   0.00   0.01
     2   6     0.00  -0.00  -0.00     0.00  -0.00   0.00     0.00  -0.00  -0.00
     3   6    -0.01  -0.00  -0.03    -0.02  -0.01  -0.05    -0.01  -0.01  -0.04
     4   6     0.04   0.00   0.01     0.03   0.00   0.01    -0.03  -0.00  -0.00
     5   6    -0.03   0.01   0.04     0.01  -0.00  -0.01     0.03  -0.01  -0.04
     6   6    -0.01  -0.01  -0.04     0.02   0.01   0.04    -0.01  -0.01  -0.03
     7   6    -0.00   0.00  -0.01    -0.00   0.00  -0.00    -0.00   0.00  -0.00
     8   6    -0.00   0.00  -0.00     0.00  -0.00   0.00    -0.00   0.00  -0.00
     9   6    -0.00   0.00  -0.00     0.00   0.00   0.00    -0.00   0.00  -0.00
    10   8     0.00   0.00   0.00    -0.00  -0.00   0.00     0.00  -0.00  -0.00
    11   6    -0.00   0.00  -0.00     0.00  -0.00  -0.00     0.00   0.00   0.00
    12   6    -0.00   0.00  -0.00     0.00  -0.00   0.00     0.00  -0.00   0.00
    13   8     0.00   0.00   0.00    -0.00  -0.00   0.00     0.00   0.00  -0.00
    14   6    -0.00  -0.00  -0.00     0.00   0.00   0.00    -0.00  -0.00  -0.00
    15   6     0.00   0.00  -0.00     0.00   0.00   0.00    -0.00   0.00   0.00
    16   6    -0.00   0.00  -0.00    -0.00  -0.00  -0.00    -0.00   0.00   0.00
    17   6     0.00  -0.00  -0.00    -0.00   0.00   0.00     0.00  -0.00  -0.00
    18   6    -0.00  -0.00  -0.00     0.00  -0.00   0.00    -0.00   0.00  -0.00
    19   8     0.00  -0.00   0.00     0.00   0.00  -0.00    -0.00  -0.00   0.00
    20   8    -0.00  -0.00   0.00     0.00  -0.00   0.00     0.00  -0.00   0.00
    21   6     0.00   0.00  -0.00     0.00   0.00  -0.00    -0.00   0.00  -0.00
    22   8    -0.00  -0.00   0.00     0.00   0.00   0.00     0.00  -0.00   0.00
    23   6     0.00   0.00  -0.00     0.00   0.00  -0.00    -0.00   0.00  -0.00
    24   6     0.00  -0.00  -0.00    -0.00  -0.00  -0.00    -0.00   0.00  -0.00
    25   8    -0.00  -0.00   0.00    -0.00   0.00  -0.00     0.00   0.00  -0.00
    26   8     0.00  -0.00   0.00     0.00  -0.00  -0.00    -0.00  -0.00   0.00
    27   6     0.00  -0.00  -0.00    -0.00   0.00  -0.00     0.00  -0.00   0.00
    28   6     0.00  -0.00  -0.00     0.00   0.00   0.00    -0.00  -0.00  -0.00
    29   1    -0.00  -0.00   0.00     0.00   0.00  -0.00    -0.00  -0.00   0.00
    30   1    -0.00   0.00   0.00    -0.00   0.00   0.00     0.00  -0.00  -0.00
    31   1    -0.00   0.00  -0.00     0.00  -0.00   0.00    -0.00   0.00  -0.00
    32   1     0.00   0.00  -0.00    -0.00  -0.00   0.00     0.00   0.00   0.00
    33   1     0.00   0.00   0.00    -0.00  -0.00  -0.00     0.00   0.00   0.00
    34   1    -0.00   0.00   0.00     0.00  -0.00  -0.00    -0.00   0.00   0.00
    35   1    -0.00   0.00  -0.00     0.00  -0.00   0.00     0.00  -0.00   0.00
    36   1    -0.00  -0.00   0.00    -0.00  -0.00   0.00    -0.00  -0.00   0.00
    37   1    -0.00  -0.00   0.00    -0.00  -0.00   0.00    -0.00  -0.00   0.00
    38   1    -0.00   0.00  -0.00     0.00  -0.00  -0.00     0.00  -0.00   0.00
    39   1     0.00   0.00   0.00     0.00   0.00   0.00     0.00   0.00   0.00
    40   1    -0.00   0.00  -0.00     0.00   0.00  -0.00    -0.00  -0.00   0.00
    41   1     0.00  -0.00   0.00    -0.00   0.00  -0.00     0.00   0.00  -0.00
    42   1     0.00  -0.00   0.00    -0.00   0.00  -0.00    -0.00   0.00  -0.00
    43   1     0.00  -0.00  -0.00    -0.00   0.00   0.00     0.00  -0.00  -0.00
    44   1    -0.00   0.00   0.00     0.00  -0.00  -0.00    -0.00   0.00   0.00
    45   1     0.00   0.00   0.00    -0.00  -0.00  -0.00     0.00   0.00   0.00
    46   1     0.00  -0.00   0.00    -0.00   0.00  -0.00     0.00  -0.00   0.00
    47   1     0.00  -0.00   0.00    -0.00   0.00  -0.00     0.00  -0.00   0.00
    48   1    -0.00  -0.00  -0.00    -0.00  -0.00   0.00    -0.00   0.00  -0.00
    49   1     0.00   0.00   0.00    -0.00  -0.00  -0.00     0.00   0.00   0.00
    50   1     0.12   0.06   0.35     0.21   0.10   0.61     0.17   0.08   0.48
    51   1    -0.46  -0.02  -0.09    -0.39  -0.01  -0.08     0.32   0.01   0.06
    52   1     0.37  -0.07  -0.42    -0.11   0.02   0.13    -0.38   0.07   0.42
    53   1     0.17   0.08   0.49    -0.18  -0.08  -0.52     0.13   0.06   0.37
    54   1    -0.18  -0.01  -0.04     0.25   0.01   0.05    -0.35  -0.02  -0.07
    55   1     0.00  -0.00   0.01    -0.02   0.00  -0.04     0.02  -0.00   0.04
    56   1     0.03  -0.00   0.08     0.02  -0.00   0.06     0.02  -0.00   0.05
                    160                    161                    162
                      A                      A                      A
 Frequencies --   3212.6383              3218.2831              3239.1155
 Red. masses --      1.0941                 1.0968                 1.0870
 Frc consts  --      6.6535                 6.6932                 6.7195
 IR Inten    --     25.5360                10.8908                 7.6461
  Atom  AN      X      Y      Z        X      Y      Z        X      Y      Z
     1   6    -0.05  -0.00  -0.01    -0.05  -0.00  -0.01    -0.02  -0.00  -0.00
     2   6     0.00   0.00   0.00    -0.00   0.00   0.00    -0.00  -0.00   0.00
     3   6    -0.01  -0.00  -0.03     0.00   0.00   0.02    -0.00  -0.00  -0.00
     4   6    -0.05  -0.00  -0.01     0.03   0.00   0.01     0.00  -0.00   0.00
     5   6    -0.02   0.00   0.03     0.03  -0.00  -0.03     0.00  -0.00  -0.00
     6   6    -0.00  -0.00  -0.01    -0.01  -0.01  -0.04    -0.00  -0.00  -0.00
     7   6    -0.00   0.00   0.00     0.00   0.00   0.00    -0.00  -0.00  -0.01
     8   6     0.00  -0.00   0.01     0.01  -0.00   0.01    -0.04   0.00  -0.07
     9   6     0.00   0.00   0.00     0.00   0.00   0.00    -0.01  -0.00  -0.00
    10   8    -0.00  -0.00   0.00     0.00  -0.00   0.00    -0.00   0.00  -0.00
    11   6    -0.00  -0.00  -0.00    -0.00  -0.00  -0.00     0.00   0.00   0.00
    12   6     0.00  -0.00  -0.00    -0.00   0.00  -0.00     0.00  -0.00   0.00
    13   8    -0.00  -0.00   0.00     0.00  -0.00   0.00    -0.00   0.00  -0.00
    14   6     0.00   0.00  -0.00     0.00   0.00  -0.00    -0.00   0.00   0.00
    15   6     0.00   0.00   0.00     0.00   0.00  -0.00    -0.00  -0.00  -0.00
    16   6     0.00  -0.00  -0.00     0.00  -0.00  -0.00     0.00  -0.00  -0.00
    17   6    -0.00  -0.00  -0.00     0.00  -0.00  -0.00     0.00  -0.00  -0.00
    18   6    -0.00  -0.00  -0.00    -0.00  -0.00  -0.00     0.00   0.00  -0.00
    19   8     0.00   0.00  -0.00     0.00  -0.00   0.00    -0.00  -0.00  -0.00
    20   8     0.00   0.00   0.00    -0.00  -0.00   0.00    -0.00   0.00   0.00
    21   6    -0.00  -0.00   0.00     0.00   0.00  -0.00     0.00  -0.00  -0.00
    22   8     0.00   0.00   0.00    -0.00  -0.00   0.00    -0.00   0.00   0.00
    23   6    -0.00   0.00  -0.00     0.00   0.00   0.00    -0.00  -0.00   0.00
    24   6    -0.00   0.00  -0.00     0.00  -0.00  -0.00     0.00  -0.00  -0.00
    25   8    -0.00   0.00   0.00    -0.00  -0.00   0.00    -0.00  -0.00   0.00
    26   8    -0.00  -0.00  -0.00     0.00   0.00  -0.00     0.00   0.00   0.00
    27   6    -0.00   0.00  -0.00    -0.00   0.00  -0.00     0.00  -0.00   0.00
    28   6     0.00   0.00  -0.00     0.00  -0.00  -0.00     0.00  -0.00  -0.00
    29   1     0.00   0.00  -0.00     0.00   0.00  -0.00    -0.00  -0.00   0.00
    30   1    -0.00   0.00   0.00    -0.00   0.00   0.00     0.00  -0.00  -0.01
    31   1     0.00  -0.00   0.00     0.00  -0.00   0.00    -0.02   0.02  -0.02
    32   1    -0.00  -0.00   0.00     0.00   0.00  -0.00    -0.00  -0.00   0.00
    33   1     0.00  -0.00  -0.00    -0.00   0.00   0.00     0.00   0.00   0.00
    34   1    -0.00   0.00   0.00    -0.00   0.00   0.00    -0.00   0.00   0.00
    35   1     0.00  -0.00   0.00    -0.00   0.00  -0.00    -0.00   0.00  -0.00
    36   1     0.00   0.00   0.00    -0.00  -0.00   0.00    -0.00  -0.00   0.00
    37   1     0.00   0.00  -0.00     0.00   0.00   0.00     0.00   0.00  -0.00
    38   1     0.00  -0.00   0.00    -0.00   0.00  -0.00    -0.00   0.00  -0.00
    39   1    -0.00   0.00  -0.00     0.00   0.00   0.00     0.00   0.00   0.00
    40   1    -0.00  -0.00   0.00    -0.00  -0.00   0.00     0.00   0.00  -0.00
    41   1    -0.00   0.00  -0.00     0.00  -0.00   0.00    -0.00   0.00  -0.00
    42   1     0.00  -0.00   0.00     0.00  -0.00   0.00    -0.00   0.00  -0.00
    43   1    -0.00   0.00   0.00    -0.00   0.00   0.00    -0.00   0.00   0.00
    44   1    -0.00   0.00   0.00    -0.00   0.00   0.00    -0.00   0.00   0.00
    45   1     0.00   0.00   0.00     0.00   0.00   0.00     0.00   0.00   0.00
    46   1    -0.00   0.00  -0.00     0.00  -0.00   0.00    -0.00  -0.00   0.00
    47   1    -0.01   0.00  -0.00    -0.01   0.00  -0.00     0.04  -0.02   0.00
    48   1    -0.00  -0.00   0.00    -0.00  -0.00   0.00     0.00   0.01  -0.00
    49   1    -0.00  -0.00  -0.01    -0.00  -0.00  -0.01     0.03   0.01   0.06
    50   1     0.10   0.05   0.31    -0.06  -0.03  -0.17     0.00   0.00   0.01
    51   1     0.58   0.02   0.12    -0.38  -0.01  -0.08    -0.00  -0.00  -0.00
    52   1     0.23  -0.04  -0.27    -0.29   0.05   0.33    -0.00   0.00   0.00
    53   1     0.04   0.02   0.13     0.15   0.07   0.44     0.01   0.00   0.03
    54   1     0.60   0.02   0.12     0.59   0.02   0.12     0.18   0.01   0.04
    55   1    -0.05   0.01  -0.10    -0.06   0.01  -0.11     0.43  -0.05   0.87
    56   1    -0.00   0.00  -0.01    -0.02   0.00  -0.04     0.04  -0.00   0.08

 -------------------
 - Thermochemistry -
 -------------------
 Temperature   298.150 Kelvin.  Pressure   1.00000 Atm.
 Atom     1 has atomic number  6 and mass  12.00000
 Atom     2 has atomic number  6 and mass  12.00000
 Atom     3 has atomic number  6 and mass  12.00000
 Atom     4 has atomic number  6 and mass  12.00000
 Atom     5 has atomic number  6 and mass  12.00000
 Atom     6 has atomic number  6 and mass  12.00000
 Atom     7 has atomic number  6 and mass  12.00000
 Atom     8 has atomic number  6 and mass  12.00000
 Atom     9 has atomic number  6 and mass  12.00000
 Atom    10 has atomic number  8 and mass  15.99491
 Atom    11 has atomic number  6 and mass  12.00000
 Atom    12 has atomic number  6 and mass  12.00000
 Atom    13 has atomic number  8 and mass  15.99491
 Atom    14 has atomic number  6 and mass  12.00000
 Atom    15 has atomic number  6 and mass  12.00000
 Atom    16 has atomic number  6 and mass  12.00000
 Atom    17 has atomic number  6 and mass  12.00000
 Atom    18 has atomic number  6 and mass  12.00000
 Atom    19 has atomic number  8 and mass  15.99491
 Atom    20 has atomic number  8 and mass  15.99491
 Atom    21 has atomic number  6 and mass  12.00000
 Atom    22 has atomic number  8 and mass  15.99491
 Atom    23 has atomic number  6 and mass  12.00000
 Atom    24 has atomic number  6 and mass  12.00000
 Atom    25 has atomic number  8 and mass  15.99491
 Atom    26 has atomic number  8 and mass  15.99491
 Atom    27 has atomic number  6 and mass  12.00000
 Atom    28 has atomic number  6 and mass  12.00000
 Atom    29 has atomic number  1 and mass   1.00783
 Atom    30 has atomic number  1 and mass   1.00783
 Atom    31 has atomic number  1 and mass   1.00783
 Atom    32 has atomic number  1 and mass   1.00783
 Atom    33 has atomic number  1 and mass   1.00783
 Atom    34 has atomic number  1 and mass   1.00783
 Atom    35 has atomic number  1 and mass   1.00783
 Atom    36 has atomic number  1 and mass   1.00783
 Atom    37 has atomic number  1 and mass   1.00783
 Atom    38 has atomic number  1 and mass   1.00783
 Atom    39 has atomic number  1 and mass   1.00783
 Atom    40 has atomic number  1 and mass   1.00783
 Atom    41 has atomic number  1 and mass   1.00783
 Atom    42 has atomic number  1 and mass   1.00783
 Atom    43 has atomic number  1 and mass   1.00783
 Atom    44 has atomic number  1 and mass   1.00783
 Atom    45 has atomic number  1 and mass   1.00783
 Atom    46 has atomic number  1 and mass   1.00783
 Atom    47 has atomic number  1 and mass   1.00783
 Atom    48 has atomic number  1 and mass   1.00783
 Atom    49 has atomic number  1 and mass   1.00783
 Atom    50 has atomic number  1 and mass   1.00783
 Atom    51 has atomic number  1 and mass   1.00783
 Atom    52 has atomic number  1 and mass   1.00783
 Atom    53 has atomic number  1 and mass   1.00783
 Atom    54 has atomic number  1 and mass   1.00783
 Atom    55 has atomic number  1 and mass   1.00783
 Atom    56 has atomic number  1 and mass   1.00783
 Molecular mass:   392.18350 amu.
 Principal axes and moments of inertia in atomic units:
                           1         2         3
     Eigenvalues --  8358.70213********************
           X            0.99695   0.07774   0.00730
           Y           -0.07772   0.99697  -0.00380
           Z           -0.00757   0.00322   0.99997
 This molecule is an asymmetric top.
 Rotational symmetry number  1.
 Warning -- assumption of classical behavior for rotation
           may cause significant error
 Rotational temperatures (Kelvin)      0.01036     0.00853     0.00621
 Rotational constants (GHZ):           0.21591     0.17781     0.12937
    1 imaginary frequencies ignored.
 Zero-point vibrational energy    1223884.1 (Joules/Mol)
                                  292.51533 (Kcal/Mol)
 Warning -- explicit consideration of  44 degrees of freedom as
           vibrations may cause significant error
 Vibrational temperatures:     13.56    32.05    63.41    64.85    99.06
          (Kelvin)            109.51   126.06   136.31   172.94   191.65
                              207.50   226.30   229.50   275.29   279.38
                              292.38   299.52   312.16   331.64   342.55
                              353.94   392.97   405.12   439.60   449.67
                              468.92   486.82   507.21   514.85   529.60
                              555.36   563.15   577.31   593.42   608.97
                              616.85   651.14   678.69   726.50   733.50
                              735.70   808.25   870.10   892.71   896.77
                              908.80   922.04   952.57  1002.87  1061.30
                             1104.52  1130.58  1145.74  1162.89  1208.21
                             1219.09  1234.42  1236.46  1243.64  1256.97
                             1272.98  1301.55  1339.13  1342.53  1347.04
                             1361.50  1386.34  1395.66  1402.83  1421.55
                             1423.73  1437.96  1450.25  1457.15  1462.50
                             1464.79  1470.86  1516.70  1522.81  1526.47
                             1552.59  1559.59  1599.68  1624.64  1630.06
                             1639.42  1647.39  1683.74  1720.56  1721.22
                             1732.87  1752.67  1773.36  1784.28  1798.60
                             1800.47  1822.62  1836.46  1873.74  1896.72
                             1902.89  1920.74  1932.65  1939.75  1979.01
                             1985.79  1989.88  2006.62  2015.13  2030.61
                             2054.74  2057.48  2062.44  2071.19  2073.32
                             2077.85  2151.18  2164.59  2167.20  2169.52
                             2170.91  2172.99  2174.71  2189.09  2193.23
                             2199.43  2206.03  2206.25  2218.47  2222.00
                             2334.72  2358.86  2382.67  4287.34  4371.86
                             4390.82  4402.16  4410.23  4412.89  4424.44
                             4435.18  4464.74  4479.73  4501.77  4504.43
                             4506.89  4509.79  4515.73  4526.26  4543.16
                             4543.55  4555.58  4570.14  4571.24  4575.52
                             4587.22  4596.44  4608.99  4622.27  4630.39
                             4660.36
 
 Zero-point correction=                           0.466153 (Hartree/Particle)
 Thermal correction to Energy=                    0.492971
 Thermal correction to Enthalpy=                  0.493915
 Thermal correction to Gibbs Free Energy=         0.409013
 Sum of electronic and zero-point Energies=          -1343.032650
 Sum of electronic and thermal Energies=             -1343.005831
 Sum of electronic and thermal Enthalpies=           -1343.004887
 Sum of electronic and thermal Free Energies=        -1343.089790
 
                     E (Thermal)             CV                S
                      KCal/Mol        Cal/Mol-Kelvin    Cal/Mol-Kelvin
 Total                  309.344            105.146            178.692
 Electronic               0.000              0.000              0.000
 Translational            0.889              2.981             43.791
 Rotational               0.889              2.981             35.425
 Vibrational            307.567             99.184             99.476
 Vibration     1          0.593              1.987              8.128
 Vibration     2          0.593              1.985              6.420
 Vibration     3          0.595              1.980              5.067
 Vibration     4          0.595              1.979              5.023
 Vibration     5          0.598              1.969              4.186
 Vibration     6          0.599              1.965              3.989
 Vibration     7          0.601              1.958              3.713
 Vibration     8          0.603              1.953              3.560
 Vibration     9          0.609              1.932              3.097
 Vibration    10          0.613              1.920              2.899
 Vibration    11          0.616              1.909              2.747
 Vibration    12          0.621              1.894              2.582
 Vibration    13          0.621              1.892              2.556
 Vibration    14          0.634              1.852              2.215
 Vibration    15          0.635              1.848              2.188
 Vibration    16          0.639              1.835              2.104
 Vibration    17          0.641              1.828              2.060
 Vibration    18          0.646              1.815              1.984
 Vibration    19          0.652              1.794              1.875
 Vibration    20          0.656              1.782              1.817
 Vibration    21          0.660              1.769              1.759
 Vibration    22          0.676              1.723              1.576
 Vibration    23          0.681              1.708              1.524
 Vibration    24          0.696              1.663              1.386
 Vibration    25          0.701              1.650              1.349
 Vibration    26          0.710              1.624              1.280
 Vibration    27          0.719              1.599              1.220
 Vibration    28          0.729              1.570              1.155
 Vibration    29          0.733              1.559              1.131
 Vibration    30          0.741              1.538              1.088
 Vibration    31          0.755              1.500              1.016
 Vibration    32          0.759              1.489              0.995
 Vibration    33          0.767              1.467              0.958
 Vibration    34          0.776              1.443              0.918
 Vibration    35          0.785              1.420              0.881
 Vibration    36          0.790              1.408              0.863
 Vibration    37          0.811              1.355              0.788
 Vibration    38          0.829              1.313              0.733
 Vibration    39          0.860              1.239              0.646
 Vibration    40          0.865              1.228              0.634
 Vibration    41          0.866              1.225              0.630
 Vibration    42          0.917              1.114              0.520
 Vibration    43          0.963              1.022              0.442
 Vibration    44          0.981              0.989              0.416
                       Q            Log10(Q)             Ln(Q)
 Total Bot       0.736568-188       -188.132787       -433.191751
 Total V=0       0.191624D+27         26.282449         60.517576
 Vib (Bot)       0.195927-203       -203.707906       -469.054788
 Vib (Bot)    1  0.219797D+02          1.342022          3.090120
 Vib (Bot)    2  0.929853D+01          0.968414          2.229857
 Vib (Bot)    3  0.469303D+01          0.671453          1.546078
 Vib (Bot)    4  0.458872D+01          0.661691          1.523600
 Vib (Bot)    5  0.299586D+01          0.476521          1.097231
 Vib (Bot)    6  0.270740D+01          0.432552          0.995987
 Vib (Bot)    7  0.234767D+01          0.370636          0.853422
 Vib (Bot)    8  0.216836D+01          0.336131          0.773970
 Vib (Bot)    9  0.170007D+01          0.230466          0.530667
 Vib (Bot)   10  0.152922D+01          0.184471          0.424761
 Vib (Bot)   11  0.140827D+01          0.148685          0.342359
 Vib (Bot)   12  0.128640D+01          0.109376          0.251847
 Vib (Bot)   13  0.126760D+01          0.102982          0.237125
 Vib (Bot)   14  0.104550D+01          0.019323          0.044493
 Vib (Bot)   15  0.102913D+01          0.012470          0.028712
 Vib (Bot)   16  0.979980D+00         -0.008783         -0.020224
 Vib (Bot)   17  0.954773D+00         -0.020100         -0.046282
 Vib (Bot)   18  0.912854D+00         -0.039599         -0.091179
 Vib (Bot)   19  0.854289D+00         -0.068395         -0.157486
 Vib (Bot)   20  0.824295D+00         -0.083917         -0.193226
 Vib (Bot)   21  0.794865D+00         -0.099707         -0.229583
 Vib (Bot)   22  0.706451D+00         -0.150918         -0.347502
 Vib (Bot)   23  0.682241D+00         -0.166062         -0.382372
 Vib (Bot)   24  0.620484D+00         -0.207269         -0.477255
 Vib (Bot)   25  0.604135D+00         -0.218866         -0.503958
 Vib (Bot)   26  0.574729D+00         -0.240537         -0.553856
 Vib (Bot)   27  0.549347D+00         -0.260153         -0.599025
 Vib (Bot)   28  0.522502D+00         -0.281912         -0.649127
 Vib (Bot)   29  0.512954D+00         -0.289922         -0.667570
 Vib (Bot)   30  0.495244D+00         -0.305181         -0.702705
 Vib (Bot)   31  0.466442D+00         -0.331202         -0.762622
 Vib (Bot)   32  0.458211D+00         -0.338935         -0.780426
 Vib (Bot)   33  0.443796D+00         -0.352816         -0.812389
 Vib (Bot)   34  0.428166D+00         -0.368388         -0.848245
 Vib (Bot)   35  0.413824D+00         -0.383184         -0.882315
 Vib (Bot)   36  0.406810D+00         -0.390609         -0.899410
 Vib (Bot)   37  0.378130D+00         -0.422359         -0.972518
 Vib (Bot)   38  0.357061D+00         -0.447258         -1.029849
 Vib (Bot)   39  0.324060D+00         -0.489374         -1.126826
 Vib (Bot)   40  0.319567D+00         -0.495438         -1.140789
 Vib (Bot)   41  0.318171D+00         -0.497340         -1.145167
 Vib (Bot)   42  0.276192D+00         -0.558789         -1.286660
 Vib (Bot)   43  0.245703D+00         -0.609590         -1.403633
 Vib (Bot)   44  0.235580D+00         -0.627862         -1.445705
 Vib (V=0)       0.509718D+11         10.707330         24.654539
 Vib (V=0)    1  0.224854D+02          1.351901          3.112866
 Vib (V=0)    2  0.981197D+01          0.991756          2.283603
 Vib (V=0)    3  0.521959D+01          0.717636          1.652418
 Vib (V=0)    4  0.511588D+01          0.708920          1.632349
 Vib (V=0)    5  0.353730D+01          0.548671          1.263363
 Vib (V=0)    6  0.325318D+01          0.512308          1.179632
 Vib (V=0)    7  0.290032D+01          0.462446          1.064821
 Vib (V=0)    8  0.272526D+01          0.435408          1.002563
 Vib (V=0)    9  0.227207D+01          0.356421          0.820691
 Vib (V=0)   10  0.210889D+01          0.324054          0.746162
 Vib (V=0)   11  0.199439D+01          0.299811          0.690340
 Vib (V=0)   12  0.188015D+01          0.274193          0.631353
 Vib (V=0)   13  0.186265D+01          0.270131          0.621999
 Vib (V=0)   14  0.165891D+01          0.219822          0.506159
 Vib (V=0)   15  0.164416D+01          0.215944          0.497231
 Vib (V=0)   16  0.160016D+01          0.204164          0.470106
 Vib (V=0)   17  0.157777D+01          0.198044          0.456013
 Vib (V=0)   18  0.154082D+01          0.187751          0.432314
 Vib (V=0)   19  0.148985D+01          0.173143          0.398677
 Vib (V=0)   20  0.146409D+01          0.165567          0.381232
 Vib (V=0)   21  0.143905D+01          0.158075          0.363981
 Vib (V=0)   22  0.136549D+01          0.135288          0.311513
 Vib (V=0)   23  0.134584D+01          0.128995          0.297022
 Vib (V=0)   24  0.129687D+01          0.112896          0.259953
 Vib (V=0)   25  0.128421D+01          0.108635          0.250141
 Vib (V=0)   26  0.126178D+01          0.100985          0.232526
 Vib (V=0)   27  0.124282D+01          0.094408          0.217383
 Vib (V=0)   28  0.122319D+01          0.087495          0.201465
 Vib (V=0)   29  0.121632D+01          0.085050          0.195834
 Vib (V=0)   30  0.120375D+01          0.080537          0.185443
 Vib (V=0)   31  0.118379D+01          0.073274          0.168721
 Vib (V=0)   32  0.117820D+01          0.071219          0.163989
 Vib (V=0)   33  0.116855D+01          0.067646          0.155761
 Vib (V=0)   34  0.115827D+01          0.063812          0.146932
 Vib (V=0)   35  0.114904D+01          0.060334          0.138925
 Vib (V=0)   36  0.114459D+01          0.058649          0.135045
 Vib (V=0)   37  0.112688D+01          0.051879          0.119455
 Vib (V=0)   38  0.111440D+01          0.047043          0.108320
 Vib (V=0)   39  0.109583D+01          0.039744          0.091513
 Vib (V=0)   40  0.109340D+01          0.038779          0.089292
 Vib (V=0)   41  0.109265D+01          0.038481          0.088605
 Vib (V=0)   42  0.107121D+01          0.029875          0.068790
 Vib (V=0)   43  0.105711D+01          0.024120          0.055537
 Vib (V=0)   44  0.105272D+01          0.022312          0.051376
 Electronic      0.100000D+01          0.000000          0.000000
 Translational   0.305273D+09          8.484688         19.536716
 Rotational      0.123149D+08          7.090431         16.326321
 ***** Axes restored to original set *****
 -------------------------------------------------------------------
 Center     Atomic                   Forces (Hartrees/Bohr)
 Number     Number              X              Y              Z
 -------------------------------------------------------------------
      1        6           0.000000058    0.000000674    0.000001048
      2        6           0.000000444    0.000000327   -0.000000462
      3        6          -0.000000190   -0.000001132   -0.000000412
      4        6          -0.000000705   -0.000000296   -0.000000257
      5        6          -0.000000224   -0.000000255   -0.000000256
      6        6           0.000000041   -0.000000241    0.000000013
      7        6          -0.000001475   -0.000002581    0.000001106
      8        6           0.000000911    0.000000026    0.000000876
      9        6          -0.000001960    0.000000184    0.000000603
     10        8           0.000002184    0.000000180    0.000000400
     11        6           0.000000513    0.000001069   -0.000001825
     12        6           0.000000672    0.000000363   -0.000000175
     13        8          -0.000000846    0.000002058    0.000000738
     14        6          -0.000000185   -0.000000854   -0.000000106
     15        6           0.000002826    0.000000786   -0.000001451
     16        6          -0.000002125   -0.000000720    0.000000053
     17        6           0.000000341   -0.000000516    0.000000250
     18        6           0.000000383    0.000000362    0.000000162
     19        8           0.000000395   -0.000000160   -0.000000263
     20        8          -0.000000750   -0.000000128    0.000000354
     21        6           0.000000598   -0.000000369   -0.000000556
     22        8           0.000000469   -0.000000134    0.000000034
     23        6           0.000000246   -0.000000072   -0.000000730
     24        6           0.000000465   -0.000000477   -0.000000299
     25        8          -0.000001784   -0.000002165    0.000002048
     26        8           0.000000123    0.000001812   -0.000000802
     27        6           0.000000187    0.000000156   -0.000000046
     28        6           0.000000578    0.000000366    0.000000592
     29        1           0.000000085    0.000000850    0.000000169
     30        1          -0.000000281    0.000000795    0.000000573
     31        1           0.000001237    0.000000270    0.000001200
     32        1           0.000000258    0.000000464    0.000000502
     33        1           0.000000027    0.000000789    0.000000184
     34        1           0.000000514    0.000000562    0.000000245
     35        1           0.000000091   -0.000000547   -0.000000474
     36        1           0.000000363   -0.000000538   -0.000000148
     37        1           0.000000235   -0.000000462   -0.000000228
     38        1           0.000000182   -0.000000390   -0.000000455
     39        1           0.000000153   -0.000000369   -0.000000468
     40        1           0.000000389   -0.000000632   -0.000000552
     41        1           0.000000062    0.000000256    0.000000375
     42        1          -0.000000335    0.000000261    0.000000120
     43        1          -0.000000298   -0.000000301   -0.000000885
     44        1           0.000000626    0.000000263   -0.000000132
     45        1          -0.000000020   -0.000000160   -0.000000468
     46        1           0.000000554   -0.000000158    0.000000401
     47        1          -0.000000631    0.000000595    0.000000002
     48        1           0.000000163   -0.000000092   -0.000000233
     49        1          -0.000000480    0.000000471    0.000000194
     50        1          -0.000000737    0.000000072   -0.000000016
     51        1          -0.000000527   -0.000000518   -0.000000270
     52        1          -0.000000296   -0.000000148   -0.000000186
     53        1          -0.000000151    0.000000041    0.000000049
     54        1          -0.000001152   -0.000000485   -0.000000385
     55        1          -0.000000197   -0.000000116    0.000000784
     56        1          -0.000001026    0.000000967   -0.000000534
 -------------------------------------------------------------------
 Cartesian Forces:  Max     0.000002826 RMS     0.000000744
 Z-matrix is all fixed cartesians, so copy forces.
 Leave Link  716 at Sun Sep 27 15:03:39 2026, MaxMem= 12884901888 cpu:               0.3 elap:               0.0
 (Enter /opt/apps/Gaussian/G16C/g16/l103.exe)

 GradGradGradGradGradGradGradGradGradGradGradGradGradGradGradGradGradGrad
 Berny optimization.
 Search for a local minimum.
 Step number   1 out of a maximum of    2
 All quantities printed in internal units (Hartrees-Bohrs-Radians)
 Second derivative matrix not updated -- analytic derivatives used.
 ITU=  0
     Eigenvalues ---   -0.06790   0.00002   0.00008   0.00031   0.00035
     Eigenvalues ---    0.00082   0.00099   0.00104   0.00121   0.00148
     Eigenvalues ---    0.00165   0.00169   0.00214   0.00247   0.00253
     Eigenvalues ---    0.00300   0.00321   0.00390   0.00402   0.00565
     Eigenvalues ---    0.00660   0.00781   0.00808   0.00985   0.01128
     Eigenvalues ---    0.01383   0.01451   0.01628   0.01676   0.01828
     Eigenvalues ---    0.01885   0.02377   0.02475   0.02636   0.03048
     Eigenvalues ---    0.03132   0.03221   0.03447   0.03613   0.04196
     Eigenvalues ---    0.04342   0.04611   0.04807   0.04940   0.05033
     Eigenvalues ---    0.05215   0.05349   0.05452   0.05520   0.05652
     Eigenvalues ---    0.05891   0.05924   0.05997   0.06322   0.06487
     Eigenvalues ---    0.06604   0.06831   0.07104   0.07186   0.07315
     Eigenvalues ---    0.07633   0.07989   0.08517   0.08680   0.09048
     Eigenvalues ---    0.09257   0.09322   0.10147   0.10288   0.10579
     Eigenvalues ---    0.10820   0.10967   0.10998   0.11079   0.11507
     Eigenvalues ---    0.11558   0.11886   0.12038   0.12262   0.12961
     Eigenvalues ---    0.13344   0.13516   0.13875   0.14529   0.14714
     Eigenvalues ---    0.15498   0.16437   0.17678   0.18202   0.18452
     Eigenvalues ---    0.18625   0.18923   0.19658   0.20270   0.20719
     Eigenvalues ---    0.21034   0.21984   0.22251   0.22391   0.23364
     Eigenvalues ---    0.24222   0.24626   0.25527   0.26748   0.28367
     Eigenvalues ---    0.29111   0.31592   0.35196   0.36624   0.36959
     Eigenvalues ---    0.39985   0.43051   0.43346   0.44365   0.44780
     Eigenvalues ---    0.47093   0.48193   0.51337   0.53331   0.54589
     Eigenvalues ---    0.55907   0.56250   0.57976   0.59381   0.60994
     Eigenvalues ---    0.64335   0.65285   0.66548   0.68037   0.69881
     Eigenvalues ---    0.71737   0.72903   0.73981   0.76733   0.77507
     Eigenvalues ---    0.77944   0.79065   0.80395   0.81701   0.81980
     Eigenvalues ---    0.82650   0.83643   0.84635   0.85102   0.85205
     Eigenvalues ---    0.85345   0.86287   0.86596   0.87158   0.89039
     Eigenvalues ---    0.90074   0.90142   0.91123   0.92411   0.97087
     Eigenvalues ---    0.97624   1.00385   1.09000   1.11926   1.21731
     Eigenvalues ---    1.27112   1.28221
 Eigenvalue     1 is  -6.79D-02 should be greater than     0.000000 Eigenvector:
                          Y26       Y8        X26       Z15       Z26
   1                    0.75260  -0.44979   0.25023   0.15573  -0.15234
                          Y25       Z25       X8        X7        Y55
   1                   -0.14289  -0.14067  -0.11794  -0.10231  -0.09918
 Angle between quadratic step and forces=  87.09 degrees.
 Linear search not attempted -- first point.
 B after Tr=     0.000055   -0.000010   -0.000053
         Rot=    1.000000    0.000006   -0.000004    0.000006 Ang=   0.00 deg.
 Variable       Old X    -DE/DX   Delta X   Delta X   Delta X     New X
                                 (Linear)    (Quad)   (Total)
    X1       -0.28494   0.00000   0.00000   0.00268   0.00280  -0.28214
    Y1        5.75291   0.00000   0.00000  -0.00127  -0.00130   5.75161
    Z1       -1.50998   0.00000   0.00000   0.00015   0.00003  -1.50995
    X2       -1.36420   0.00000   0.00000   0.00120   0.00133  -1.36287
    Y2        5.50530   0.00000   0.00000  -0.00046  -0.00044   5.50486
    Z2        0.91877  -0.00000   0.00000  -0.00043  -0.00054   0.91823
    X3       -3.87049  -0.00000   0.00000   0.00130   0.00145  -3.86904
    Y3        6.33841  -0.00000   0.00000   0.00055   0.00060   6.33901
    Z3        1.27360  -0.00000   0.00000  -0.00201  -0.00211   1.27148
    X4       -5.25141  -0.00000   0.00000   0.00287   0.00301  -5.24840
    Y4        7.36589  -0.00000   0.00000   0.00085   0.00090   7.36679
    Z4       -0.71333  -0.00000   0.00000  -0.00295  -0.00305  -0.71638
    X5       -4.15677  -0.00000   0.00000   0.00436   0.00449  -4.15228
    Y5        7.58956  -0.00000   0.00000   0.00014   0.00014   7.58970
    Z5       -3.10460  -0.00000   0.00000  -0.00233  -0.00244  -3.10704
    X6       -1.67080   0.00000   0.00000   0.00425   0.00436  -1.66644
    Y6        6.77791  -0.00000   0.00000  -0.00096  -0.00099   6.77692
    Z6       -3.49300   0.00000   0.00000  -0.00078  -0.00090  -3.49390
    X7        0.00748  -0.00000   0.00000  -0.00048  -0.00034   0.00713
    Y7        4.50030  -0.00000   0.00000  -0.00064  -0.00061   4.49968
    Z7        3.07016   0.00000   0.00000   0.00056   0.00045   3.07062
    X8        2.32357   0.00000   0.00000  -0.00051  -0.00038   2.32318
    Y8        3.29761   0.00000   0.00000  -0.00071  -0.00071   3.29690
    Z8        3.06174   0.00000   0.00000   0.00228   0.00216   3.06390
    X9        3.92346  -0.00000   0.00000  -0.00234  -0.00220   3.92126
    Y9        2.98746   0.00000   0.00000  -0.00085  -0.00085   2.98661
    Z9        5.38150   0.00000   0.00000   0.00351   0.00339   5.38489
   X10        3.69290   0.00000   0.00000  -0.00111  -0.00108   3.69183
   Y10       -0.74475   0.00000   0.00000   0.00122   0.00114  -0.74360
   Z10       -1.40119   0.00000   0.00000  -0.00044  -0.00051  -1.40170
   X11        2.52859   0.00000   0.00000  -0.00039  -0.00036   2.52823
   Y11       -2.63335   0.00000   0.00000   0.00061   0.00057  -2.63278
   Z11        0.12240  -0.00000   0.00000  -0.00061  -0.00065   0.12174
   X12        4.59467   0.00000   0.00000   0.00020   0.00023   4.59490
   Y12       -3.39311   0.00000   0.00000   0.00064   0.00060  -3.39251
   Z12        2.02867  -0.00000   0.00000  -0.00122  -0.00127   2.02740
   X13        6.73672  -0.00000   0.00000  -0.00031  -0.00026   6.73646
   Y13       -1.88007   0.00000   0.00000   0.00130   0.00122  -1.87885
   Z13        1.36968   0.00000   0.00000  -0.00132  -0.00141   1.36828
   X14        6.39759  -0.00000   0.00000  -0.00099  -0.00095   6.39664
   Y14       -1.08929  -0.00000   0.00000   0.00168   0.00157  -1.08772
   Z14       -1.17048  -0.00000   0.00000  -0.00110  -0.00119  -1.17168
   X15        0.03853   0.00000   0.00000  -0.00033  -0.00028   0.03825
   Y15       -1.70575   0.00000   0.00000  -0.00026  -0.00026  -1.70601
   Z15        1.35942  -0.00000   0.00000   0.00016   0.00012   1.35954
   X16       -1.96248  -0.00000   0.00000  -0.00099  -0.00096  -1.96344
   Y16       -1.01355  -0.00000   0.00000  -0.00029  -0.00028  -1.01382
   Z16       -0.64916   0.00000   0.00000   0.00080   0.00078  -0.64838
   X17       -2.18712   0.00000   0.00000  -0.00103  -0.00104  -2.18815
   Y17       -3.04954  -0.00000   0.00000   0.00004   0.00003  -3.04952
   Z17       -2.70700   0.00000   0.00000   0.00049   0.00049  -2.70651
   X18        0.27379   0.00000   0.00000  -0.00088  -0.00091   0.27288
   Y18       -4.37521   0.00000   0.00000   0.00079   0.00073  -4.37448
   Z18       -3.38936   0.00000   0.00000  -0.00041  -0.00041  -3.38978
   X19        1.90257   0.00000   0.00000  -0.00020  -0.00022   1.90234
   Y19       -4.83046  -0.00000   0.00000   0.00078   0.00073  -4.82974
   Z19       -1.29148  -0.00000   0.00000  -0.00094  -0.00095  -1.29243
   X20       -4.43562  -0.00000   0.00000  -0.00076  -0.00071  -4.43634
   Y20       -0.91058  -0.00000   0.00000  -0.00106  -0.00100  -0.91158
   Z20        0.36893   0.00000   0.00000   0.00145   0.00144   0.37037
   X21       -5.73026   0.00000   0.00000  -0.00037  -0.00036  -5.73062
   Y21       -3.24077  -0.00000   0.00000  -0.00124  -0.00118  -3.24195
   Z21       -0.22277  -0.00000   0.00000   0.00131   0.00134  -0.22143
   X22       -3.96343   0.00000   0.00000  -0.00034  -0.00036  -3.96379
   Y22       -4.74289  -0.00000   0.00000  -0.00058  -0.00056  -4.74346
   Z22       -1.61438   0.00000   0.00000   0.00064   0.00068  -1.61371
   X23       -6.43208   0.00000   0.00000   0.00047   0.00049  -6.43160
   Y23       -4.64975  -0.00000   0.00000  -0.00184  -0.00174  -4.65150
   Z23        2.18313  -0.00000   0.00000   0.00120   0.00125   2.18439
   X24       -8.02374   0.00000   0.00000  -0.00088  -0.00088  -8.02461
   Y24       -2.58845  -0.00000   0.00000  -0.00146  -0.00139  -2.58983
   Z24       -1.86050  -0.00000   0.00000   0.00194   0.00198  -1.85852
   X25       -0.63890  -0.00000   0.00000   0.00039   0.00043  -0.63847
   Y25       -3.23030  -0.00000   0.00000  -0.00090  -0.00086  -3.23117
   Z25        3.25868   0.00000   0.00000  -0.00008  -0.00008   3.25859
   X26        0.29357   0.00000   0.00000  -0.00037  -0.00029   0.29328
   Y26        0.14278   0.00000   0.00000  -0.00075  -0.00073   0.14205
   Z26        3.33589  -0.00000   0.00000   0.00061   0.00056   3.33644
   X27        7.70594   0.00000   0.00000  -0.00150  -0.00144   7.70450
   Y27        1.44151   0.00000   0.00000   0.00198   0.00185   1.44336
   Z27       -1.55085  -0.00000   0.00000  -0.00092  -0.00105  -1.55190
   X28        7.34279   0.00000   0.00000  -0.00103  -0.00104   7.34175
   Y28       -3.08699   0.00000   0.00000   0.00222   0.00208  -3.08491
   Z28       -3.04480   0.00000   0.00000  -0.00170  -0.00178  -3.04657
   X29        9.75295   0.00000   0.00000  -0.00139  -0.00133   9.75162
   Y29        1.20036   0.00000   0.00000   0.00222   0.00206   1.20243
   Z29       -1.38949   0.00000   0.00000  -0.00198  -0.00212  -1.39161
   X30        7.28023  -0.00000   0.00000  -0.00250  -0.00245   7.27779
   Y30        2.19189   0.00000   0.00000   0.00254   0.00239   2.19428
   Z30       -3.43000   0.00000   0.00000  -0.00047  -0.00060  -3.43060
   X31        7.09993   0.00000   0.00000  -0.00096  -0.00087   7.09906
   Y31        2.80033   0.00000   0.00000   0.00144   0.00133   2.80166
   Z31       -0.11962   0.00000   0.00000  -0.00016  -0.00031  -0.11992
   X32        9.37473   0.00000   0.00000  -0.00095  -0.00096   9.37378
   Y32       -3.37832   0.00000   0.00000   0.00246   0.00229  -3.37603
   Z32       -2.78719   0.00000   0.00000  -0.00212  -0.00221  -2.78940
   X33        6.36332   0.00000   0.00000  -0.00073  -0.00076   6.36256
   Y33       -4.88022   0.00000   0.00000   0.00202   0.00189  -4.87833
   Z33       -2.76105   0.00000   0.00000  -0.00193  -0.00197  -2.76302
   X34        7.00586   0.00000   0.00000  -0.00147  -0.00148   7.00438
   Y34       -2.46014   0.00000   0.00000   0.00260   0.00244  -2.45770
   Z34       -4.98821   0.00000   0.00000  -0.00151  -0.00159  -4.98980
   X35       -7.79386   0.00000   0.00000   0.00045   0.00048  -7.79338
   Y35       -3.54112  -0.00000   0.00000  -0.00237  -0.00224  -3.54335
   Z35        3.27741  -0.00000   0.00000   0.00169   0.00175   3.27916
   X36       -7.28987   0.00000   0.00000   0.00080   0.00078  -7.28908
   Y36       -6.47336  -0.00000   0.00000  -0.00196  -0.00185  -6.47522
   Z36        1.71255  -0.00000   0.00000   0.00105   0.00113   1.71368
   X37       -4.73320   0.00000   0.00000   0.00078   0.00080  -4.73240
   Y37       -4.94301  -0.00000   0.00000  -0.00167  -0.00158  -4.94458
   Z37        3.31286  -0.00000   0.00000   0.00078   0.00083   3.31369
   X38       -9.27612   0.00000   0.00000  -0.00096  -0.00092  -9.27705
   Y38       -1.29394  -0.00000   0.00000  -0.00193  -0.00184  -1.29577
   Z38       -0.84315  -0.00000   0.00000   0.00246   0.00249  -0.84065
   X39       -7.43095   0.00000   0.00000  -0.00150  -0.00149  -7.43244
   Y39       -1.66533  -0.00000   0.00000  -0.00100  -0.00096  -1.66629
   Z39       -3.61411  -0.00000   0.00000   0.00198   0.00200  -3.61211
   X40       -9.08104   0.00000   0.00000  -0.00059  -0.00061  -9.08165
   Y40       -4.30244  -0.00000   0.00000  -0.00162  -0.00154  -4.30398
   Z40       -2.33475  -0.00000   0.00000   0.00186   0.00193  -2.33282
   X41        4.99881   0.00000   0.00000   0.00062   0.00062   4.99944
   Y41       -5.41390   0.00000   0.00000   0.00078   0.00072  -5.41318
   Z41        1.84379   0.00000   0.00000  -0.00178  -0.00181   1.84199
   X42        4.04624  -0.00000   0.00000   0.00050   0.00055   4.04680
   Y42       -2.96655   0.00000   0.00000   0.00005   0.00004  -2.96651
   Z42        3.96589   0.00000   0.00000  -0.00101  -0.00106   3.96484
   X43       -1.49283  -0.00000   0.00000  -0.00162  -0.00156  -1.49440
   Y43        0.83262  -0.00000   0.00000  -0.00003  -0.00004   0.83258
   Z43       -1.45193  -0.00000   0.00000   0.00103   0.00098  -1.45095
   X44       -2.97100   0.00000   0.00000  -0.00168  -0.00169  -2.97269
   Y44       -2.21091   0.00000   0.00000   0.00018   0.00015  -2.21076
   Z44       -4.44705  -0.00000   0.00000   0.00084   0.00084  -4.44621
   X45        1.26487  -0.00000   0.00000  -0.00155  -0.00158   1.26330
   Y45       -3.23244  -0.00000   0.00000   0.00130   0.00122  -3.23122
   Z45       -4.80886  -0.00000   0.00000  -0.00046  -0.00049  -4.80935
   X46       -0.13340   0.00000   0.00000  -0.00063  -0.00069  -0.13410
   Y46       -6.23134  -0.00000   0.00000   0.00084   0.00078  -6.23056
   Z46       -4.19792   0.00000   0.00000  -0.00066  -0.00063  -4.19855
   X47        5.18149  -0.00000   0.00000  -0.00237  -0.00226   5.17923
   Y47        1.36284   0.00000   0.00000  -0.00101  -0.00102   1.36182
   Z47        5.17773   0.00000   0.00000   0.00452   0.00441   5.18214
   X48        5.11075   0.00000   0.00000  -0.00233  -0.00217   5.10858
   Y48        4.67055  -0.00000   0.00000  -0.00100  -0.00101   4.66954
   Z48        5.65296  -0.00000   0.00000   0.00439   0.00424   5.65720
   X49        2.75935  -0.00000   0.00000  -0.00365  -0.00350   2.75584
   Y49        2.74032   0.00000   0.00000  -0.00073  -0.00069   2.73963
   Z49        7.07197   0.00000   0.00000   0.00262   0.00251   7.07448
   X50       -4.72898  -0.00000   0.00000   0.00014   0.00030  -4.72868
   Y50        6.15000   0.00000   0.00000   0.00116   0.00125   6.15125
   Z50        3.12964  -0.00000   0.00000  -0.00249  -0.00258   3.12706
   X51       -7.18262  -0.00000   0.00000   0.00293   0.00309  -7.17953
   Y51        7.98766  -0.00000   0.00000   0.00165   0.00172   7.98938
   Z51       -0.40094  -0.00000   0.00000  -0.00415  -0.00424  -0.40518
   X52       -5.22928  -0.00000   0.00000   0.00559   0.00572  -5.22356
   Y52        8.39718  -0.00000   0.00000   0.00037   0.00037   8.39755
   Z52       -4.65793  -0.00000   0.00000  -0.00306  -0.00317  -4.66111
   X53       -0.80939  -0.00000   0.00000   0.00538   0.00548  -0.80391
   Y53        6.96006   0.00000   0.00000  -0.00161  -0.00168   6.95838
   Z53       -5.34788   0.00000   0.00000  -0.00032  -0.00045  -5.34833
   X54        1.64830  -0.00000   0.00000   0.00252   0.00263   1.65094
   Y54        5.14955  -0.00000   0.00000  -0.00235  -0.00241   5.14714
   Z54       -1.83617  -0.00000   0.00000   0.00126   0.00113  -1.83505
   X55        3.26337  -0.00000   0.00000   0.00093   0.00104   3.26441
   Y55        3.00255  -0.00000   0.00000  -0.00055  -0.00058   3.00196
   Z55        1.26559   0.00000   0.00000   0.00302   0.00290   1.26849
   X56       -0.91292  -0.00000   0.00000  -0.00182  -0.00167  -0.91459
   Y56        4.73068   0.00000   0.00000  -0.00057  -0.00051   4.73018
   Z56        4.89563  -0.00000   0.00000  -0.00013  -0.00023   4.89540
         Item               Value     Threshold  Converged?
 Maximum Force            0.000003     0.000450     YES
 RMS     Force            0.000001     0.000300     YES
 Maximum Displacement     0.005715     0.001800     NO 
 RMS     Displacement     0.001706     0.001200     NO 
 Predicted change in Energy=-2.357075D-09
 Optimization completed on the basis of negligible forces.
    -- Stationary point found.
 GradGradGradGradGradGradGradGradGradGradGradGradGradGradGradGradGradGrad

 Leave Link  103 at Sun Sep 27 15:03:39 2026, MaxMem= 12884901888 cpu:               0.2 elap:               0.0
 (Enter /opt/apps/Gaussian/G16C/g16/l9999.exe)

 ----------------------------------------------------------------------

 Electric dipole moment (input orientation):
 (Debye = 10**-18 statcoulomb cm , SI units = C m)
                  (au)            (Debye)         (10**-30 SI)
   Tot        0.232446D+01      0.590820D+01      0.197076D+02
   x          0.231734D+00      0.589009D+00      0.196472D+01
   y          0.200733D+01      0.510212D+01      0.170188D+02
   z         -0.114894D+01     -0.292032D+01     -0.974114D+01

 Dipole polarizability, Alpha (input orientation).
 (esu units = cm**3 , SI units = C**2 m**2 J**-1)
 Alpha(0;0):
               (au)            (10**-24 esu)      (10**-40 SI)
   iso        0.259039D+03      0.383856D+02      0.427097D+02
   aniso      0.771441D+02      0.114316D+02      0.127193D+02
   xx         0.271178D+03      0.401844D+02      0.447112D+02
   yx        -0.252937D+02     -0.374815D+01     -0.417037D+01
   yy         0.279053D+03      0.413513D+02      0.460096D+02
   zx         0.107514D+02      0.159320D+01      0.177267D+01
   zy        -0.209162D+02     -0.309947D+01     -0.344862D+01
   zz         0.226885D+03      0.336209D+02      0.374083D+02

 ----------------------------------------------------------------------

 Dipole orientation:
     6         -0.76502754         -1.59428322          5.68596710
     6         -1.58071391         -3.62980571          4.16405970
     6         -4.08295986         -4.49795292          4.45825365
     6         -5.71198024         -3.37637667          6.18998264
     6         -4.87589631         -1.36033394          7.67422732
     6         -2.39842466         -0.47511479          7.41312941
     6          0.05422151         -4.90521008          2.36951736
     6          2.42335835         -4.16202339          1.56598148
     6          4.26174017         -5.91775034          0.31102963
     8          3.57155946          1.79585360          0.41760690
     6          2.67569711          1.35912219         -2.08248719
     6          4.96184702          0.21255300         -3.47484661
     8          6.93678143          0.14711127         -1.62896540
     6          6.30110916          1.92504238          0.27567528
     6          0.27207830         -0.31725804         -2.14112088
     6         -1.95574930          0.95524420         -0.75004120
     6         -2.26674279          3.73928022         -1.51349956
     6          0.18614894          5.13440538         -2.07568364
     8          2.03946278          3.64463708         -3.34338949
     8         -4.31688049         -0.11800950         -1.41090187
     6         -5.52763854          1.48564407         -3.25977371
     8         -3.82475151          3.54165498         -3.69296626
     6         -5.90376576          0.07336245         -5.73568692
     6         -8.00671814          2.44102467         -2.11559252
     8         -0.12367007         -1.23272057         -4.46398201
     8          0.61595533         -2.93536464         -1.49630699
     6          7.41702935          1.06113187          2.77962970
     6          7.16825973          4.59880827         -0.42879740
     1          9.48040142          1.16051939          2.69569806
     1          6.76357738          2.28348342          4.31401917
     1          6.87944469         -0.89042631          3.18521017
     1          9.22915367          4.63935717         -0.60513949
     1          6.32691178          5.19563245         -2.21527203
     1          6.60370806          5.94365349          1.03953887
     1         -7.21126444         -1.50543118         -5.45495185
     1         -6.69769448          1.34382565         -7.16341040
     1         -4.08665738         -0.65745277         -6.37797106
     1         -9.22393331          0.84185130         -1.62541509
     1         -7.64588209          3.52711713         -0.39254881
     1         -9.00552255          3.64825540         -3.46673034
     1          5.46129815          1.40777283         -5.08826402
     1          4.58562116         -1.70564201         -4.11869984
     1         -1.67562053          0.75073890          1.28785726
     1         -3.26720107          4.77666487         -0.00735420
     1          0.96328442          5.84487802         -0.28838646
     1         -0.19200854          6.73897998         -3.31950952
     1          5.58469143         -4.85547885         -0.86579828
     1          5.37123106         -6.92688542          1.74867033
     1          3.28814164         -7.32085408         -0.85402111
     1         -4.73985094         -6.05584471          3.29255078
     1         -7.63501610         -4.06887613          6.37998401
     1         -6.14265670         -0.48527974          9.03252688
     1         -1.73815225          1.08508442          8.57313924
     1          1.15759978         -0.89896036          5.51888530
     1          3.19484572         -2.40897894          2.29267405
     1         -0.69134103         -6.65005927          1.57441746

 Electric dipole moment (dipole orientation):
 (Debye = 10**-18 statcoulomb cm , SI units = C m)
                  (au)            (Debye)         (10**-30 SI)
   Tot        0.232446D+01      0.590820D+01      0.197076D+02
   x          0.000000D+00      0.000000D+00      0.000000D+00
   y          0.000000D+00      0.000000D+00      0.000000D+00
   z          0.232446D+01      0.590820D+01      0.197076D+02

 Dipole polarizability, Alpha (dipole orientation).
 (esu units = cm**3 , SI units = C**2 m**2 J**-1)
 Alpha(0;0):
               (au)            (10**-24 esu)      (10**-40 SI)
   iso        0.259039D+03      0.383856D+02      0.427097D+02
   aniso      0.771441D+02      0.114316D+02      0.127193D+02
   xx         0.276029D+03      0.409033D+02      0.455110D+02
   yx         0.755354D+01      0.111932D+01      0.124541D+01
   yy         0.222417D+03      0.329588D+02      0.366716D+02
   zx        -0.273298D+02     -0.404986D+01     -0.450608D+01
   zy        -0.131204D+02     -0.194425D+01     -0.216327D+01
   zz         0.278670D+03      0.412947D+02      0.459465D+02

 ----------------------------------------------------------------------
 Unable to Open any file for archive entry.
 1\1\GINC-NODE13\Freq\RB3LYP\6-31G(d)\C21H28O7\RPATON\27-Sep-2026\0\\#p
  b3lyp/6-31g(d) freq=noraman int=finegrid\\ts10 at the B3LYP/6-31G* ge
 ometry of the Singleton & Wang 2005 SI (frequencies only, no optimizat
 ion)\\0,1\C,-0.1507830347,3.0443105882,-0.7990448169\C,-0.72190297,2.9
 132813291,0.4861898114\C,-2.0481752319,3.3541415719,0.6739575103\C,-2.
 7789290832,3.897860928,-0.3774760039\C,-2.1996678394,4.0162209756,-1.6
 428815238\C,-0.8841518813,3.5867147784,-1.8484144247\C,0.0039564909,2.
 3814544305,1.6246613032\C,1.229578541,1.7450186196,1.6202008452\C,2.07
 62033842,1.5808959903,2.8477657067\O,1.9542004122,-0.3941024239,-0.741
 4790199\C,1.3380747395,-1.3935104621,0.0647691338\C,2.4313953125,-1.79
 55543961,1.0735245166\O,3.5649197052,-0.9948894551,0.7248041101\C,3.38
 54598443,-0.576426774,-0.6193927182\C,0.0203914713,-0.9026433586,0.719
 3724274\C,-1.0384995911,-0.5363450746,-0.3435201949\C,-1.1573723199,-1
 .6137484023,-1.4324809792\C,0.1448851298,-2.3152626989,-1.7935740273\O
 ,1.0067948319,-2.5561699704,-0.6834230446\O,-2.34723153,-0.481857112,0
 .195228648\C,-3.0323214613,-1.7149406167,-0.1178851238\O,-2.0973554667
 ,-2.5098317298,-0.8542955967\C,-3.403711449,-2.4605425736,1.1552633302
 \C,-4.2459787322,-1.3697461127,-0.984535096\O,-0.3380911021,-1.7094037
 112,1.7244169345\O,0.1553494004,0.0755542958,1.7652747243\C,4.07781012
 39,0.7628141099,-0.8206749143\C,3.8856373195,-1.6335635236,-1.61123722
 29\H,5.1610394913,0.6352048518,-0.7352852643\H,3.8525328648,1.15989635
 66,-1.8150772818\H,3.7571219856,1.4818705772,-0.0632987482\H,4.9608950
 039,-1.7877297824,-1.4749191017\H,3.3673260681,-2.5825021846,-1.461083
 2223\H,3.707341102,-1.3018475996,-2.6396495867\H,-4.1243320976,-1.8738
 781488,1.7343315731\H,-3.8576323429,-3.4255552841,0.9062437844\H,-2.50
 46999311,-2.6157267145,1.7530911353\H,-4.9087132726,-0.684721115,-0.44
 61731977\H,-3.9322895744,-0.8812565553,-1.912505596\H,-4.805481601,-2.
 2767526444,-1.2354990315\H,2.6452588832,-2.8649123542,0.9756932528\H,2
 .1411804049,-1.5698309133,2.098660223\H,-0.7899723827,0.440602556,-0.7
 683264252\H,-1.5721853856,-1.1699620053,-2.3532761786\H,0.6693430099,-
 1.7105324367,-2.5447383069\H,-0.0705944371,-3.297481301,-2.2214421838\
 H,2.7419251698,0.7211857559,2.7399375044\H,2.7044925005,2.4715461564,2
 .9914173816\H,1.4601831409,1.4501138896,3.7423267577\H,-2.5024694165,3
 .2544373137,1.6561321336\H,-3.8008767658,4.2268870914,-0.2121662167\H,
 -2.767213449,4.4435949774,-2.4648729541\H,-0.4283102653,3.6831026857,-
 2.8299760232\H,0.8722451059,2.7250222165,-0.9716613078\H,1.7269007466,
 1.5888788089,0.6697200277\H,-0.4830971393,2.5033706843,2.5906575736\\V
 ersion=AS64L-G16RevC.01\State=1-A\HF=-1343.4988027\RMSD=9.041e-09\RMSF
 =7.438e-07\ZeroPoint=0.4661528\Thermal=0.4929713\ETot=-1343.0058315\HT
 ot=-1343.0048873\GTot=-1343.0897897\Dipole=0.2317339,2.0073277,-1.1489
 428\DipoleDeriv=0.0374302,0.0578326,-0.0316885,-0.0635515,-0.1050748,-
 0.002156,0.081044,-0.16574,0.0075831,-0.0702175,0.1844096,-0.039761,0.
 0264469,-0.0136191,0.03169,-0.0775464,0.250288,-0.215362,-0.0070965,-0
 .1568962,0.025004,0.0117705,-0.0362298,-0.0814408,-0.115319,0.0908195,
 0.1021075,0.1872828,-0.1582178,-0.0135309,-0.072992,-0.0858682,0.02833
 53,-0.0335236,0.1025493,-0.1719899,0.0388756,-0.0446593,0.0616682,-0.0
 395382,-0.0766333,-0.0511394,0.0025718,0.0249228,0.0557976,-0.1594179,
 0.1791007,-0.1657053,0.0454846,-0.1523717,0.0072292,-0.1046437,-0.0649
 203,0.1172485,0.0449276,-1.001959,-0.0153791,-0.2524716,0.3241208,-0.1
 908633,0.1676854,-0.4235343,0.3759325,0.3479142,0.3297433,0.2238172,0.
 0006424,-1.0286689,0.1160536,0.1640962,0.0523289,0.2002418,0.0065281,0
 .0333345,-0.0835906,-0.0367993,0.1973726,-0.0254765,-0.0074624,-0.0034
 634,0.0424777,-1.353295,0.1145904,0.1111009,-0.2181783,-0.5932322,-0.0
 346004,0.3635199,0.0123972,-0.5271504,0.7084498,-0.0493709,0.0317828,0
 .6408909,0.7632085,0.2390379,-0.2871546,0.205036,0.5492594,0.4825532,0
 .0761881,-0.2223266,0.0588297,0.4086691,-0.1104911,-0.0572432,-0.01291
 38,0.1872046,-0.8095978,-0.0791307,0.1372854,-0.0606812,-0.5226985,0.1
 682223,0.1518851,0.0837367,-0.7860462,1.2690688,-0.0563751,-0.1678935,
 -0.0443001,0.6646721,-0.013683,-0.2601071,-0.0304112,0.8613238,0.56868
 95,-0.2413862,-0.0034751,-0.0838948,0.0226338,0.0744994,-0.1469054,1.5
 809675,0.6191961,0.68747,0.3818945,-0.0784209,-0.0752187,0.2034074,0.0
 676465,-0.1379194,-0.1373438,0.0838081,0.523689,0.075005,-0.1449666,0.
 3410365,0.3309923,-0.1590824,-0.0371059,-0.0264014,0.3570421,0.5837223
 ,0.0943648,0.1741201,-0.0410924,0.2542522,-0.0721924,0.2468647,0.24147
 52,0.5383579,-0.8523761,-0.0025153,-0.1570593,-0.1618253,-0.6610012,-0
 .2058518,-0.2839828,-0.4420249,-0.7474511,-1.2123346,-0.4400737,0.0264
 092,-0.2963885,-0.5958322,-0.0742092,0.1118486,-0.1067658,-0.3909678,1
 .3058038,0.3586172,-0.0689944,0.2324581,0.6974083,0.0145319,-0.0629025
 ,0.0562707,0.7434576,-1.0520524,-0.1817068,0.284192,-0.0903718,-0.5531
 853,0.0055885,0.3054019,-0.1252932,-0.5906723,-0.0396931,0.026619,-0.0
 651331,-0.0553592,0.006126,0.1132969,0.0356499,0.1738979,-0.1202003,-0
 .1128533,0.0157112,-0.0467447,0.0664966,0.0804813,0.0532379,-0.1337216
 ,0.0508301,-0.0512789,-0.4261526,-0.4056868,0.1099605,-0.0731917,-1.68
 65384,0.1897008,0.1229276,-0.7395826,-0.410015,-0.5316056,0.9748591,-0
 .2047222,0.188555,1.8762506,-0.2295628,-0.1174297,-0.4349199,-0.506259
 7,-0.0146082,-0.0409831,0.0474744,-0.1267129,-0.0952001,0.0374734,-0.0
 043607,-0.0156161,0.0638439,-0.0218367,-0.0051569,0.0580871,0.0740078,
 -0.1435209,-0.1370063,0.085569,-0.0610452,-0.034555,-0.1297786,0.00503
 ,0.0045838,0.0461249,0.0497909,0.0049121,-0.0039196,0.0013707,0.068759
 2,0.0604271,0.0153193,-0.0527422,-0.0173617,0.0263728,0.0388047,-0.018
 3006,0.0574599,-0.0750292,0.0657911,0.0348863,0.0374507,0.0483482,-0.0
 576638,-0.0743851,0.0559508,-0.0861091,-0.0355486,-0.1601344,0.0468105
 ,0.0072573,0.0193111,0.0623785,-0.0143885,-0.0197528,-0.0101405,0.0441
 924,0.097781,-0.0672517,-0.0040753,-0.0666697,-0.0397712,0.0048056,-0.
 0010533,0.0184865,0.048024,0.053968,0.0224333,-0.0397168,0.0236697,0.0
 353081,0.0592195,0.0038293,0.0274478,-0.1091668,-0.0412671,0.0219987,0
 .0826098,0.0804438,0.0014211,-0.0575346,0.0763936,-0.0219566,0.0038613
 ,0.002947,-0.1105017,0.0033287,-0.1016161,-0.0962676,-0.0114259,-0.016
 9474,-0.0666842,0.0339997,0.0621223,0.1015294,-0.0556046,0.070099,0.12
 64552,0.0084728,-0.0575286,-0.033888,0.0233262,-0.0330182,0.0408049,0.
 0392521,0.092309,-0.0002058,-0.0500336,0.0549952,-0.0585858,0.0058277,
 0.0309322,-0.0225415,0.0485263,-0.0179324,0.0130804,0.0819227,0.036329
 7,0.0656572,-0.0903926,-0.0337171,-0.0711228,-0.0285231,-0.1087056,-0.
 0773115,-0.04134,-0.0437559,-0.0278134,0.0530856,-0.0253046,0.0305741,
 0.0261475,0.0218756,-0.128232,0.0286702,0.0300549,-0.0463906,0.0589095
 ,0.0757878,-0.0830074,0.0497068,-0.0466045,0.0550936,-0.0428303,0.0376
 551,-0.0429458,-0.0379831,-0.0548226,-0.1041372,0.0018773,-0.0637674,-
 0.001219,0.0405418,-0.0024445,0.0077342,-0.0029603,-0.0852501,-0.01398
 52,-0.0656988,-0.0224797,-0.0427531,0.0881163,-0.0365898,0.0033437,-0.
 1629946,-0.0582968,-0.0269615,0.0511183,-0.0072293,0.0159391,0.1156902
 ,0.0216633,0.0023066,-0.0751343,0.0087287,-0.0314664,-0.0319291,-0.002
 5426,-0.0780185,-0.085879,-0.0504219,-0.0572575,0.0145466,0.0156942,0.
 0278972,-0.0008211,0.0944722,-0.0059357,0.0317351,-0.0356896,-0.020737
 5,0.0651452,-0.0434269,-0.0708761,-0.0652747,-0.0907768,-0.050162,-0.0
 309619,-0.097946,0.0138617,-0.0023082,-0.002555,-0.0062486,0.105563,0.
 0215363,0.0573614,0.0242375,0.0189485,-0.0052906,-0.0480575,0.0545663,
 0.0034187,0.0301405,-0.0020835,0.1071331,0.0326911,0.0551039,0.004745,
 -0.0537931,-0.0825748,0.0945639,0.0156054,0.0574392,0.0763113,0.006015
 7,0.0282113,0.0056908,0.0620835,0.0223772,0.0596405,-0.0623661,0.04686
 67,0.066681,0.0559199,-0.0655895,0.0753025,-0.0290866,0.036688,0.00025
 55,0.0705793,0.0098204,0.0974103,0.0154187,0.0482977,0.0582249,-0.0717
 652,-0.0497125,0.0412428,0.0184433,0.0361585,0.1041783,-0.0086193,0.00
 41482,-0.0138095,0.0609913,0.0559512,-0.0077033,-0.0254531,-0.0486316,
 0.1685822,0.017681,-0.0099435,0.0165209,-0.0564211,0.0268289,0.0312459
 ,0.058505,0.0338753,0.0341222,0.0037547,0.0165652,-0.0020869,-0.045044
 4\Polar=271.1780768,-25.2937401,279.0525887,10.7514252,-20.9162386,226
 .8852733\Quadrupole=2.2286443,-2.845975,0.6173306,-3.2016445,-0.416504
 7,3.0819418\PG=C01 [X(C21H28O7)]\NImag=1\\0.67642711,-0.18733609,0.231
 88339,-0.03180763,-0.12074458,0.62988375,-0.15228767,0.01724804,0.0597
 3839,0.59705371,0.00636262,-0.07524766,0.02994831,-0.15481519,0.238438
 82,0.09837574,0.01719558,-0.25417612,-0.04804370,-0.10153335,0.6368729
 6,-0.01569038,-0.00802328,0.06467993,-0.27554085,0.07472316,0.01687047
 ,0.60901571,0.00009194,0.01440989,-0.02468665,0.06116871,-0.09098285,0
 .00759303,-0.15898516,0.22884400,0.03202084,-0.01308583,0.01459574,0.0
 6068264,-0.00859087,-0.12477626,-0.05404871,-0.13279765,0.71062361,-0.
 00204976,-0.00045582,-0.00470042,-0.02544101,0.01739763,-0.01953002,-0
 .18591396,0.07521092,-0.11234307,0.68140036,0.00007583,-0.01053116,0.0
 1517676,0.02794578,-0.00252437,-0.00032238,0.05945515,-0.10617317,0.09
 073985,-0.18799374,0.22953931,-0.00583957,0.01523859,-0.05827094,-0.05
 977648,0.01410041,0.03591006,-0.05163150,0.06861623,-0.24932181,-0.051
 59213,-0.11579885,0.64343900,-0.03160206,0.02981198,-0.06247500,-0.037
 22577,0.00294221,0.03060136,0.05740021,-0.02102495,0.01121395,-0.16008
 679,0.02279728,0.05316030,0.62589312,0.01865960,-0.00339244,0.01254467
 ,0.00328932,-0.00697195,-0.00736044,-0.00976843,0.00722733,0.01147376,
 0.00618699,-0.07392996,0.04242895,-0.17881007,0.23514607,-0.01824942,-
 0.00339047,0.04495126,0.02921252,-0.00730129,-0.02179692,-0.03321045,0
 .02817770,-0.05355563,0.11614204,0.01927882,-0.29645977,-0.01275675,-0
 .14046542,0.68297932,-0.18234290,0.05902796,-0.05260740,0.04881544,-0.
 00689255,-0.03594785,-0.04572456,0.01935876,-0.02045308,-0.01560364,-0
 .01106183,0.07502393,-0.30137889,0.08822663,0.00354703,0.62167994,0.07
 468237,-0.10369717,0.07117760,-0.01587839,0.00561676,0.02812049,0.0189
 8670,-0.01619818,0.00836262,-0.00000069,0.01533703,-0.02993873,0.07107
 074,-0.09123733,0.01766626,-0.16177061,0.22181123,-0.11278742,0.092913
 21,-0.25421027,0.00508227,0.01270332,-0.04924481,-0.01932737,0.0075378
 4,-0.01068031,0.03264820,-0.01446404,0.01722763,0.06613444,-0.00541690
 ,-0.13113128,-0.06802819,-0.12779656,0.70470960,0.01533154,-0.00439921
 ,-0.00769349,-0.12545476,0.03746569,-0.03955739,-0.03159000,0.02038052
 ,-0.03000358,-0.00375448,0.00248027,0.00620711,-0.00323195,0.00090579,
 -0.00000573,0.00450833,-0.00215179,0.00715575,0.62137422,-0.00154134,0
 .00000627,0.01558544,0.03641349,-0.08248208,0.03516094,0.01971474,-0.0
 0705603,0.01245583,0.00334299,0.00595918,-0.00350440,0.00128926,-0.001
 25645,0.00042184,-0.00298861,0.00777565,-0.00123953,-0.23396918,0.2494
 9150,-0.01506995,0.01366011,-0.03793520,-0.05914292,0.05303016,-0.2053
 2446,-0.01479543,0.00555206,0.00385471,0.00336460,-0.00168178,0.005656
 69,0.00011852,0.00011738,-0.00148809,0.00821079,-0.00135030,-0.0011896
 9,-0.04749958,-0.03250453,0.62774782,0.00048435,-0.00079519,0.00403379
 ,-0.01732687,0.01209175,-0.01005524,0.00330408,0.00038882,-0.00120062,
 -0.00095857,-0.00009682,-0.00057774,0.00061940,-0.00037234,0.00043496,
 -0.00147456,0.00075677,-0.00037026,-0.34547086,0.16408093,0.01339079,0
 .64192008,0.00202270,-0.00028172,-0.00548058,0.02068518,-0.00756669,0.
 01764876,-0.00665515,0.00487751,0.00128268,-0.00005434,-0.00084258,0.0
 0344219,0.00055779,-0.00004078,-0.00046244,0.00243431,-0.00076806,-0.0
 0007691,0.11788638,-0.09918315,-0.01487475,-0.21133852,0.19214599,-0.0
 0165625,0.00070396,-0.00037692,-0.02665015,0.01198525,0.00673441,0.000
 54806,0.00170347,-0.00470400,-0.00185318,0.00049192,-0.00007186,-0.000
 72858,0.00007432,0.00063735,0.00080075,-0.00071981,0.00044953,0.011589
 77,0.00103339,-0.11423683,-0.04813500,0.01796727,0.62099598,-0.0004374
 5,-0.00010294,0.00027906,-0.00053002,0.00155893,0.00271871,-0.00011902
 ,0.00050277,-0.00079606,-0.00016957,-0.00011314,0.00006356,-0.00004120
 ,0.00006116,0.00002253,0.00028254,-0.00009406,-0.00018418,-0.01766735,
 0.00364713,-0.02514138,-0.12354549,0.02056619,-0.05814687,0.55318108,-
 0.00042345,-0.00006331,0.00003437,0.00461307,0.00542153,-0.00122034,0.
 00073886,-0.00077481,0.00080248,0.00028696,-0.00038262,-0.00064992,-0.
 00019919,0.00016876,-0.00006048,-0.00017493,-0.00002075,0.00015850,0.0
 1445778,-0.00155228,0.01776210,0.01891037,-0.06402175,0.01616971,-0.01
 730312,0.55975056,0.00041662,0.00006605,-0.00076805,0.00300735,-0.0021
 8830,0.00104759,-0.00039083,-0.00005417,0.00054180,0.00014035,-0.00000
 610,0.00019139,0.00000738,-0.00000934,-0.00005218,0.00002339,-0.000030
 87,0.00010531,-0.00606734,0.00135102,0.00323446,-0.05979387,0.01443543
 ,-0.18779263,-0.04991398,0.00288558,0.53429372,-0.00035472,0.00032689,
 0.00029998,-0.00014188,0.00006198,-0.00048810,0.00038138,-0.00005414,-
 0.00027892,0.00020784,0.00002968,-0.00021203,-0.00002603,0.00004901,-0
 .00015182,-0.00028031,0.00009011,0.00021994,0.00307601,-0.00043772,0.0
 0067536,-0.00146595,0.00357428,-0.00027561,-0.00020092,0.00040326,-0.0
 0018678,0.34527872,-0.00106942,-0.00005905,0.00030334,-0.00011167,0.00
 004824,-0.00019561,0.00019992,-0.00005278,-0.00002065,0.00009846,0.000
 01010,-0.00013615,-0.00004589,0.00003577,0.00007058,0.00022629,-0.0000
 5796,-0.00016921,0.00163318,-0.00001688,-0.00109686,-0.00213051,-0.000
 09922,0.00103610,0.00113847,-0.00006466,-0.00057329,0.01242542,0.25606
 581,0.00076464,-0.00002704,-0.00017787,0.00004571,0.00000575,0.0001940
 5,-0.00028008,0.00004700,0.00026533,-0.00018069,-0.00002930,0.00024129
 ,0.00012531,-0.00009764,0.00015504,0.00015469,0.00000051,-0.00002529,-
 0.00171704,0.00037700,-0.00125438,0.00065425,-0.00313842,0.00011565,-0
 .00008084,0.00034443,0.00006197,-0.00538853,-0.10870361,0.21674901,0.0
 0091151,-0.00000718,-0.00044033,0.00027915,-0.00012775,0.00052985,-0.0
 0045795,0.00010079,0.00024269,-0.00021905,-0.00002126,0.00028742,0.000
 06011,-0.00007928,0.00011483,0.00019127,-0.00004018,0.00001541,-0.0029
 3842,0.00115563,-0.00064133,0.00258751,-0.00164861,0.00028262,-0.00021
 256,-0.00044076,0.00025564,-0.09911226,0.00615209,0.00169743,0.5607715
 0,0.00065296,-0.00006115,-0.00015114,0.00007222,-0.00008956,0.00009914
 ,-0.00009757,0.00003003,-0.00011430,-0.00002518,-0.00001812,0.00004649
 ,-0.00000604,0.00000894,-0.00015552,-0.00029059,0.00005341,0.00014484,
 -0.00039825,0.00021335,0.00077857,0.00127043,-0.00029206,-0.00125500,-
 0.00067679,-0.00022795,0.00027870,-0.00354480,-0.10297267,0.03941071,-
 0.03254839,0.39844086,-0.00065871,0.00006614,0.00028227,-0.00022602,0.
 00001929,-0.00028360,0.00032684,-0.00006893,-0.00023588,0.00018644,0.0
 0002546,-0.00023883,-0.00010073,0.00007438,-0.00012571,-0.00017502,0.0
 0000578,0.00004434,0.00192230,-0.00066325,0.00019934,-0.00101834,0.000
 65472,0.00043658,0.00060960,-0.00018535,-0.00034521,0.02922061,0.05254
 452,-0.11466101,0.02357309,-0.00248863,0.48041253,0.00029289,-0.000081
 73,-0.00020119,0.00016844,-0.00007005,0.00029523,-0.00021272,0.0000574
 7,0.00012285,-0.00010745,-0.00001772,0.00015101,0.00004332,-0.00004633
 ,0.00008669,0.00015079,-0.00003487,-0.00003813,-0.00150133,0.00049839,
 -0.00039805,0.00110794,-0.00136514,-0.00005344,-0.00014810,-0.00029310
 ,0.00057221,-0.00621972,-0.00006880,-0.00205077,-0.11074710,0.03146727
 ,-0.05004787,0.41554354,0.00007457,-0.00002638,-0.00004986,0.00001863,
 -0.00003308,0.00008229,-0.00003961,0.00002652,-0.00004404,-0.00000069,
 -0.00000562,0.00002160,0.00000561,0.00000606,-0.00002626,-0.00003949,0
 .00001355,0.00000678,-0.00035015,0.00008745,0.00013857,0.00058800,-0.0
 0070518,-0.00014467,-0.00010612,-0.00043264,0.00028472,-0.00599578,-0.
 01720411,0.02694182,0.02993384,-0.07647231,0.01354724,-0.03901497,0.58
 858143,-0.00003129,-0.00002801,0.00001912,-0.00003367,0.00001278,-0.00
 002063,-0.00000858,0.00000430,-0.00003339,0.00001466,-0.00000381,-0.00
 001342,-0.00000326,0.00001536,-0.00004326,-0.00006187,0.00000386,-0.00
 003002,0.00006687,-0.00005910,-0.00009843,0.00008745,0.00007249,0.0005
 4801,0.00054475,-0.00004533,-0.00020858,-0.00167383,0.02825603,-0.0247
 2302,-0.02209778,0.00868874,-0.11110332,-0.04739432,0.02513529,0.62543
 622,-0.00025777,0.00018129,0.00018566,-0.00013195,0.00003188,-0.000266
 56,0.00022546,-0.00004116,-0.00013950,0.00011278,0.00002265,-0.0001368
 7,-0.00002886,0.00003792,-0.00007205,-0.00013171,0.00005110,0.00010831
 ,0.00147709,-0.00036338,0.00048242,-0.00073655,0.00109177,-0.00025012,
 0.00001191,0.00017860,-0.00004498,-0.03500552,0.00373605,-0.03740574,-
 0.04319244,-0.00944931,-0.00485954,-0.14822981,-0.05336720,0.00063984,
 0.31354065,-0.00032332,0.00007397,0.00011420,-0.00004061,0.00003819,-0
 .00014277,0.00011203,-0.00004364,0.00000451,0.00003814,0.00001117,-0.0
 0008380,-0.00003518,0.00001554,0.00000908,0.00005226,-0.00001687,-0.00
 001927,0.00087307,-0.00012786,-0.00015045,-0.00119483,0.00118598,0.000
 37083,0.00029461,0.00039949,-0.00074167,0.02531939,0.00029224,0.022546
 55,-0.01411376,-0.00679932,0.00397218,-0.07102373,-0.10498791,0.011439
 39,0.11347511,0.20500184,0.00042738,-0.00004266,-0.00008224,0.00010435
 ,0.00003255,0.00007498,-0.00012634,0.00001466,0.00015541,-0.00008941,-
 0.00001175,0.00012935,0.00007312,-0.00005716,0.00009957,0.00009103,0.0
 0000977,-0.00001361,-0.00049100,0.00029163,-0.00000295,-0.00025081,-0.
 00023933,-0.00109943,-0.00053819,0.00102923,-0.00060110,-0.05040386,0.
 00904382,-0.02167986,-0.00368422,0.00603813,-0.00644203,0.02660865,0.0
 2145812,-0.09078385,0.01167088,-0.09537420,0.35498799,-0.00006424,-0.0
 0041200,-0.00016443,0.00007011,-0.00005351,0.00030957,-0.00024922,0.00
 002788,0.00019912,-0.00012321,-0.00003462,0.00012490,0.00000254,-0.000
 02656,0.00011321,0.00024185,-0.00011507,-0.00027410,-0.00149940,0.0004
 9251,-0.00096601,0.00022315,-0.00195535,0.00124934,0.00045836,-0.00013
 477,0.00012625,-0.12189484,0.01209041,0.00730446,-0.04925409,-0.045152
 53,0.02990043,0.00452015,-0.00063355,0.02738926,-0.08259967,-0.0090804
 8,-0.02083692,0.45021674,0.00040538,-0.00026382,-0.00009580,-0.0000518
 9,0.00001530,0.00003758,-0.00007481,0.00001215,0.00002599,-0.00002972,
 -0.00000685,0.00005833,0.00004028,-0.00000934,-0.00001740,-0.00012984,
 0.00004431,0.00002380,-0.00039658,0.00002824,0.00058306,0.00035102,-0.
 00054455,-0.00148581,-0.00043692,0.00035821,-0.00013546,0.02492533,-0.
 08993222,0.01415277,-0.02844181,0.01127404,-0.00100138,-0.01256171,-0.
 02190990,0.02922555,-0.01921337,-0.07818802,0.01076242,0.06472585,0.54
 877797,-0.00038656,0.00011745,0.00007894,-0.00009693,-0.00004767,-0.00
 008344,0.00013444,-0.00000903,-0.00016050,0.00008192,0.00001779,-0.000
 12441,-0.00006724,0.00004841,-0.00008348,-0.00006883,0.00000253,0.0000
 5029,0.00024262,-0.00040943,0.00023336,0.00062994,-0.00037299,0.000408
 53,0.00064271,-0.00115240,0.00022743,-0.00055473,0.01267291,-0.0734938
 5,0.01669424,-0.01269778,0.00872305,0.02946617,0.02602930,-0.02539733,
 0.00183866,0.02432138,-0.17342369,-0.06583035,-0.00634099,0.47735642,0
 .00055264,-0.00086913,0.00038700,-0.00046153,0.00043814,-0.00107189,-0
 .00011619,-0.00007295,0.00006028,-0.00004799,-0.00000328,0.00015309,0.
 00031616,-0.00003871,-0.00015319,-0.00065232,0.00032726,-0.00053836,-0
 .00625602,-0.00605154,0.00409201,0.00190517,-0.00787439,-0.00392227,-0
 .00116338,-0.00143135,-0.00030587,0.00082461,-0.00296560,0.00207067,-0
 .15120352,0.04093133,0.01342935,-0.02271192,0.00894856,0.00238423,0.00
 005233,-0.00045641,0.00087375,-0.00413955,0.00195506,-0.00140282,0.448
 16839,0.00035833,-0.00088741,0.00130858,-0.00142341,-0.00003644,-0.001
 89025,0.00072054,-0.00015409,0.00025202,-0.00021909,0.00005999,0.00009
 576,0.00062675,-0.00026130,0.00020207,-0.00057686,0.00057035,-0.000534
 40,-0.00644284,-0.01358920,0.00426594,-0.00135280,-0.02411670,0.004163
 22,0.00190720,0.00383332,0.00109105,-0.02907475,0.00059540,0.01285074,
 0.04326154,-0.06409272,-0.00639417,0.00864012,-0.00238219,-0.00258024,
 0.00009865,-0.00024087,-0.00014017,0.00189659,-0.00229959,0.00572536,-
 0.02689572,0.35625552,-0.00199719,-0.00024268,0.00249464,-0.00392499,0
 .00067117,-0.00467193,0.00246007,-0.00099541,-0.00139581,0.00090954,0.
 00032194,-0.00186946,-0.00066077,0.00049888,-0.00105854,-0.00234611,0.
 00032850,-0.00027181,0.02088728,-0.00701608,0.00924754,-0.01216184,0.0
 2194002,0.00457674,0.00170253,0.00046389,-0.00035963,0.01275332,-0.002
 91154,-0.00554233,0.01080570,-0.00506156,-0.08187141,-0.00887007,0.009
 21602,0.01852163,-0.00738246,-0.00314004,-0.00164674,0.00315784,0.0024
 4789,-0.00283519,-0.02422808,-0.05455486,0.59311740,-0.00025734,0.0003
 1317,0.00014529,0.00011459,0.00033660,-0.00025267,0.00050655,-0.000068
 05,-0.00025719,-0.00016679,-0.00010750,-0.00026277,0.00011260,-0.00003
 180,-0.00023418,-0.00004711,0.00029629,0.00044379,0.00192225,-0.000630
 63,0.00022969,-0.00082721,0.00139077,-0.00010790,0.00001606,0.00001190
 ,-0.00002302,0.00225263,-0.00037554,-0.00004726,-0.02315476,0.01045642
 ,-0.01088746,0.00006352,0.00094390,0.00103219,0.00029473,-0.00046765,0
 .00028135,-0.00176180,0.00033011,-0.00028591,-0.11390162,0.01020918,-0
 .04992921,0.48616267,0.00013698,-0.00147248,-0.00031630,0.00048234,-0.
 00132008,0.00103456,-0.00042092,0.00027547,-0.00025759,0.00003140,-0.0
 0018639,0.00065886,0.00078138,-0.00015163,-0.00014329,-0.00049566,0.00
 059856,-0.00005584,-0.00007997,0.00237580,-0.00097211,-0.00006269,0.00
 193031,-0.00054913,-0.00022008,-0.00026715,-0.00007644,0.00183640,-0.0
 0125889,-0.00015907,0.00982996,0.00598017,0.00293716,0.00016868,0.0001
 4463,-0.00018000,-0.00022448,-0.00034387,0.00008923,-0.00008927,-0.000
 04015,-0.00026556,0.01165628,-0.08434923,0.01930715,0.06828968,0.60614
 057,0.00012917,0.00016358,-0.00001027,-0.00055354,-0.00057891,-0.00071
 881,-0.00027275,0.00003609,0.00008271,0.00013955,0.00005482,-0.0000162
 6,-0.00017691,0.00006542,-0.00003505,-0.00004851,-0.00023905,-0.000166
 22,0.00019845,-0.00106278,0.00061694,0.00033519,0.00033754,-0.00034543
 ,-0.00006218,-0.00020390,-0.00001932,-0.00160660,0.00042450,-0.0008263
 6,0.00858523,0.00010497,0.01916127,0.00156131,-0.00166866,-0.00363758,
 0.00172918,0.00088539,-0.00044565,0.00015882,-0.00021588,0.00111516,-0
 .02829741,0.00917283,-0.10574789,-0.00941618,-0.04794668,0.45889420,0.
 00011068,0.00006915,-0.00001812,0.00005035,-0.00000366,0.00003874,-0.0
 0005897,0.00000372,-0.00000082,-0.00001823,-0.00003131,0.00004812,0.00
 004558,-0.00003676,0.00000917,0.00002921,0.00003076,0.00003268,-0.0001
 7072,0.00023991,-0.00004682,0.00029473,0.00002043,-0.00012971,-0.00002
 930,-0.00008912,0.00002351,0.00135961,0.00061325,0.00061606,-0.0006968
 7,-0.00002736,-0.00043808,-0.00007359,0.00046692,-0.00042428,0.0006382
 8,-0.00009890,0.00070782,-0.00148114,0.00000296,-0.00023086,0.00264221
 ,-0.01440883,-0.01404958,-0.06583387,-0.00944172,-0.02671701,0.5236999
 2,-0.00006327,0.00018225,0.00009668,-0.00004225,0.00003046,-0.00018357
 ,0.00006779,-0.00000452,-0.00010727,0.00003373,-0.00003670,-0.00001551
 ,0.00009476,-0.00001912,0.00000108,-0.00002209,0.00008969,0.00011801,0
 .00020899,-0.00052919,0.00001563,-0.00019256,-0.00052412,0.00003746,0.
 00005675,0.00011248,-0.00000778,0.00091622,-0.00052233,-0.00065773,-0.
 00261378,0.00145487,0.00046328,0.00004108,-0.00017572,-0.00012290,0.00
 036243,-0.00010896,0.00003214,-0.00076600,0.00016653,0.00031211,-0.007
 94521,0.01082225,-0.00381840,0.01007603,-0.10541017,-0.04292361,-0.063
 64732,0.46202096,-0.00016594,0.00024977,0.00019356,0.00001762,0.000217
 82,-0.00001062,0.00034984,-0.00003757,-0.00005242,-0.00000741,-0.00000
 461,-0.00011205,-0.00010555,-0.00003505,-0.00001722,0.00003875,-0.0000
 4820,0.00021804,0.00053892,0.00033137,-0.00006906,-0.00042830,0.001069
 33,-0.00023124,-0.00006086,-0.00011310,-0.00003292,0.00007398,-0.00107
 545,-0.00053250,-0.00062870,0.00472761,0.00555479,0.00020758,-0.000494
 14,-0.00112872,0.00013871,-0.00012653,-0.00003392,-0.00005607,0.000060
 68,-0.00001146,-0.00385667,-0.01745139,-0.02097302,-0.01551717,-0.0377
 1127,-0.12771273,0.00670409,-0.02184674,0.57260814,0.00017232,-0.00012
 157,0.00000663,-0.00008454,-0.00000200,-0.00008102,-0.00001714,-0.0000
 2599,-0.00006067,-0.00000401,-0.00000814,-0.00004351,-0.00005016,0.000
 02941,-0.00012677,-0.00020263,-0.00000612,-0.00007275,0.00037098,-0.00
 029594,0.00047204,0.00023773,0.00033423,-0.00017037,-0.00003244,-0.000
 16307,0.00003268,0.00438626,0.00701504,-0.00252403,-0.01757490,-0.0188
 5463,-0.01701876,0.00096444,-0.00036334,-0.00181241,0.00095377,-0.0000
 7281,0.00127972,-0.00393885,0.00032975,-0.00102982,0.00830825,-0.00026
 218,0.00243095,0.00539926,0.00836247,0.00727714,-0.15390357,0.03999301
 ,0.02533858,0.47815887,0.00004401,0.00003250,-0.00000710,0.00002347,0.
 00001421,0.00000981,-0.00003440,0.00001487,0.00002236,-0.00001610,-0.0
 0000259,0.00003435,0.00003815,-0.00001365,0.00003927,0.00005095,0.0000
 2742,-0.00000768,-0.00012155,0.00008188,-0.00012742,0.00001647,-0.0001
 1339,-0.00001794,-0.00002434,0.00005259,0.00000854,-0.00121000,-0.0012
 1982,0.00047489,-0.02096575,0.00808848,-0.02743048,0.00124848,-0.00435
 384,-0.00284204,-0.00120290,-0.00006630,0.00058835,0.00011496,-0.00019
 964,-0.00126292,-0.00235093,0.00083902,-0.00080162,0.02290608,-0.00893
 376,-0.00425832,0.04847289,-0.11093130,-0.02488733,0.06045139,0.624673
 12,-0.00013386,0.00000951,0.00012573,-0.00019848,0.00002700,-0.0002562
 5,0.00020545,-0.00005293,-0.00018706,0.00010641,0.00001347,-0.00017707
 ,-0.00008801,0.00006216,-0.00016677,-0.00029044,-0.00000626,0.00008349
 ,0.00139572,-0.00058325,0.00067192,-0.00045917,0.00124301,-0.00009955,
 0.00003769,-0.00012185,-0.00004827,0.00350798,0.00726899,-0.00295151,-
 0.02326614,-0.01593446,-0.02864372,-0.00095277,-0.00194031,0.00136529,
 0.00086479,0.00063610,-0.00127168,-0.00181576,0.00040504,0.00066794,0.
 00531128,-0.00082096,-0.00411676,0.01984023,-0.00810881,-0.00141527,0.
 01961912,-0.01547628,-0.08733452,-0.03464414,0.02096910,0.52417244,-0.
 00042211,0.00013883,0.00015865,-0.00007490,0.00005977,-0.00017840,0.00
 018152,-0.00002727,-0.00004620,0.00008730,0.00002372,-0.00009309,-0.00
 000070,0.00001775,0.00004891,0.00006939,0.00001937,0.00004674,0.001243
 54,-0.00013939,-0.00011101,-0.00113858,0.00091764,-0.00018539,0.000042
 53,0.00024019,-0.00015468,-0.00617259,-0.03207585,-0.00211284,-0.07187
 477,0.00394215,-0.02169942,-0.00658647,-0.02104078,-0.02310347,-0.0028
 2191,-0.00076675,-0.00206542,0.00558159,-0.00012678,-0.00029764,0.0064
 7274,0.01433512,0.01091409,0.00243285,-0.00462260,-0.00435762,-0.02416
 392,0.01252617,-0.03580660,-0.10685878,0.02835051,-0.06078838,0.218586
 48,-0.00019186,-0.00000066,-0.00009015,0.00013881,-0.00008417,0.000209
 45,-0.00010273,0.00001801,0.00010553,-0.00004783,-0.00000101,0.0000617
 7,-0.00000878,-0.00001366,0.00010228,0.00025985,-0.00005279,-0.0000554
 4,-0.00005379,0.00101081,-0.00067906,-0.00021412,0.00068423,0.00053351
 ,0.00013945,-0.00005173,-0.00005614,-0.03341510,-0.05234361,0.00114295
 ,0.02076890,-0.14285194,-0.03982681,-0.00505996,0.00138987,-0.00326186
 ,-0.00013752,0.00235378,-0.00258831,0.01181145,-0.00672792,0.00185700,
 -0.00828086,-0.02793252,-0.01768256,-0.00404725,0.00072320,-0.00037174
 ,0.01332194,-0.00471728,0.01763420,0.01536223,-0.09920019,0.00783651,-
 0.00970380,0.31130113,0.00018533,0.00003431,-0.00023804,0.00030575,-0.
 00008069,0.00040498,-0.00030866,0.00008463,0.00026549,-0.00014511,-0.0
 0001673,0.00024853,0.00011337,-0.00007843,0.00024968,0.00044993,-0.000
 01240,-0.00005635,-0.00214012,0.00111645,-0.00094521,0.00060537,-0.001
 47378,0.00025988,-0.00018540,0.00018311,0.00010500,-0.00402134,0.00602
 362,0.01937346,-0.01110596,-0.05215723,-0.11482870,-0.00990873,-0.0237
 6715,-0.02282906,-0.00448275,-0.00185718,0.00010132,0.00251763,-0.0004
 0674,-0.00302902,-0.00983816,-0.02391583,-0.00999517,-0.00136539,-0.00
 150442,-0.00300482,-0.00662154,0.00519544,-0.00305293,-0.06191824,0.03
 247217,-0.15329999,0.14692791,0.05270700,0.34525096,0.00014298,-0.0001
 3995,-0.00027477,0.00017509,0.00004383,0.00037045,-0.00030852,0.000170
 01,0.00034526,-0.00001518,0.00005263,0.00004265,-0.00011622,0.00005385
 ,0.00024316,0.00026559,-0.00027520,-0.00018668,-0.00129900,0.00092073,
 -0.00042167,0.00055145,-0.00071443,0.00019517,-0.00005465,0.00004234,0
 .00001903,-0.00200283,-0.00035492,0.00089196,-0.00140007,-0.00108740,-
 0.01140408,-0.00025349,0.00092905,0.00263816,-0.00206222,-0.00030107,-
 0.00005106,0.00216993,0.00007118,-0.00064170,-0.04626391,0.00747602,0.
 02027275,-0.17845050,0.01972633,0.05982664,-0.02704619,0.01335683,0.02
 371917,0.00430050,0.00238348,0.00232006,0.00064787,0.00064851,0.001087
 83,0.39171439,0.00006428,0.00001777,-0.00015830,0.00007339,0.00018825,
 -0.00005152,0.00001977,-0.00028990,0.00017356,-0.00026687,0.00003006,-
 0.00026464,-0.00021013,0.00011623,-0.00016383,0.00007267,-0.00009896,-
 0.00009858,0.00046070,-0.00008321,0.00048869,0.00017857,0.00057058,0.0
 0019235,-0.00000749,-0.00011306,0.00003022,-0.00073500,0.00097310,-0.0
 0006028,-0.00036223,-0.00205419,-0.00090001,-0.00000695,-0.00004831,0.
 00026384,-0.00027250,0.00021734,-0.00008341,0.00069549,-0.00012908,-0.
 00016436,0.00841539,0.00060882,0.00199820,-0.00947565,-0.08317146,-0.0
 0842561,0.00808437,-0.01685107,-0.00758467,-0.00263738,-0.00256409,-0.
 00258308,0.00092378,0.00181434,0.00161639,0.05193674,0.28201185,0.0000
 8268,0.00008034,-0.00014578,0.00010095,0.00001921,0.00013784,-0.000041
 98,0.00003771,-0.00014036,-0.00009341,-0.00002109,0.00008170,0.0000662
 1,-0.00000259,0.00007794,0.00010287,0.00001904,0.00009842,-0.00047369,
 0.00018107,-0.00035935,0.00033878,-0.00069703,0.00012116,0.00000116,0.
 00002763,0.00001553,0.00065406,0.00054881,0.00044564,-0.00229668,-0.00
 131530,-0.00427431,-0.00016922,0.00028307,0.00052080,-0.00020527,-0.00
 010565,0.00043110,-0.00041184,-0.00004819,-0.00043679,-0.01220830,0.00
 079577,0.00732985,0.05308329,-0.02498555,-0.08261500,0.03426078,-0.017
 15433,-0.01860332,-0.00639770,-0.00469924,-0.00464629,0.00185003,0.001
 35021,0.00272376,-0.08832653,0.07779162,0.16614930,-0.00025493,0.00012
 118,0.00044458,-0.00025870,0.00009108,-0.00033435,0.00034489,-0.000154
 53,-0.00031688,0.00027888,-0.00009819,-0.00002876,0.00008665,-0.000068
 15,-0.00013924,-0.00028497,0.00015281,0.00010830,0.00146692,-0.0004700
 1,0.00031385,-0.00083675,0.00132697,-0.00018619,0.00006382,-0.00004359
 ,-0.00007594,0.00158176,0.00062828,-0.00023131,-0.00133222,-0.00154438
 ,0.00033454,-0.00026990,0.00005130,-0.00030486,0.00077685,-0.00001455,
 0.00016229,-0.00146763,0.00001482,0.00005160,-0.00566300,-0.00072936,-
 0.00370909,-0.03565660,-0.03120548,-0.00004382,-0.03921956,-0.00029673
 ,0.02655862,-0.00362270,-0.00343105,0.00128721,0.00207880,0.00070489,0
 .00084097,-0.10564407,-0.01075213,0.00712776,0.53879176,-0.00012499,0.
 00005530,0.00020028,-0.00017164,-0.00003241,-0.00007572,0.00017100,0.0
 0001928,-0.00008297,0.00023240,0.00002510,0.00005386,0.00008936,-0.000
 05967,0.00013977,-0.00006118,0.00003443,0.00011966,-0.00007294,-0.0002
 7629,-0.00022563,-0.00031820,-0.00048532,-0.00013736,0.00007095,0.0001
 3067,-0.00004651,0.00059628,-0.00074909,-0.00059488,0.00150967,0.00256
 009,0.00576947,0.00017933,-0.00035092,-0.00103659,0.00073349,-0.000039
 01,-0.00017292,-0.00065361,0.00015033,0.00047276,0.00416148,0.00041836
 ,-0.00639082,-0.03928700,-0.00549682,0.02014209,0.00537650,0.02355362,
 -0.00318514,-0.00377194,-0.00627995,0.00177035,-0.00187704,-0.00134119
 ,-0.00242373,-0.03274903,-0.11555287,-0.01448120,0.01427227,0.42345526
 ,-0.00011650,-0.00010855,0.00011958,-0.00010955,-0.00004745,-0.0001931
 5,0.00005503,-0.00004263,-0.00000489,0.00009261,0.00000134,-0.00005581
 ,0.00000702,-0.00002050,-0.00007722,-0.00016469,0.00004502,-0.00000794
 ,0.00080933,-0.00004532,0.00035030,-0.00042945,0.00106436,-0.00002937,
 -0.00001146,-0.00002811,-0.00000363,-0.00001705,-0.00085696,-0.0004551
 2,0.00086858,0.00275333,0.00191535,-0.00006340,-0.00015544,-0.00008182
 ,-0.00002221,-0.00005927,-0.00036618,0.00024717,0.00012079,0.00032947,
 -0.00210578,-0.00173014,0.00123892,-0.00570901,0.01237532,0.00310862,0
 .03564859,0.00545957,-0.02496520,0.00030707,-0.00042163,-0.00031383,-0
 .00204761,-0.00088946,-0.00198227,-0.00259556,-0.02614386,-0.07270998,
 -0.02333986,-0.06792259,0.50834334,0.00008781,-0.00030575,-0.00020067,
 0.00006117,-0.00019635,0.00021098,-0.00025022,0.00004526,0.00017810,-0
 .00004149,0.00008701,0.00009429,0.00000456,0.00002700,0.00008690,0.000
 03797,-0.00008425,-0.00015988,-0.00078597,0.00030594,-0.00015206,0.000
 28714,-0.00065645,0.00014130,-0.00001174,0.00007423,0.00001464,-0.0013
 7135,-0.00103177,-0.00060156,0.00129201,0.00275278,0.00246460,0.000177
 42,-0.00020683,0.00007122,-0.00054622,0.00003318,-0.00052662,0.0014884
 4,0.00012782,0.00035516,0.00303315,0.00042183,0.00391092,-0.02514361,-
 0.03012378,0.00935825,-0.11517486,-0.06272179,0.02806550,-0.02600988,-
 0.02580091,0.02009503,-0.00060553,-0.00093756,-0.00343454,0.01411210,0
 .01337388,0.00491998,-0.12114644,0.03763963,0.03256325,0.31630691,0.00
 011985,-0.00024106,-0.00013325,-0.00002099,-0.00012461,-0.00002656,-0.
 00018428,0.00000152,0.00003145,-0.00007478,0.00000358,-0.00002669,-0.0
 0005941,0.00005606,-0.00012233,-0.00012303,-0.00003168,-0.00017321,0.0
 0035635,0.00002242,0.00039536,0.00013621,0.00062600,0.00009719,-0.0000
 2054,-0.00010293,0.00002436,-0.00037998,0.00082854,0.00023937,-0.00031
 626,-0.00238500,-0.00197456,-0.00007195,0.00006059,0.00035052,-0.00024
 369,0.00017647,0.00001759,0.00038905,-0.00016237,-0.00016866,0.0018206
 2,-0.00127047,0.00285606,-0.01715993,-0.04427528,-0.00219647,-0.032961
 13,-0.14791015,0.02554559,0.00590512,0.01274541,-0.00709180,-0.0000395
 2,0.00245675,0.00033607,0.00125641,-0.04789552,-0.02205241,0.01255344,
 -0.11559555,-0.00869347,0.03350828,0.35259755,0.00015011,-0.00006920,-
 0.00016061,0.00018303,-0.00011022,0.00021099,-0.00020050,0.00001214,0.
 00001115,-0.00010539,-0.00002857,0.00009458,0.00009385,-0.00000466,0.0
 0003384,0.00008634,0.00006141,-0.00005298,-0.00071959,0.00007217,-0.00
 023116,0.00051300,-0.00104401,0.00004372,0.00000637,0.00003483,0.00003
 791,0.00037377,0.00083666,0.00074365,-0.00020056,-0.00246704,-0.002692
 20,0.00005583,0.00031067,0.00021941,0.00000796,-0.00001987,0.00051725,
 -0.00050037,-0.00015435,-0.00050589,0.00019674,0.00175795,-0.00010557,
 0.00654831,-0.00933895,0.00587973,0.03595134,0.04056409,-0.08421780,0.
 01327775,0.01066683,-0.01031297,0.00190717,-0.00005387,0.00508586,-0.0
 0247152,-0.03756175,-0.01048139,0.02714464,-0.01846674,-0.08494902,-0.
 13814089,0.00490041,0.20353449,-0.00001763,0.00001420,-0.00001728,0.00
 000479,-0.00000889,0.00002350,0.00000497,0.00000389,-0.00005746,0.0000
 0575,0.00000862,-0.00000683,-0.00002158,0.00002962,-0.00001144,-0.0000
 0792,-0.00001281,0.00000936,0.00011371,0.00004575,0.00001841,-0.000058
 75,0.00014996,0.00002384,0.00000391,-0.00000646,-0.00000707,-0.0001295
 7,-0.00005981,-0.00005319,0.00004993,0.00013973,0.00008857,-0.00000387
 ,-0.00001972,0.00003524,-0.00004466,0.00001414,-0.00006454,0.00013554,
 0.00001402,0.00004121,-0.00027382,0.00007609,0.00038697,0.00049861,-0.
 00130007,0.00079786,-0.00042956,0.00235520,0.00243202,-0.00010727,-0.0
 0067047,0.00084505,-0.00012191,-0.00008560,-0.00035142,-0.00724718,-0.
 01658210,0.01336087,-0.08112247,-0.00652511,0.00954452,-0.01600095,-0.
 00734832,0.02975940,0.60217990,0.00004455,0.00002816,-0.00004776,0.000
 00650,0.00002432,0.00000320,-0.00002876,-0.00000891,0.00008984,-0.0000
 3765,0.00001173,-0.00002654,-0.00003348,0.00000315,0.00003524,0.000068
 05,-0.00004105,-0.00001777,-0.00026690,-0.00001791,-0.00002904,0.00018
 235,-0.00030012,0.00001992,-0.00001068,0.00000570,0.00001901,-0.000196
 00,0.00016249,0.00013647,-0.00009423,-0.00064813,-0.00037674,0.0000185
 8,-0.00000455,0.00006780,-0.00005486,0.00003773,0.00002697,0.00007629,
 -0.00003844,-0.00002056,0.00004784,0.00034308,-0.00006637,0.00316473,-
 0.00450163,0.00100699,0.00004059,-0.00365434,-0.00312364,0.00020600,0.
 00113549,-0.00067881,0.00033243,0.00021761,0.00047896,-0.02172270,-0.0
 2663170,0.02009101,-0.00963050,-0.10301817,0.05191097,0.01214634,0.012
 10132,-0.01853581,-0.01438899,0.56247457,-0.00002507,-0.00002207,0.000
 02516,-0.00001386,0.00000403,-0.00002532,0.00001006,0.00001861,-0.0000
 2985,0.00002243,0.00000156,-0.00001335,0.00000388,0.00002323,-0.000035
 84,-0.00006292,0.00001138,-0.00001252,0.00032651,0.00003750,0.00010721
 ,-0.00020503,0.00046406,-0.00000562,0.00000471,-0.00003028,-0.00002485
 ,0.00005558,0.00004481,-0.00001703,-0.00014749,-0.00017392,-0.00021047
 ,-0.00001739,0.00004476,0.00003609,0.00000647,-0.00001899,0.00000330,-
 0.00002964,0.00002158,-0.00002177,-0.00004376,0.00022862,0.00052805,0.
 00085212,-0.00228194,0.00053985,-0.00165090,-0.00269272,-0.00185699,0.
 00019367,0.00050889,-0.00021342,0.00017723,0.00003262,0.00012043,-0.00
 336943,-0.00168051,0.00999124,0.01676848,0.05065311,-0.16706359,0.0183
 8214,0.00443832,-0.02221510,0.03058369,0.04487693,0.52074293,-0.000009
 57,-0.00001047,-0.00001600,0.00003052,-0.00002174,0.00002380,-0.000027
 54,-0.00001136,-0.00001634,-0.00000384,-0.00001322,0.00000970,-0.00000
 624,0.00002404,-0.00003778,-0.00000190,0.00000638,-0.00000048,-0.00000
 028,0.00004805,0.00000188,0.00000714,0.00005355,0.00002174,-0.00000518
 ,-0.00000431,0.00000097,-0.00014808,-0.00010657,-0.00000787,0.00003244
 ,0.00029346,-0.00016576,0.00000150,0.00001152,0.00007977,-0.00010205,-
 0.00001381,-0.00003566,0.00016936,0.00001314,-0.00000287,-0.00048273,-
 0.00012415,0.00087499,0.00015568,-0.00022355,-0.00240718,0.00022062,0.
 00229402,-0.00173949,0.00009118,-0.00017590,0.00047889,-0.00008853,-0.
 00013818,-0.00007710,-0.02362855,-0.01202960,-0.01509099,-0.13177995,0
 .01868349,-0.04445047,-0.03113659,0.01629948,-0.00324790,0.00876493,0.
 00074385,0.00008785,0.51524200,0.00001300,-0.00000269,-0.00004035,0.00
 001333,0.00000649,0.00001137,-0.00002597,-0.00000069,0.00003535,-0.000
 02208,0.00001815,-0.00001625,-0.00000728,0.00000769,0.00001414,0.00002
 540,-0.00000493,-0.00000954,0.00000290,0.00007962,0.00001023,0.0000214
 3,0.00006322,0.00001130,-0.00000734,-0.00001275,0.00000345,0.00001151,
 0.00013234,0.00007947,-0.00039858,-0.00042326,-0.00109354,-0.00007274,
 0.00009291,0.00021039,-0.00010745,-0.00001831,0.00002742,0.00003842,-0
 .00000274,-0.00008042,-0.00146640,-0.00012176,0.00146802,0.00156016,-0
 .00222529,-0.00585893,-0.00107441,-0.00297179,0.00148014,0.00016397,0.
 00063428,-0.00027513,0.00040561,0.00018789,0.00042278,-0.03825414,-0.0
 0744376,-0.01696098,0.02144473,-0.07752734,0.02389919,0.02901469,-0.00
 851357,0.00149718,0.01287428,-0.00002756,0.01368423,0.02339703,0.58882
 032,0.00004841,-0.00000713,-0.00002044,0.00000002,0.00001955,0.0000174
 7,0.00000592,0.00000617,0.00004446,-0.00007239,0.00003151,0.00001445,-
 0.00001803,-0.00001284,0.00001775,0.00004359,-0.00003213,-0.00001629,-
 0.00016951,0.00001403,-0.00005174,0.00008047,-0.00019617,-0.00000198,-
 0.00000175,0.00000743,0.00000184,-0.00001372,0.00006422,0.00006523,-0.
 00009833,-0.00019782,-0.00023573,0.00001294,0.00002677,0.00001184,-0.0
 0002251,-0.00000855,0.00004317,-0.00000275,-0.00001090,-0.00004095,-0.
 00017029,0.00007230,0.00014937,0.00092725,0.00014271,-0.00196718,-0.00
 078282,-0.00432214,0.00430858,0.00030386,0.00058706,-0.00082034,-0.000
 05620,0.00024340,0.00010150,-0.01157833,-0.00595200,-0.00129393,-0.051
 44269,0.02259311,-0.12510667,0.02332360,-0.00700489,0.00945146,-0.0239
 5615,0.01096059,-0.01958742,-0.05288413,0.01259748,0.55845406,0.000432
 27,0.00029924,-0.00133010,0.00185955,-0.00108294,0.00275790,-0.0010513
 9,0.00034076,0.00049713,-0.00030734,-0.00004904,0.00051723,-0.00007596
 ,-0.00008823,0.00044087,0.00117801,-0.00037582,0.00025923,-0.00236881,
 0.00516769,-0.00366483,0.00436375,-0.00788537,-0.00076347,0.00048523,0
 .00138556,0.00042188,-0.00991173,0.00084250,0.00606744,-0.01208997,-0.
 02768479,0.02553157,-0.00002357,-0.00323695,-0.00132547,-0.00085844,0.
 00029659,0.00142348,0.00187787,-0.00118071,0.00170446,-0.08823998,-0.0
 3497452,0.07674337,0.00967802,0.01512821,-0.01127868,-0.00055140,-0.00
 024688,0.00085055,-0.00171577,0.00017799,-0.00040026,0.00317105,0.0007
 8289,-0.00096265,0.00367847,0.00148134,-0.00407994,0.00171755,0.000069
 47,0.00297776,-0.00018369,-0.00033975,-0.00162111,-0.00145461,-0.00211
 086,0.00038855,0.00017082,0.00011473,-0.00033456,0.11622230,0.00167700
 ,0.00038562,-0.00294343,0.00535826,-0.00096002,0.00612386,-0.00311478,
 0.00141953,0.00119935,-0.00055669,-0.00049159,0.00193145,0.00013947,-0
 .00020525,0.00048120,0.00240146,-0.00060763,0.00025948,-0.02952178,0.0
 0805322,-0.00662834,0.01002396,-0.03850935,-0.00089640,-0.00107769,0.0
 0064311,0.00011146,0.00293588,0.00358909,-0.00195221,-0.01224819,-0.00
 203070,0.00724926,-0.00194465,-0.00065365,0.00223019,0.00251023,0.0022
 8760,-0.00204748,-0.00073687,-0.00117391,0.00135200,-0.04593494,-0.137
 66944,0.18004786,0.00140020,-0.01130254,0.01709660,-0.00059037,-0.0020
 2974,0.00199918,0.00154020,-0.00055924,0.00256344,0.00253660,0.0028731
 8,-0.00401756,-0.00250046,0.00285712,-0.00184603,0.00143368,-0.0023595
 1,0.00217372,-0.00095525,0.00189954,-0.00250852,-0.00071500,-0.0007065
 8,0.00092757,0.00017689,0.00025870,-0.00041815,0.07389038,0.22416033,0
 .00116139,-0.00072598,-0.00045342,0.00119454,-0.00084911,0.00146829,-0
 .00109221,0.00035938,0.00060971,-0.00052071,-0.00017138,0.00118102,0.0
 0095921,-0.00040929,0.00050349,0.00060922,0.00041620,-0.00019918,-0.01
 231629,-0.00213906,0.00057781,0.00282812,-0.02125080,0.00381229,0.0010
 3680,0.00231879,0.00107682,0.01272554,0.00077390,-0.00431445,0.0143491
 7,0.02047053,-0.01981218,-0.00258497,-0.00074723,-0.00249638,0.0006322
 7,-0.00016627,0.00204496,-0.00484026,0.00111512,-0.00319315,0.04907046
 ,0.09981453,-0.22763007,0.00946492,0.02967680,-0.02540429,0.00120074,0
 .00203443,0.00142956,-0.00019264,0.00006671,0.00137793,0.00077486,-0.0
 0087646,-0.00017276,-0.00005675,-0.00363735,0.00319321,0.00236199,0.00
 137551,-0.00007088,-0.00244598,-0.00118734,0.00013520,0.00002006,-0.00
 004619,0.00074992,-0.00016650,-0.00026663,-0.00005743,-0.08521779,-0.1
 8894128,0.26097828,-0.00178754,0.00021946,0.00377840,-0.00518983,0.004
 71169,-0.00795461,0.00368081,-0.00094880,-0.00067300,0.00071564,0.0001
 1808,-0.00186215,-0.00012718,0.00016412,-0.00056082,-0.00218480,0.0005
 1029,-0.00029110,0.01441169,-0.01443552,0.00471957,-0.01884579,0.03600
 779,0.00747460,-0.00897815,-0.01303666,-0.00317980,-0.00157558,-0.0015
 9836,0.00141463,0.01229786,0.01561227,0.00945225,0.00259932,0.00177418
 ,-0.00135416,-0.00129544,-0.00098690,0.00123164,0.00146419,0.00025287,
 -0.00153844,-0.03964410,0.01135173,-0.03102733,-0.00255568,-0.01862511
 ,-0.01545112,-0.00292152,0.00296512,-0.00264876,-0.00342453,0.00102316
 ,-0.00346056,-0.00359120,0.00582813,0.00945453,0.00281725,-0.00116574,
 0.00058785,-0.00018862,0.00049687,-0.00038333,0.00052275,-0.00119856,0
 .00011848,-0.00000397,-0.00001769,0.00015731,0.00005894,0.00001666,0.0
 0009815,-0.01634951,-0.00442207,0.01567594,0.06903724,-0.00247400,0.00
 085905,0.00143019,-0.00600086,0.00017165,-0.00585460,0.00319585,-0.001
 01714,-0.00169326,0.00052894,0.00055189,-0.00252635,-0.00126606,0.0005
 2384,-0.00053090,-0.00161872,-0.00033595,0.00029039,0.05756437,-0.0213
 6612,0.00601156,-0.02767871,0.08062475,-0.00531735,-0.00745556,-0.0137
 3319,-0.00246338,-0.00585632,-0.00299957,0.00365800,0.00021847,-0.0116
 4638,-0.01236114,0.00172480,0.00054616,-0.00097340,-0.00227676,-0.0017
 4549,0.00138929,0.00206374,0.00109074,-0.00010780,0.03116126,-0.006684
 08,-0.14263705,-0.00226732,-0.00401093,-0.00548554,0.00104133,0.002139
 21,-0.00225157,0.00053622,0.00005487,-0.00093368,-0.00027795,-0.004308
 52,-0.00045913,0.00063189,0.00024796,0.00306476,-0.00239100,-0.0000512
 4,-0.00236887,0.00065172,-0.00069606,0.00257394,-0.00047952,0.00071071
 ,-0.00101703,-0.00009935,0.00007087,0.00041743,-0.02222807,-0.05246146
 ,0.06361879,-0.01821524,0.03794877,0.00026123,0.00091745,-0.00140022,0
 .00287593,0.00226219,0.00296081,-0.00065368,0.00050063,0.00037402,-0.0
 0009094,-0.00022058,0.00024506,-0.00038770,0.00011685,0.00018026,0.000
 87002,-0.00077414,0.00042586,-0.00569107,0.00958251,-0.01332470,0.0116
 7605,0.00323700,-0.02382406,-0.00901282,-0.01119169,-0.00312464,0.0013
 7216,0.00182495,0.00116326,-0.00897212,-0.01875366,-0.01172304,-0.0012
 7953,0.00133927,-0.00192327,0.00147803,0.00043049,0.00097460,-0.001637
 63,0.00016069,-0.00043466,0.00491712,-0.05026124,-0.15985194,-0.001684
 00,-0.03126415,-0.02539996,-0.00304805,0.00716806,-0.00271108,0.000058
 26,0.00020171,0.00265892,0.00530143,-0.00537489,-0.00452468,-0.0027733
 9,0.00126242,0.00279544,0.00283246,0.00033978,-0.00099569,-0.00246681,
 -0.00123865,0.00116731,-0.00038871,0.00010191,-0.00031248,-0.00024682,
 0.00001870,0.00007860,-0.00515744,-0.00539511,0.01071615,0.01106177,0.
 09316658,0.22475173,0.00005116,0.00000846,0.00001066,-0.00003909,-0.00
 001346,-0.00002649,0.00002711,-0.00000719,-0.00001107,0.00001155,0.000
 00421,-0.00001578,-0.00000245,0.00000971,-0.00002475,-0.00005016,0.000
 02592,0.00004377,0.00017051,-0.00005081,0.00030887,-0.00022098,0.00012
 598,-0.00073097,-0.00010088,0.00004661,-0.00008457,-0.03307613,-0.0335
 1102,0.01017519,-0.00413691,0.00301990,-0.00382023,-0.00167013,0.00040
 898,-0.00157003,0.00682455,0.00245633,0.00085409,-0.09740641,-0.040434
 82,0.00396647,0.00081530,-0.00102693,-0.00047421,0.00020079,0.00001083
 ,0.00004772,0.00010596,0.00006791,-0.00000978,0.00045723,-0.00009779,0
 .00054791,-0.00089889,-0.00263347,-0.00044112,-0.00021712,-0.00004637,
 0.00002008,0.00012342,0.00007413,-0.00000367,-0.00009148,-0.00003635,0
 .00001392,-0.00000943,-0.00001207,0.00000176,-0.00001372,-0.00000674,-
 0.00000195,-0.00047037,0.00012338,0.00085173,-0.00022977,-0.00026825,0
 .00036749,0.56875607,0.00005898,0.00001950,-0.00004903,0.00002110,-0.0
 0004212,0.00005308,-0.00001159,0.00001520,-0.00003703,0.00000776,0.000
 00094,-0.00000156,-0.00000899,0.00001427,-0.00003159,-0.00004456,0.000
 01106,0.00003394,-0.00028395,-0.00005043,0.00034551,-0.00009002,-0.000
 15387,-0.00007593,-0.00014638,-0.00014439,0.00005055,-0.00114258,0.006
 65781,-0.00199698,0.00183261,-0.00115993,0.00016038,0.00233954,-0.0004
 8973,0.00002458,-0.00728938,-0.01272613,0.01273655,-0.04803940,-0.1800
 6821,0.00978678,-0.00051725,0.00065928,0.00054026,-0.00005354,-0.00002
 210,-0.00004853,-0.00005426,-0.00001944,0.00001417,-0.00017615,0.00004
 532,-0.00016012,0.00024819,0.00109559,0.00026424,0.00006600,-0.0000100
 9,-0.00002211,0.00000430,-0.00000197,0.00001810,0.00001214,0.00000062,
 -0.00002207,0.00000401,-0.00000042,0.00000683,0.00000160,0.00000331,-0
 .00000293,0.00034198,-0.00039363,-0.00059055,0.00009570,0.00057900,-0.
 00020634,-0.04399823,0.51840420,-0.00003355,-0.00005463,-0.00012275,0.
 00006188,-0.00005737,0.00009102,0.00000563,0.00001054,-0.00005051,0.00
 001502,0.00000058,-0.00001751,-0.00002313,0.00002893,-0.00005160,-0.00
 006000,0.00000088,0.00008956,-0.00025896,-0.00008319,0.00039558,-0.000
 06137,-0.00030264,-0.00025563,-0.00024458,0.00007334,0.00003932,-0.000
 96879,-0.00218018,0.00353933,-0.00116120,0.00091953,-0.00197184,-0.003
 38984,0.00285623,-0.00377830,0.02142362,0.03713776,-0.01794650,0.00064
 126,0.00110643,-0.07838397,0.00011474,-0.00000567,0.00060553,0.0000443
 3,-0.00002579,-0.00009121,-0.00001719,-0.00001687,0.00004669,0.0001275
 0,0.00001728,0.00014631,0.00001243,-0.00011956,0.00043900,0.00004578,-
 0.00001059,-0.00000340,0.00002317,-0.00000070,0.00001674,-0.00000345,0
 .00001061,-0.00002406,-0.00000180,-0.00000444,0.00000651,-0.00000216,0
 .00000169,0.00000210,0.00008520,-0.00061581,-0.00003521,0.00013030,0.0
 0065238,-0.00005709,0.00342470,0.01728392,0.59874700,-0.00001545,0.000
 06975,0.00003027,0.00000723,0.00001213,-0.00004212,0.00003671,-0.00000
 578,-0.00002545,0.00001746,0.00000360,-0.00001927,-0.00000313,0.000002
 22,-0.00001502,-0.00002298,0.00000895,0.00003224,0.00025711,-0.0000566
 4,0.00008157,-0.00005340,0.00039731,-0.00006522,-0.00005458,0.00005761
 ,-0.00005348,-0.03660888,0.02684724,0.02281866,0.00098808,0.00620396,-
 0.00191218,-0.00140794,-0.00073605,-0.00022163,0.00605623,-0.00049567,
 -0.00454344,-0.08135269,0.01197753,0.01960463,0.00057161,-0.00090421,-
 0.00034584,0.00034236,0.00012158,-0.00009412,0.00013328,0.00008366,-0.
 00002640,0.00033395,0.00008486,0.00056993,-0.00279829,-0.00154999,0.00
 037834,-0.00025553,-0.00009331,0.00005249,0.00017336,0.00007373,-0.000
 01724,-0.00018053,-0.00005972,0.00005501,-0.00001845,-0.00001450,0.000
 00318,-0.00001937,-0.00000287,0.00000134,-0.00049152,0.00017028,0.0008
 4214,-0.00013346,-0.00048066,0.00015704,0.00883018,-0.00999238,-0.0084
 1557,0.58247547,-0.00006708,0.00003698,0.00001638,0.00001348,0.0000017
 7,0.00000024,0.00000113,-0.00000355,0.00000859,-0.00000291,0.00000018,
 -0.00000132,-0.00000496,-0.00000225,0.00001306,0.00004288,-0.00000311,
 -0.00002666,0.00004862,0.00003864,-0.00010119,-0.00005498,0.00008179,0
 .00022114,0.00005148,-0.00005191,0.00002408,0.00736154,-0.00003032,-0.
 00196662,-0.00006360,0.00142242,0.00124709,0.00162933,0.00368472,0.000
 05210,-0.00401552,0.01068791,0.01101577,0.01674893,-0.14300102,-0.0472
 8086,-0.00000082,-0.00013561,-0.00015463,-0.00007586,0.00009215,0.0000
 4233,0.00000244,-0.00009194,0.00013929,-0.00078576,0.00035090,-0.00137
 613,0.00289964,0.00012667,-0.00079794,0.00006221,0.00000366,-0.0000240
 8,-0.00010143,-0.00001009,0.00002415,0.00005489,-0.00001205,0.00001947
 ,0.00000416,-0.00000200,-0.00000745,0.00001139,-0.00000617,-0.00000062
 ,-0.00011887,0.00012883,0.00001823,0.00003975,-0.00018546,-0.00005205,
 0.00666959,-0.02704287,-0.02173958,0.03679627,0.54607347,0.00004988,-0
 .00001097,-0.00002523,0.00001729,0.00000214,0.00001005,-0.00000413,-0.
 00000141,0.00000710,-0.00000461,-0.00000063,0.00000499,-0.00000112,-0.
 00000036,-0.00000822,-0.00001769,-0.00000764,0.00002520,-0.00002281,0.
 00001243,0.00007401,-0.00003695,0.00002170,-0.00017098,-0.00013186,0.0
 0016148,-0.00005778,-0.00108130,-0.00005824,0.00639053,0.00010791,0.00
 232891,-0.00162312,-0.00266206,-0.00293109,-0.00080577,0.00899652,-0.0
 1616941,-0.04678713,0.02155580,-0.04347497,-0.11008871,0.00023758,-0.0
 0039277,-0.00003044,0.00002819,0.00004276,-0.00005441,0.00003564,0.000
 11230,0.00010015,0.00048158,-0.00035691,0.00044784,0.00032552,-0.00038
 388,0.00055321,0.00000354,-0.00000777,0.00001469,-0.00000428,0.0000100
 5,0.00001096,0.00005114,0.00000299,-0.00004110,-0.00000220,-0.00000675
 ,-0.00000304,-0.00000069,-0.00000444,0.00000206,-0.00005620,-0.0001929
 8,0.00031733,0.00013659,0.00007108,0.00008923,-0.00106646,-0.00266328,
 0.00544595,0.02795272,-0.05491109,0.53793149,0.00005602,-0.00001029,-0
 .00000220,-0.00001911,-0.00000027,-0.00001504,0.00000731,0.00000155,-0
 .00001083,0.00000518,0.00000183,-0.00000090,0.00000555,0.00000317,-0.0
 0001275,-0.00003926,0.00001547,0.00002127,0.00005379,-0.00003228,0.000
 12387,0.00003425,0.00001121,-0.00026990,-0.00005266,0.00001076,0.00000
 099,-0.00150715,-0.00401676,0.00179886,0.00019715,0.00143629,-0.001213
 91,-0.00033645,-0.00024690,0.00016993,0.00148293,0.00016806,-0.0001298
 9,-0.01520423,0.00570277,-0.00201777,0.00032372,-0.00022854,-0.0001522
 5,0.00010436,0.00002178,-0.00000916,0.00005714,0.00004299,-0.00000200,
 0.00019076,-0.00001046,0.00017868,-0.00031879,-0.00079685,-0.00016673,
 -0.00012989,-0.00004346,0.00001304,0.00009459,0.00004938,-0.00000328,-
 0.00007712,-0.00003087,0.00001443,-0.00000581,-0.00000813,0.00000463,-
 0.00000922,-0.00000177,-0.00000209,-0.00015025,-0.00000147,0.00022902,
 -0.00009307,-0.00003206,0.00010511,-0.31286782,0.03092699,-0.02117182,
 0.00012279,0.00109433,0.00018307,0.33918012,-0.00015473,0.00006203,0.0
 0003866,0.00002062,0.00000541,-0.00002620,0.00002689,-0.00000767,-0.00
 001082,0.00000992,0.00000095,-0.00001916,-0.00001002,-0.00000267,0.000
 01248,0.00004459,-0.00001368,-0.00002471,0.00017445,-0.00001299,-0.000
 11211,-0.00007628,0.00021392,0.00027511,0.00008416,0.00000456,-0.00001
 216,-0.00457185,-0.00564071,0.00267357,-0.00108021,0.00131091,-0.00102
 541,-0.00033284,0.00005252,-0.00023368,0.00152012,0.00085147,-0.000598
 50,-0.02883044,0.00713407,-0.00392111,0.00035748,-0.00042389,-0.000407
 15,0.00004276,-0.00000726,0.00004276,0.00004831,0.00001133,-0.00000940
 ,0.00015977,-0.00002544,0.00014757,-0.00024544,-0.00067881,-0.00012375
 ,-0.00007147,0.00000938,0.00001645,0.00002074,0.00000425,-0.00001426,-
 0.00002872,0.00000569,0.00001996,-0.00000405,0.00000060,-0.00000300,-0
 .00000406,-0.00000201,0.00000165,-0.00017258,0.00022980,0.00040206,-0.
 00014547,-0.00033223,0.00013170,0.03480363,-0.05465471,0.00236609,0.00
 020970,0.00065295,0.00003622,-0.03506362,0.05646910,0.00003235,-0.0000
 0262,0.00002848,-0.00002635,0.00002567,-0.00002074,-0.00000636,-0.0000
 0256,0.00001792,-0.00000640,-0.00000061,0.00000797,0.00000911,-0.00000
 765,0.00001203,0.00000771,0.00000158,-0.00001364,0.00004561,0.00003673
 ,-0.00020200,0.00002358,0.00007614,0.00032657,0.00007157,-0.00001934,0
 .00001198,0.00061176,0.00095846,0.00050961,0.00015756,0.00007122,0.000
 45559,0.00012623,-0.00010951,-0.00002390,-0.00057180,-0.00007242,0.000
 17988,0.00505177,-0.00082292,-0.00148896,0.00000406,-0.00003902,-0.000
 08063,-0.00000593,0.00000791,0.00000624,0.00000697,-0.00000052,-0.0000
 0316,-0.00001570,0.00003210,-0.00008161,0.00013376,0.00015907,-0.00004
 043,-0.00000398,0.00000161,0.00000324,-0.00000573,-0.00000360,-0.00000
 295,-0.00000300,-0.00000162,0.00000851,-0.00000024,0.00000149,-0.00000
 174,0.00000035,0.00000052,-0.00000032,-0.00002562,0.00010065,0.0000468
 7,0.00000432,-0.00013104,-0.00001567,-0.02113947,0.00191926,-0.0500991
 6,-0.00023513,-0.00023348,-0.00011391,0.02325327,-0.00230241,0.0487741
 1,-0.00016899,0.00003189,-0.00000349,0.00004438,-0.00002237,0.00001451
 ,0.00001723,0.00000035,-0.00002088,0.00001007,-0.00000060,-0.00001834,
 -0.00001711,0.00000473,0.00000099,0.00003650,-0.00001654,-0.00001719,0
 .00002049,-0.00002689,0.00004758,-0.00004210,0.00004446,0.00005053,0.0
 0003418,-0.00002305,-0.00001402,0.00095498,0.00080183,-0.00064181,0.00
 014324,-0.00016718,0.00030664,0.00088611,-0.00052338,0.00049645,-0.001
 89977,-0.00356232,0.00140818,0.00250634,-0.00416661,0.01527649,-0.0000
 1496,0.00005569,0.00001665,-0.00005366,-0.00003684,0.00004039,-0.00003
 185,-0.00002261,0.00000289,-0.00003985,-0.00004479,0.00003307,0.000027
 89,0.00022194,-0.00005161,0.00004381,0.00002953,-0.00001468,-0.0000408
 0,-0.00001802,0.00000398,0.00004133,0.00002284,-0.00001715,0.00000351,
 0.00000319,-0.00000176,0.00000355,-0.00000103,0.00000106,0.00002253,0.
 00006196,-0.00005441,-0.00005567,-0.00005066,-0.00003848,-0.06000961,0
 .02081622,-0.05236983,-0.00013963,0.00061646,-0.00021337,-0.00452048,0
 .01204899,-0.03085132,0.06074401,0.00006464,-0.00003982,0.00000109,-0.
 00002908,0.00001293,-0.00001150,0.,-0.00000246,0.00001227,-0.00000288,
 0.00000056,0.00000285,0.00000507,-0.00000220,0.00000042,-0.00002046,-0
 .00000198,0.00000250,0.00004784,0.00001018,-0.00005085,0.00000329,0.00
 001824,0.00000632,0.00003072,0.00001554,-0.00001279,0.00096641,0.00152
 270,-0.00142442,0.00016598,-0.00029369,0.00056372,0.00148053,-0.000095
 57,0.00090272,-0.00509934,-0.00530685,0.00203027,0.01048090,-0.0067983
 3,0.02742899,0.00001375,-0.00000388,-0.00011526,-0.00000324,0.00000414
 ,0.00005615,-0.00002463,0.00001285,0.00001172,-0.00001404,-0.00008455,
 0.00012721,-0.00004471,0.00010275,-0.00025710,-0.00003678,-0.00001023,
 -0.00002450,0.00000161,0.00003011,0.00002141,0.00002682,-0.00000778,-0
 .00003635,0.00000247,-0.00000311,-0.00000088,0.,-0.00000501,-0.0000020
 6,-0.00004397,0.00013918,-0.00004554,-0.00005519,-0.00009559,0.0000075
 8,0.01932055,-0.08592044,0.08510987,0.00018564,0.00087314,0.00005764,0
 .00065764,-0.00207113,0.00265105,-0.02088579,0.08942288,0.00027096,-0.
 00008561,-0.00000864,-0.00006256,0.00004169,-0.00001583,-0.00003668,-0
 .00000026,0.00005523,-0.00002476,-0.00000235,0.00003778,0.00002685,-0.
 00001281,0.00000774,-0.00004273,0.00000878,0.00001809,-0.00005442,0.00
 009003,-0.00014728,0.00002779,-0.00008145,-0.00004484,-0.00003790,0.00
 009552,-0.00000253,0.00010520,-0.00055325,0.00092979,0.00021998,0.0002
 1162,-0.00029043,-0.00107225,-0.00002839,0.00047654,0.00134415,0.00169
 345,0.00037677,-0.00166288,-0.00084468,-0.00512161,-0.00008321,-0.0000
 2631,0.00007131,0.00001245,0.00004297,-0.00005679,0.00000782,0.0000064
 8,-0.00000520,-0.00002667,0.00005363,-0.00009720,0.00007625,-0.0000510
 6,0.00014882,0.00002520,-0.00001705,0.00001755,-0.00000483,-0.00000337
 ,-0.00000952,-0.00000801,-0.00001486,0.00001622,-0.00000110,-0.0000006
 0,0.00000097,0.00000133,0.00000252,0.00000097,0.00002149,-0.00009659,-
 0.00001704,0.00016904,0.00009382,0.00004424,-0.05097323,0.08831812,-0.
 27177441,0.00007175,-0.00042057,-0.00029917,-0.00020283,-0.00035112,-0
 .00071759,0.05675617,-0.09639117,0.29366635,-0.00009444,0.00000957,0.0
 0003649,0.00000006,0.00002218,0.00001822,-0.00000047,-0.00000515,0.000
 01440,-0.00000275,-0.00000240,-0.00000614,-0.00000065,-0.00000546,0.00
 002834,0.00006045,-0.00002071,-0.00003960,-0.00000280,0.00007526,-0.00
 027564,-0.00075196,0.00021668,0.00110542,0.00013111,0.00001704,0.00000
 422,0.00132127,0.00062327,-0.00034081,0.00003225,-0.00019838,0.0000833
 8,0.00012659,0.00010457,-0.00013784,0.00018604,0.00126087,-0.00055790,
 0.00369590,-0.01114977,-0.01228320,-0.00003230,-0.00003939,-0.00014231
 ,-0.00005483,-0.00003149,0.00001844,0.00000128,-0.00002769,-0.00001692
 ,-0.00000162,0.00000818,-0.00004570,0.00002203,0.00024908,0.00006752,0
 .00005014,0.00004046,0.00000986,-0.00004505,-0.00004196,-0.00001789,0.
 00001656,0.00002912,0.00001798,0.00000052,0.00000853,-0.00000425,0.000
 00273,0.00000267,0.00000291,0.00003252,0.00017618,0.00004375,-0.000024
 44,-0.00021484,-0.00000965,-0.07379837,0.05435922,0.05781888,-0.001194
 07,-0.00207050,0.00067316,-0.00786709,0.02118448,0.02374300,0.00154566
 ,-0.00603873,-0.00527329,0.07727831,-0.00001092,-0.00001629,0.00003161
 ,-0.00000576,0.00004003,-0.00003458,-0.00000335,-0.00000914,0.00003295
 ,-0.00000878,-0.00000065,0.00000867,0.00000956,-0.00001051,0.00002269,
 0.00003202,-0.00000981,-0.00001615,0.00018449,0.00004616,-0.00033844,0
 .00014950,0.00020648,0.00029643,0.00005985,0.00021168,-0.00000325,0.00
 075777,0.00237321,0.00097030,-0.00000554,-0.00011576,-0.00021700,-0.00
 022734,0.00004921,0.00017820,0.00048528,0.00326685,-0.00027711,0.01196
 498,-0.02134461,-0.02359906,0.00004011,-0.00018167,-0.00035476,-0.0000
 4182,-0.00003116,0.00000153,0.00005001,-0.00003064,-0.00003040,0.00009
 271,0.00003791,-0.00002973,-0.00012566,0.00036472,0.00025577,0.0000212
 8,0.00005009,0.00004520,-0.00001472,-0.00006230,-0.00005407,-0.0000390
 6,0.00004396,0.00006430,-0.00000438,0.00001068,-0.00000386,-0.00000200
 ,0.00000579,0.00000538,-0.00000560,0.00024906,0.00017172,0.00001121,-0
 .00026533,0.00015683,0.05198402,-0.16337520,-0.12126645,-0.00415778,-0
 .00499872,0.00251701,0.00095722,-0.00227915,-0.00173259,-0.00505897,0.
 00963793,0.00865131,-0.05771464,0.17655133,-0.00025938,0.00015254,0.00
 007372,0.00004176,-0.00000598,-0.00003243,0.00003500,-0.00000573,-0.00
 002431,0.00001501,0.00000165,-0.00002636,-0.00001713,-0.00000352,0.000
 02267,0.00008723,-0.00002144,-0.00006373,0.00020886,-0.00004644,-0.000
 18758,0.00067166,0.00023046,0.00016480,0.00018487,-0.00014332,0.000058
 63,-0.00081997,0.00014173,0.00036484,-0.00004603,-0.00006914,0.0000585
 2,0.00012697,0.00006133,0.00009851,-0.00050666,0.00035840,0.00153975,-
 0.00100584,0.00411025,0.00148048,0.00010469,-0.00006211,-0.00031305,-0
 .00003512,-0.00004967,0.00003399,0.00003725,-0.00002121,-0.00002961,0.
 00005502,0.00001262,-0.00003522,-0.00011521,0.00009436,0.00004129,0.00
 000097,0.00004715,0.00002370,-0.00001153,-0.00004489,-0.00003545,-0.00
 002533,0.00003505,0.00004558,-0.00000230,0.00000863,-0.00000415,-0.000
 00124,0.00000311,0.00000254,-0.00000686,0.00028938,0.00015520,-0.00017
 513,-0.00036227,0.00004625,0.05684937,-0.12473707,-0.18182822,-0.00025
 115,0.00036880,0.00037327,-0.00097275,0.00324832,0.00260137,0.00970092
 ,-0.01970654,-0.01814281,-0.06468410,0.13611781,0.19344361,0.00000407,
 0.00002222,0.00001644,-0.00001297,0.00000593,-0.00002578,0.00001955,-0
 .00000129,-0.00001634,0.00001133,0.00000246,-0.00000944,0.00000211,0.0
 0000238,-0.00000757,-0.00002189,0.00001031,0.00001603,0.00012789,-0.00
 004197,0.00006343,-0.00003987,0.00015360,-0.00005468,-0.00002008,0.000
 00799,-0.00000267,-0.00113685,0.00224428,0.00254551,0.00074346,0.00094
 126,-0.00114769,-0.00042708,-0.00023860,0.00004472,0.00178810,-0.00050
 952,0.00011143,-0.01146931,-0.00082831,-0.00372212,0.00034245,-0.00019
 368,-0.00033563,0.00011679,-0.00002960,-0.00002612,0.00011568,0.000036
 85,-0.00004103,0.00043623,0.00004980,0.00029019,-0.00098434,-0.0002855
 8,0.00016764,-0.00016977,-0.00002051,0.00005455,0.00014297,0.00001833,
 -0.00005211,-0.00016363,-0.00000431,0.00007829,-0.00001273,-0.00000080
 ,0.00000704,-0.00001704,0.00000480,0.00000216,-0.00012674,0.00009563,0
 .00031618,-0.00014677,-0.00015987,0.00015968,-0.00022361,-0.00076330,-
 0.00022832,-0.30654322,0.03599596,-0.03331618,0.00088044,-0.00005218,-
 0.00007160,0.00004894,-0.00008554,0.00010808,0.00036333,-0.00003207,0.
 00011536,0.33266272,-0.00000467,-0.00001372,-0.00000648,0.00000020,-0.
 00000228,0.00001066,-0.00000677,0.00000106,0.00000631,-0.00000347,-0.0
 0000079,0.00000364,0.00000046,-0.00000093,0.00000575,0.00000969,-0.000
 00331,-0.00000757,-0.00005631,0.00001356,-0.00002728,0.00001143,-0.000
 07764,0.00001706,0.00001244,-0.00000497,0.00000448,0.00531422,-0.00208
 921,-0.00420061,-0.00043676,-0.00279240,0.00001140,0.00004736,0.000221
 18,0.00013577,-0.00128912,0.00029061,0.00107053,0.02145232,-0.00172402
 ,0.00614525,-0.00021676,0.00037027,0.00014973,-0.00007335,-0.00010170,
 -0.00001937,0.00000242,-0.00003074,-0.00006681,0.00022002,-0.00002282,
 0.00031171,-0.00119416,0.00068524,0.00073157,0.00006843,0.00004554,0.0
 0002465,-0.00000531,-0.00005738,-0.00004271,-0.00002542,0.00004660,0.0
 0003574,-0.00000053,0.00001231,0.00000341,-0.00000152,0.00000943,0.000
 00446,0.00020713,-0.00000890,-0.00024998,0.00000311,0.00012706,0.00002
 237,-0.00005878,0.00043947,0.00029430,0.03391718,-0.05529692,0.0034357
 2,-0.00036535,-0.00095697,-0.00041119,0.00008940,-0.00005783,-0.000098
 95,-0.00029992,0.00032533,0.00006229,-0.03934543,0.05575696,-0.0000074
 0,-0.00000773,-0.00000043,-0.00000173,-0.00000077,0.00000575,-0.000006
 59,0.00000118,0.00000601,-0.00000278,-0.00000045,0.00000365,0.00000248
 ,-0.00000096,0.00000694,0.00001149,0.00000096,-0.00001038,-0.00003639,
 0.00001826,-0.00003501,-0.00000699,-0.00005049,0.00004258,0.00002110,-
 0.00001879,0.00000180,0.00495839,-0.00374602,-0.00247638,-0.00073588,-
 0.00129973,0.00080739,0.00040655,0.00026310,0.00000152,-0.00109821,0.0
 0049265,0.00130060,0.02074048,-0.00061883,0.00268416,-0.00016330,0.000
 17343,0.00010492,-0.00007818,-0.00004888,-0.00001582,0.00004640,-0.000
 09187,0.00001962,-0.00011753,0.00017710,-0.00042795,0.00041960,0.00045
 557,0.00021986,0.00005751,0.00003797,0.00001717,-0.00001466,-0.0000541
 8,-0.00003194,-0.00004433,0.00003705,0.00005518,-0.00000095,0.00001010
 ,0.00000174,-0.00000013,0.00000853,0.00000312,0.00009897,0.00000517,-0
 .00016209,0.00002704,0.00005312,-0.00002198,-0.00019058,0.00062210,0.0
 0016604,-0.03584381,0.00491655,-0.05392315,-0.00010832,-0.00034656,0.0
 0026875,-0.00011688,0.00000355,0.00003926,0.00000907,0.00022186,-0.000
 05886,0.03760093,-0.00318688,0.05358909,0.00002643,-0.00001909,-0.0000
 1923,0.00001244,-0.00000429,0.00002432,-0.00002208,0.00000275,0.000013
 20,-0.00001176,-0.00000229,0.00001195,0.00000052,-0.00000271,0.0000035
 2,0.00000938,-0.00000582,-0.00001025,-0.00014074,0.00003262,-0.0000288
 5,0.00009340,-0.00013858,0.00000460,0.00000011,-0.00000734,0.00001291,
 0.00050035,-0.00088708,-0.00079396,0.00034243,0.00198224,0.00148848,0.
 00050621,-0.00041268,0.00041238,-0.00046769,-0.00070106,-0.00085736,0.
 00564659,0.01197174,-0.00310360,-0.00027020,-0.00014793,0.00043720,-0.
 00005659,0.00014891,0.00004558,-0.00007276,0.00000245,0.00017564,-0.00
 091538,-0.00011382,-0.00072470,-0.00186085,-0.00107902,0.00000670,0.00
 014124,-0.00002236,-0.00009097,-0.00015701,0.00002748,0.00009907,0.000
 20259,-0.00003585,-0.00011660,0.00001545,-0.00001177,-0.00000914,0.000
 01887,-0.00001122,-0.00000591,-0.00007331,-0.00018725,-0.00020344,0.00
 021760,0.00013848,-0.00028771,-0.00075710,0.00136431,0.00176710,-0.112
 67796,-0.11640365,0.01882753,0.00037620,0.00012098,0.00011266,-0.00012
 962,-0.00021574,0.00012869,0.00069856,0.00076232,0.00023071,-0.0130647
 4,-0.02781079,0.00541397,0.11869568,-0.00005615,0.00003113,0.00002268,
 -0.00000691,0.00000519,-0.00002446,0.00002457,-0.00000485,-0.00001126,
 0.00001137,0.00000295,-0.00001545,-0.00000471,0.00000347,-0.00000130,0
 .00000410,0.00000279,0.00000627,0.00015336,-0.00002656,0.00000051,-0.0
 0008378,0.00016816,0.00004589,0.00003543,-0.00000582,-0.00001541,0.000
 06767,0.00241754,0.00035940,0.00084181,-0.00154216,-0.00108778,-0.0000
 2725,-0.00026647,-0.00042228,0.00051060,0.00212792,0.00101527,-0.01264
 412,-0.02190061,0.00545388,0.00012315,0.00001757,-0.00045183,0.0000235
 8,-0.00011511,-0.00000528,0.00010600,-0.00002767,-0.00010439,0.0006406
 8,0.00006248,0.00063945,-0.00276841,0.00032570,0.00090628,-0.00009933,
 0.00003688,0.00006749,0.00011044,-0.00004168,-0.00008701,-0.00016095,0
 .00004862,0.00009947,-0.00001180,0.00001252,0.00000534,-0.00001669,0.0
 0001107,0.00000632,0.00004884,0.00025108,0.00017040,-0.00018825,-0.000
 24238,0.00017885,0.00260401,-0.00193776,-0.00393670,-0.11234634,-0.256
 13593,0.03341402,-0.00005381,0.00025824,0.00002615,0.00009978,0.000332
 69,0.00005732,-0.00072847,-0.00126535,0.00008459,0.00306651,0.00706661
 ,-0.00134662,0.12472984,0.27684336,-0.00002411,0.00001243,0.00001604,-
 0.00000830,0.00000315,-0.00001595,0.00001175,-0.00000277,-0.00000728,0
 .00000572,0.00000096,-0.00000844,-0.00000229,0.00000096,-0.00000200,-0
 .00000271,0.00000226,-0.00000363,0.00008343,-0.00002226,0.00000178,-0.
 00003292,0.00008761,0.00005039,0.00002953,-0.00002154,-0.00000407,-0.0
 0101599,0.00193330,0.00029254,0.00099665,-0.00072684,0.00014245,0.0002
 7604,-0.00072680,-0.00069595,-0.00026310,0.00178081,0.00191017,-0.0130
 1291,-0.02152451,0.00376319,0.00012157,0.00001233,-0.00030623,0.000044
 20,-0.00000354,0.00008220,-0.00012600,0.00006560,-0.00015268,-0.000206
 55,0.00006816,0.00056245,0.00061875,0.00022618,-0.00098524,-0.00007137
 ,-0.00002856,-0.00003167,0.00001565,0.00005019,0.00003181,0.00003797,-
 0.00003297,-0.00005191,0.00000357,-0.00000498,-0.00000168,0.00000041,-
 0.00000734,-0.00000602,-0.00003392,0.00015479,0.00006093,-0.00013748,-
 0.00014474,0.00003244,0.00199524,-0.00238395,-0.00296038,0.01946143,0.
 03585086,-0.05654094,0.00018042,0.00024944,-0.00014257,0.00012719,-0.0
 0026967,0.00026419,-0.00034327,-0.00148581,0.00036470,-0.00217507,-0.0
 0475731,-0.00021683,-0.02277498,-0.03604433,0.05869487,-0.00000407,-0.
 00000653,-0.00000433,0.00000062,-0.00000313,0.00000499,-0.00000112,-0.
 00000039,-0.00000029,-0.00000103,-0.00000040,-0.00000128,-0.00000440,0
 .00000069,-0.00000253,-0.00000070,-0.00000551,-0.00000275,-0.00002090,
 -0.00000159,-0.00000146,0.00002304,-0.00003148,0.00001735,0.00001555,-
 0.00002001,0.00001445,0.00061651,-0.00038830,-0.00079007,0.00014935,-0
 .00022721,0.00032751,0.00062576,0.00008751,-0.00033868,0.00046994,0.00
 170120,0.00340841,-0.00017235,-0.00456800,0.01010968,0.00003389,0.0000
 1348,0.00003165,-0.00001813,0.00002036,0.00005390,-0.00013355,0.000075
 81,-0.00003986,-0.00014654,-0.00026006,0.00045857,-0.00015677,0.000140
 83,-0.00042873,0.00002444,-0.00001547,-0.00004769,-0.00005128,0.000040
 66,0.00005084,0.00012139,-0.00002615,-0.00009369,0.00000875,-0.0000079
 6,-0.00000364,0.00000793,-0.00000968,-0.00000438,-0.00000845,-0.000012
 31,-0.00006330,-0.00000851,0.00003358,-0.00005361,-0.00002264,-0.00029
 897,-0.00025452,-0.05652094,0.01371012,-0.04217886,0.00000213,0.000027
 02,-0.00019575,0.00033182,-0.00012028,-0.00003230,-0.00015885,-0.00009
 473,0.00007480,-0.00312509,0.00985920,-0.03131321,0.00296555,-0.003974
 12,0.01614134,0.05546494,0.00002712,-0.00001012,-0.00000107,-0.0000025
 0,0.00000284,-0.00000077,-0.00000515,0.00000053,0.00000300,-0.00000263
 ,-0.00000077,0.00000420,0.00000388,-0.00000244,0.00000073,-0.00000751,
 0.00000182,-0.00000240,-0.00001172,0.00000230,0.00001143,0.00000170,-0
 .00000575,-0.00003710,-0.00001970,0.00002802,-0.00001438,-0.00123999,0
 .00032845,0.00116274,0.00016977,0.00019828,-0.00012470,-0.00073720,-0.
 00145303,-0.00013200,0.00184291,-0.00143682,-0.00656922,-0.00504644,0.
 00862840,-0.01985105,0.00005733,-0.00006399,0.00000232,0.00003765,0.00
 002548,0.00000403,-0.00009008,0.00008293,-0.00007358,0.00006829,-0.000
 13688,0.00042909,-0.00042081,0.00001107,-0.00014910,-0.00001187,-0.000
 02662,-0.00002254,-0.00000424,0.00003684,0.00003615,0.00006008,-0.0000
 3146,-0.00006151,0.00000383,-0.00000624,-0.00000180,0.00000318,-0.0000
 0512,-0.00000471,-0.00002176,-0.00003786,0.00003379,0.00001060,0.00003
 385,-0.00000740,-0.00003491,0.00023489,0.00051734,0.01442465,-0.075718
 15,0.07870144,-0.00008060,-0.00005437,-0.00006140,-0.00008752,-0.00081
 804,-0.00040269,0.00009157,0.00034055,0.00023914,0.00005347,-0.0023160
 3,0.00338821,0.00664775,-0.00715205,0.02708115,-0.01591669,0.07838077,
 0.00003871,-0.00001181,-0.00000624,0.00001022,0.00000466,0.00001223,-0
 .00001927,0.00000269,0.00001970,-0.00001106,-0.00000205,0.00001743,0.0
 0001049,-0.00000714,0.00001543,0.00001714,0.00000296,-0.00001474,-0.00
 006588,0.00004725,-0.00003242,-0.00002022,-0.00004746,-0.00007366,-0.0
 0004413,0.00008929,-0.00003000,0.00006742,-0.00024378,0.00236951,-0.00
 015204,0.00042537,-0.00054251,-0.00172631,-0.00154294,0.00048604,0.002
 56853,-0.00353157,-0.00552789,-0.00579968,0.01110752,-0.01839678,-0.00
 010719,-0.00001662,0.00012826,-0.00001712,-0.00000703,-0.00010350,0.00
 009167,-0.00010842,0.00002657,-0.00006265,0.00034358,-0.00060334,0.000
 45975,-0.00004697,0.00048772,0.00006429,0.00002570,0.00005677,0.000001
 00,-0.00007075,-0.00005974,-0.00009914,0.00003020,0.00010452,-0.000007
 04,0.00001008,0.00000323,-0.00000211,0.00001240,0.00000736,0.00007039,
 -0.00014314,0.00003037,0.00015969,0.00010784,0.00004013,-0.00000253,0.
 00096355,0.00045399,-0.04043871,0.07541490,-0.28137085,0.00008264,-0.0
 0005732,-0.00006748,0.00000376,-0.00074615,0.00065920,0.00018859,-0.00
 002668,0.00037779,-0.00052874,0.00063434,-0.00204444,-0.00064207,0.000
 99673,-0.00300886,0.04545685,-0.08387592,0.30601631,0.00002136,-0.0000
 0423,-0.00002500,0.00001780,-0.00000456,0.00001168,-0.00003526,0.00000
 933,0.00007718,-0.00000313,0.00000513,0.00000024,-0.00000175,-0.000008
 74,0.00002713,0.00003691,-0.00001245,-0.00001106,-0.00026407,0.0000085
 1,-0.00002923,0.00012256,-0.00032601,-0.00000865,-0.00000746,0.0000246
 9,0.00002104,-0.00008130,-0.00006442,0.00000179,0.00010067,0.00014834,
 0.00008401,0.00001577,0.00000287,0.00000796,-0.00003183,-0.00000866,-0
 .00001831,0.00006730,0.00000414,0.00001361,0.00008625,0.00009842,0.000
 16900,-0.00024468,0.00017114,-0.00006377,0.00100933,0.00072933,0.00020
 544,0.00003619,-0.00014205,0.00006918,-0.00011971,-0.00007542,-0.00008
 709,0.00069991,-0.00041142,-0.00065587,-0.00691704,0.00561001,0.001865
 14,-0.00052026,-0.00135444,0.00251774,-0.16393500,0.09443598,0.0922703
 8,-0.00019990,0.00036551,-0.00046704,-0.00032120,-0.00091540,-0.000430
 77,0.00005314,0.00057825,-0.00006008,-0.00000528,0.00000011,-0.0000003
 1,-0.00000695,0.00000457,-0.00000003,-0.00000421,-0.00000108,0.0000004
 3,0.00000159,0.00000050,-0.00000023,0.00000177,-0.00000175,-0.00000053
 ,-0.00000742,-0.00000095,-0.00000039,0.00000906,-0.00000699,0.00000016
 ,0.00000365,0.00000117,-0.00000191,0.17438224,-0.00000887,0.00000453,0
 .00000858,-0.00001650,0.00000241,-0.00001542,0.00001137,-0.00000034,0.
 00000078,0.00001200,0.00000312,-0.00000986,-0.00000339,0.00000174,0.00
 000132,-0.00000664,0.00000178,0.00000388,0.00007997,-0.00000901,0.0000
 2181,-0.00004480,0.00009219,-0.00000689,0.00000365,-0.00000393,-0.0000
 0484,0.00003102,0.00000190,-0.00002317,-0.00000814,0.00001504,0.000037
 42,-0.00001303,-0.00001538,-0.00000625,0.00002028,0.00000833,-0.000010
 90,-0.00002207,0.00000111,0.00001299,0.00001594,-0.00003988,0.00000058
 ,-0.00010785,0.00034968,-0.00008923,-0.00027381,0.00080149,0.00056649,
 -0.00006944,-0.00028839,0.00017170,-0.00002599,0.00002255,-0.00008420,
 0.00082615,0.00081769,-0.00046436,-0.01137288,0.00854973,0.00794931,-0
 .00220449,-0.00079152,0.00355108,0.09609588,-0.12746491,-0.07657731,0.
 00017846,-0.00000329,-0.00039330,0.00018262,0.00020563,0.00002331,-0.0
 0003805,-0.00018342,-0.00002668,0.00000206,0.00000192,0.00000081,0.000
 00071,-0.00000227,0.00000058,0.00000234,-0.00000063,-0.00000041,-0.000
 00074,0.00000090,-0.00000049,-0.00000199,-0.00000139,-0.00000121,0.000
 00191,-0.00000116,-0.00000099,-0.00000039,-0.00000018,0.00000129,0.000
 00061,0.00000105,-0.00000229,-0.10518765,0.13470511,0.00000303,0.00000
 364,0.00000954,0.00000950,0.00000030,-0.00000237,-0.00000140,-0.000001
 78,-0.00000965,0.00000281,-0.00001236,0.00000781,0.00000849,-0.0000048
 1,-0.00001000,-0.00000535,0.00000887,0.00000042,-0.00003064,-0.0000267
 7,0.00000139,0.00003224,-0.00006955,-0.00000452,-0.00000122,0.00000218
 ,0.00000749,0.00006824,0.00007834,0.00003447,-0.00007724,-0.00022385,-
 0.00012331,-0.00000695,0.00001418,-0.00000028,0.00003093,0.00000551,0.
 00003082,-0.00007579,-0.00001498,-0.00001990,-0.00011696,0.00003529,-0
 .00030646,0.00031461,-0.00029461,0.00006614,-0.00066951,-0.00170084,-0
 .00068277,-0.00001838,0.00046460,-0.00038659,0.00019531,0.00007358,0.0
 0026471,-0.00158496,0.00005287,0.00098616,0.01718388,-0.01969287,-0.01
 186323,0.00443255,0.00397763,-0.00513195,0.09012702,-0.07286444,-0.123
 09183,-0.00001146,-0.00037054,0.00091286,-0.00008487,-0.00028150,-0.00
 005873,-0.00006406,0.00019482,0.00019807,0.00000488,-0.00000191,-0.000
 00093,0.00000921,-0.00000352,-0.00000186,0.00000330,0.00000260,0.00000
 048,-0.00000166,-0.00000163,-0.00000026,0.00000049,0.00000389,0.000003
 36,0.00000913,0.00000245,0.00000239,-0.00001291,0.00001075,-0.00000183
 ,-0.00000657,-0.00000339,0.00000483,-0.10222576,0.08168955,0.13172873,
 0.00002776,0.00002083,-0.00003444,0.00000951,0.00000992,0.00001707,-0.
 00001753,-0.00000641,0.00004542,-0.00002363,0.00000633,-0.00000797,-0.
 00001828,-0.00000282,0.00002941,0.00005465,-0.00002164,-0.00000044,-0.
 00023678,-0.00000211,-0.00006293,0.00014225,-0.00028321,0.00000955,-0.
 00000487,0.00000950,0.00001047,-0.00011596,0.00006805,0.00005864,-0.00
 001848,-0.00022054,-0.00013002,0.00001242,-0.00003531,0.00002202,-0.00
 003257,0.00003473,0.00000919,0.00006829,-0.00003022,-0.00000542,0.0002
 3906,0.00012405,-0.00007069,0.00085089,-0.00021732,-0.00032767,-0.0003
 1018,-0.00011797,-0.00007950,-0.00000040,-0.00000315,-0.00005303,0.000
 04262,0.00014806,0.00010320,-0.00021231,-0.00198361,0.00227349,-0.0054
 1076,-0.00618103,-0.00355953,0.00064828,0.00077860,-0.00007277,-0.0942
 2236,-0.09621925,-0.02579186,-0.00038049,0.00029756,-0.00029765,-0.000
 99136,-0.00064544,-0.00004716,-0.00000360,0.00059334,0.00006937,-0.000
 00818,-0.00000179,-0.00000466,-0.00001251,0.00000236,0.00000079,-0.000
 00628,0.00000046,0.00000106,0.00000265,-0.00000090,-0.00000044,0.00000
 542,0.00000768,0.00000573,-0.00000498,0.00000406,0.00000364,0.00000129
 ,0.00000112,-0.00000209,-0.00000076,-0.00000148,0.00000218,0.01067420,
 0.02040926,0.00387330,0.09719318,0.00001528,-0.00002225,-0.00001734,0.
 00002205,-0.00000408,0.00002776,-0.00001954,0.00000116,-0.00000479,-0.
 00002007,-0.00000313,0.00001167,-0.00000117,0.00000535,-0.00001114,0.0
 0000078,-0.00000494,-0.00001625,-0.00004978,0.00003391,-0.00001082,0.0
 0004336,-0.00003237,0.00001990,-0.00000257,-0.00000442,0.00000134,-0.0
 0011150,0.00001292,0.00002385,0.00002142,-0.00004417,-0.00015200,0.000
 01354,0.00000004,0.00003541,-0.00006040,0.00000935,-0.00000164,0.00010
 548,-0.00000967,-0.00001961,0.00017344,-0.00003214,0.00027360,0.001514
 54,-0.00088176,0.00016289,-0.00049173,-0.00015431,0.00004395,0.0001045
 6,0.00003315,0.00002635,-0.00002297,0.00005239,0.00003527,-0.00282114,
 -0.00126614,0.00309995,-0.00553043,-0.01405900,-0.00855988,0.00098947,
 0.00141277,-0.00022640,-0.09620893,-0.25488226,-0.05207584,-0.00028758
 ,0.00009599,-0.00044753,-0.00001544,0.00002749,-0.00012313,0.00000334,
 0.00009966,-0.00009881,-0.00000880,-0.00000125,-0.00000165,-0.00001274
 ,0.00000549,0.00000140,-0.00000725,-0.00000054,0.00000031,0.00000346,-
 0.00000107,-0.00000011,0.00000441,0.00000420,0.00000325,-0.00000853,0.
 00000243,0.00000233,0.00000687,-0.00000384,-0.00000258,0.00000178,-0.0
 0000097,0.00000181,-0.00721836,-0.01419919,-0.00308517,0.10743385,0.27
 615151,0.00000753,0.00001425,-0.00000760,0.00000616,0.00000174,0.00001
 922,0.00000359,-0.00000438,-0.00001094,-0.00000981,-0.00000042,0.00001
 408,0.00000570,-0.00000891,0.00001646,0.00002403,0.00000063,0.00001453
 ,-0.00013315,-0.00000001,-0.00007777,0.00006406,-0.00017844,0.00000340
 ,0.00000064,0.00001006,-0.00000024,-0.00000626,-0.00000371,0.00002474,
 0.00002566,0.00000634,0.00011693,0.00001736,-0.00002888,-0.00003151,0.
 00001170,0.00000912,0.00001351,-0.00001483,-0.00001255,0.00000446,-0.0
 0001772,0.00006314,-0.00040963,-0.00114089,0.00143808,-0.00011396,0.00
 011639,0.00018223,0.00038917,-0.00005263,-0.00010319,0.00000328,-0.000
 02972,0.00000255,-0.00001485,0.00428856,0.00411934,-0.00374531,0.01088
 220,0.02402585,0.00957142,-0.00128761,-0.00093300,0.00097461,-0.027099
 30,-0.05578487,-0.06552721,-0.00018417,-0.00074144,0.00037487,-0.00058
 069,-0.00047901,0.00022093,0.00002528,0.00036409,0.00012335,0.00000040
 ,-0.00000330,-0.00000360,0.00000239,0.00000147,0.00000126,-0.00000054,
 0.00000130,0.00000078,-0.00000034,0.00000027,0.00000067,0.00000107,0.0
 0000235,0.00000130,-0.00000048,-0.00000121,-0.00000087,0.00000087,-0.0
 0000003,0.00000104,0.00000020,0.00000076,-0.00000033,-0.00880568,-0.01
 468214,-0.00417036,0.02810372,0.05904346,0.06651175,-0.00006257,0.0000
 1550,0.00006572,-0.00010368,0.00001517,-0.00011586,0.00008898,-0.00003
 989,-0.00006455,0.00002556,0.00001038,-0.00006499,-0.00002709,0.000014
 43,-0.00003177,-0.00006878,0.00000935,0.00001423,0.00076418,-0.0001162
 1,0.00019739,-0.00031462,0.00093028,0.00000179,0.00001692,-0.00004328,
 -0.00002563,0.00012511,-0.00005017,-0.00009659,-0.00008328,0.00022857,
 0.00007073,-0.00006055,0.00002400,0.00000585,0.00004149,-0.00001934,-0
 .00003342,-0.00007629,0.00003600,0.00002732,0.00008584,-0.00091148,0.0
 0058997,0.00045888,0.00012338,-0.00010332,0.00026643,0.00022304,-0.000
 04434,0.00009047,-0.00001501,0.00012409,-0.00003277,-0.00009087,-0.000
 16944,0.00022411,0.00002865,0.00017975,0.00790345,-0.00052969,0.005217
 77,0.00079517,-0.00053936,-0.00004092,-0.24124755,0.03480143,-0.127801
 09,-0.00018190,-0.00084453,0.00140641,-0.00233695,0.00105877,-0.001004
 18,-0.00077040,-0.00153395,-0.00003750,0.00000883,0.00000661,0.0000085
 8,0.00000840,-0.00000759,-0.00000112,0.00000837,-0.00000213,-0.0000025
 2,-0.00000245,0.00000175,-0.00000123,-0.00000801,-0.00000963,-0.000007
 31,0.00000688,-0.00000294,-0.00000316,-0.00000316,-0.00000006,0.000003
 02,0.00000081,0.00000202,-0.00000422,-0.01503782,0.00159117,-0.0109016
 5,-0.00812742,0.00215752,-0.00444094,0.25723632,-0.00005782,-0.0000158
 0,0.00006210,-0.00003762,-0.00000829,-0.00006837,0.00004329,-0.0000116
 6,-0.00004894,0.00004360,-0.00000817,-0.00003389,-0.00000277,0.0000121
 7,-0.00005615,-0.00008997,0.00002234,-0.00000203,0.00053302,-0.0000413
 4,0.00019371,-0.00025875,0.00061583,-0.00003241,0.00000544,-0.00002606
 ,-0.00001350,0.00024872,-0.00009916,-0.00017628,-0.00002875,0.00050539
 ,0.00013271,-0.00006854,0.00007864,-0.00001260,0.00006009,-0.00005395,
 -0.00003698,-0.00011298,0.00005880,0.00000845,-0.00015629,-0.00079488,
 0.00071045,-0.00007029,-0.00010828,0.00037469,0.00024644,0.00036273,0.
 00001259,0.00005277,-0.00003663,0.00010156,-0.00011024,-0.00024158,-0.
 00020714,0.00017899,0.00100379,-0.00137566,0.01624244,-0.00424837,0.01
 039898,-0.00060291,0.00011434,-0.00154119,0.03120088,-0.05556856,0.019
 73273,-0.00194214,-0.00156466,0.00296415,0.00051212,0.00134567,-0.0005
 8744,-0.00029638,-0.00140334,-0.00011506,0.00001711,0.00000322,0.00001
 112,0.00001873,-0.00000466,-0.00000007,0.00001135,0.00000038,-0.000002
 39,-0.00000345,0.00000165,-0.00000176,-0.00000925,-0.00001300,-0.00000
 848,0.00000874,-0.00000697,-0.00000584,-0.00000160,-0.00000236,0.00000
 258,0.00000150,0.00000209,-0.00000551,0.01428732,-0.00279965,0.0107785
 6,-0.02458994,0.00653041,-0.01639404,-0.03598770,0.05588450,0.00003883
 ,0.00002633,-0.00005357,0.00003586,-0.00000260,0.00004899,-0.00003774,
 0.00000653,0.00005374,-0.00002644,0.00000837,0.00001378,-0.00000815,-0
 .00000750,0.00004860,0.00008066,-0.00002323,0.00000607,-0.00045300,0.0
 0001059,-0.00012918,0.00025057,-0.00058707,0.00000863,-0.00000698,0.00
 003839,0.00002911,-0.00007606,-0.00003008,0.00002543,0.00008401,0.0001
 4730,0.00003429,0.00001624,-0.00000413,0.00001617,-0.00003462,0.000011
 27,-0.00000140,0.00006658,-0.00001179,-0.00000521,0.00073459,0.0001495
 5,-0.00009620,0.00016626,0.00037952,-0.00022123,0.00033896,0.00025708,
 -0.00014289,-0.00002118,0.00005044,-0.00007073,-0.00004661,-0.00007354
 ,0.00006638,0.00035233,-0.00201647,0.00220403,-0.02638915,0.00471119,-
 0.01919408,-0.00059622,-0.00047510,0.00301709,-0.12307829,0.02134832,-
 0.13220114,0.00301096,0.00257177,-0.00418123,-0.00142054,-0.00147903,-
 0.00071815,-0.00010607,0.00108833,0.00006317,-0.00000515,-0.00000552,-
 0.00000705,-0.00000708,0.00000836,-0.00000153,-0.00000608,0.00000186,0
 .00000190,0.00000220,-0.00000041,0.00000019,0.00000539,0.00000453,0.00
 000457,-0.00000687,0.00000035,0.00000165,0.00000655,-0.00000328,-0.000
 00116,0.00000116,-0.00000121,0.00000123,0.01607190,-0.00194995,0.01188
 887,-0.00392676,0.00086919,-0.00364292,0.13635859,-0.02543349,0.143477
 57,0.00001200,-0.00001480,-0.00002950,-0.00001177,-0.00000111,0.000025
 69,-0.00001024,0.00003051,0.00002235,0.00001405,0.00002539,0.00000799,
 0.00000078,-0.00000306,0.00005709,0.00002164,-0.00001452,0.00000137,-0
 .00011684,0.00005247,-0.00005728,0.00002271,-0.00011612,0.00000244,0.0
 0000080,0.00001333,-0.00000110,-0.00007216,-0.00010925,-0.00003962,0.0
 0014500,0.00029028,0.00023616,0.00001268,-0.00001742,-0.00001335,-0.00
 002283,-0.00001055,-0.00003713,0.00007201,0.00001869,0.00002943,0.0002
 4231,-0.00004410,0.00019529,-0.00032095,-0.00007834,0.00066814,0.00152
 627,0.00202941,-0.00124469,0.00005068,-0.00035191,0.00028520,-0.000216
 14,-0.00012629,-0.00023129,0.00224230,-0.00053636,-0.00055984,-0.01341
 958,0.01533631,0.01711019,-0.00791523,0.00244153,-0.00230813,0.0004247
 7,-0.00069008,0.00075533,-0.14531055,0.09969935,0.07831866,-0.00000277
 ,-0.00016921,-0.00015569,0.00009895,0.00016188,-0.00016380,-0.00000426
 ,0.00000221,0.00000111,-0.00000841,0.00000434,0.00000124,-0.00000272,-
 0.00000299,-0.00000025,0.00000103,0.00000231,0.00000056,-0.00000113,-0
 .00000546,-0.00000477,-0.00000938,-0.00000365,-0.00000295,0.00001421,-
 0.00001252,0.00000262,0.00000715,0.00000399,-0.00000580,0.00052279,0.0
 0003253,-0.00063697,0.00005615,-0.00014363,-0.00000413,0.00004969,-0.0
 0033751,-0.00007005,0.15527305,-0.00000072,0.00000699,0.00000035,-0.00
 001203,0.00000535,0.00000289,0.00001114,0.00001261,-0.00002176,0.00000
 877,0.00000447,0.00000592,0.00000186,-0.00000028,0.00001747,0.00000049
 ,0.00000081,0.00001012,0.00001613,-0.00000043,-0.00001796,-0.00001666,
 0.00000585,-0.00000503,0.00000286,0.00000027,-0.00000402,0.00005298,0.
 00003065,0.00000634,-0.00005132,-0.00008498,-0.00002526,-0.00000743,0.
 00000504,-0.00001009,0.00002747,0.00000104,0.00001486,-0.00005544,-0.0
 0000282,-0.00000630,-0.00003868,0.00001089,-0.00011291,0.00014103,0.00
 024283,-0.00020281,-0.00037450,-0.00081169,0.00089983,0.00005919,0.000
 14766,-0.00013759,0.00005510,0.00004434,0.00007034,-0.00075740,0.00043
 435,0.00055556,0.00182450,-0.00590403,-0.00554623,0.00237960,0.0007825
 0,0.00040708,-0.00005853,-0.00003081,-0.00037198,0.10147506,-0.1539030
 3,-0.08246133,-0.00002079,-0.00001162,0.00006206,0.00000624,-0.0000033
 8,0.00006738,0.00000378,0.00000058,0.00000061,0.00000546,-0.00000292,-
 0.00000055,0.00000353,0.00000040,-0.00000017,-0.00000176,-0.00000038,0
 .00000045,-0.00000158,0.00000068,-0.00000010,0.00000607,0.00000050,0.0
 0000055,-0.00000680,0.00000494,-0.00000074,-0.00000311,-0.00000149,0.0
 0000188,-0.00009320,0.00018241,0.00077910,0.00016132,0.00008175,0.0000
 1569,-0.00016826,0.00020596,0.00018236,-0.11176777,0.16349149,-0.00001
 400,0.00000726,0.00001911,-0.00000886,0.00000572,-0.00003074,0.0000033
 2,-0.00001767,0.00002352,0.00001326,-0.00002536,-0.00001958,-0.0000023
 2,-0.00000590,-0.00002138,-0.00000762,0.00000739,-0.00001087,0.0000631
 1,-0.00003549,0.00005076,-0.00001775,0.00006552,-0.00000520,-0.0000012
 5,-0.00000530,0.00000268,0.00001441,0.00000993,-0.00000534,0.00001359,
 -0.00002250,0.00003593,-0.00000022,-0.00000680,-0.00000777,0.00001393,
 0.00000667,0.00000097,-0.00001518,-0.00000631,0.00000354,0.00003079,0.
 00006613,-0.00015685,0.00005766,-0.00007219,0.00022362,-0.00003238,0.0
 0096069,-0.00089234,-0.00016952,-0.00020098,0.00020829,0.00007859,-0.0
 0002266,0.00002877,0.00102983,0.00056061,0.00023853,-0.00934832,0.0114
 6772,0.00989771,-0.00521611,0.00161810,0.00043229,0.00056220,-0.000238
 16,0.00013387,0.08059673,-0.08409613,-0.11615982,0.00006113,0.00009217
 ,0.00007513,-0.00004308,-0.00013081,0.00003059,0.00000121,0.00000009,-
 0.00000083,0.00000114,0.00000045,-0.00000032,0.00000072,0.00000063,0.0
 0000009,-0.00000010,-0.00000035,-0.00000090,-0.00000004,0.00000054,0.0
 0000146,0.00000138,-0.00000039,-0.00000024,-0.00000136,0.00000147,0.00
 000027,-0.00000033,-0.00000038,-0.00000064,-0.00041540,0.00048777,-0.0
 0057070,-0.00007428,0.00007364,-0.00004183,0.00005581,-0.00021016,0.00
 018108,-0.08697156,0.09129953,0.12300639,-0.00000696,0.00001544,0.0000
 0927,-0.00001105,0.00000996,-0.00002232,0.00001082,-0.00000598,0.00001
 078,0.00000212,-0.00001002,-0.00001209,0.00001225,-0.00001111,0.000008
 57,0.00000035,0.00000588,0.00000335,0.00000940,-0.00002679,0.00001020,
 -0.00000209,-0.00001077,-0.00000773,0.00000090,-0.00000002,0.00000056,
 0.00006951,0.00004885,0.00000951,-0.00005545,-0.00014926,-0.00002349,-
 0.00000222,0.00000502,-0.00001321,0.00003801,0.00000354,0.00001968,-0.
 00007501,-0.00000678,-0.00000401,-0.00002834,0.00009493,-0.00025606,-0
 .00018291,-0.00010230,-0.00000020,-0.00097792,0.00033318,-0.00056961,-
 0.00022710,0.00007129,0.00015372,0.00020429,0.00000511,0.00013225,0.00
 219005,0.00112240,0.00191370,0.00843336,0.01252128,-0.02597945,0.00255
 109,-0.00153992,0.00163991,-0.00465832,0.00059796,-0.00218850,-0.07339
 078,-0.03622258,0.06866222,-0.00002390,-0.00008879,0.00012503,-0.00000
 916,0.00003381,0.00013717,0.00000567,-0.00000107,-0.00000012,0.0000085
 2,-0.00000499,-0.00000089,0.00000388,0.00000181,0.00000023,-0.00000196
 ,-0.00000054,-0.00000019,-0.00000086,0.00000132,0.00000109,0.00000751,
 0.00000085,0.00000012,-0.00001035,0.00000774,0.00000035,-0.00000366,-0
 .00000086,0.00000152,0.00006668,-0.00025000,-0.00010082,-0.00002743,0.
 00015969,0.00013246,0.00055303,0.00092610,-0.00142869,-0.00592298,-0.0
 1036690,0.01609424,0.07785279,-0.00000702,0.00000016,-0.00001050,-0.00
 000082,-0.00000798,0.00000976,-0.00000299,0.00001342,-0.00001786,0.000
 01355,-0.00000175,0.00000024,0.00001444,0.00001971,0.00002088,-0.00000
 571,0.00000328,0.00001823,0.00000077,0.00002712,-0.00001948,-0.0000177
 0,0.00001690,0.00000187,0.00000024,0.00000199,-0.00000269,-0.00001827,
 -0.00005616,-0.00003108,0.00005392,0.00016613,0.00010661,-0.00000393,-
 0.00001320,-0.00000235,-0.00000509,-0.00000308,-0.00003079,0.00002440,
 0.00001251,0.00002605,0.00003902,-0.00011316,0.00014126,-0.00033667,0.
 00037602,0.00015748,0.00038935,-0.00007248,0.00082109,0.00020951,-0.00
 002623,-0.00008908,-0.00021325,-0.00001527,-0.00018670,0.00050311,0.00
 058048,-0.00147007,-0.00347355,-0.00585293,0.00668486,-0.00075732,0.00
 016166,-0.00077292,0.00230103,0.00026286,0.00071350,-0.03530539,-0.101
 66464,0.10015818,0.00010193,0.00007980,-0.00007204,0.00002178,-0.00007
 372,-0.00011866,-0.00000080,0.00000175,0.00000143,-0.00000256,-0.00000
 008,0.00000050,-0.00000036,-0.00000172,-0.00000007,0.00000003,0.000002
 09,-0.00000020,-0.00000140,-0.00000426,-0.00000360,-0.00000419,-0.0000
 0247,-0.00000174,0.00000707,-0.00000663,0.00000250,0.00000364,0.000003
 23,-0.00000422,-0.00023839,0.00008135,0.00012426,0.00001890,0.00041843
 ,-0.00032270,-0.00032157,0.00008962,0.00071026,0.00544838,0.01056945,-
 0.01825473,0.03839779,0.10545202,0.00000049,0.00001375,-0.00002575,0.0
 0001342,-0.00000608,0.00004039,-0.00001109,0.00002905,-0.00003642,0.00
 002354,0.00001239,0.00002407,0.00002414,0.00000208,0.00004686,0.000014
 04,0.00000908,0.00003291,-0.00012881,0.00004475,-0.00010439,0.00003315
 ,-0.00016975,-0.00000053,0.00000535,0.00001452,-0.00000555,0.00005264,
 0.00001826,0.00002324,-0.00005354,-0.00008161,-0.00002910,0.00000546,0
 .00001813,-0.00001370,0.00002150,-0.00001231,0.00003295,-0.00006018,0.
 00000549,-0.00001958,-0.00001881,0.00011386,-0.00012571,-0.00031145,-0
 .00015100,-0.00023861,0.00015799,0.00048859,-0.00064714,-0.00025484,-0
 .00003417,0.00026192,0.00022729,-0.00007707,0.00011531,0.00063851,-0.0
 0074591,0.00254349,0.00888745,0.00887166,-0.01824977,0.00018037,-0.001
 09439,0.00174754,-0.00472277,0.00017857,-0.00122447,0.06608514,0.09975
 130,-0.23901174,-0.00018636,-0.00037087,0.00005805,0.00010318,0.000341
 69,0.00013537,0.00000400,-0.00000106,-0.00000165,0.00000709,-0.0000039
 3,-0.00000097,0.00000388,0.00000023,0.00000027,-0.00000298,-0.00000091
 ,0.00000305,-0.00000170,0.00000093,-0.00000111,0.00000649,0.00000092,-
 0.00000020,-0.00000822,0.00000550,-0.00000020,-0.00000304,-0.00000056,
 0.00000332,-0.00004548,-0.00015882,0.00052924,0.00012475,0.00010843,0.
 00016262,0.00050461,0.00100991,-0.00091879,0.00409041,0.00740033,-0.01
 291287,-0.07289077,-0.11146039,0.25855857,0.00002046,-0.00001674,-0.00
 002721,0.00001341,0.00000200,0.00002191,-0.00002128,0.00000637,0.00001
 962,-0.00002085,0.00000838,0.00000315,-0.00000674,0.00000312,0.0000093
 1,0.00001630,-0.00001065,-0.00001570,-0.00007121,0.00004545,-0.0000137
 5,0.00005169,-0.00004531,0.00001439,-0.00000472,-0.00000286,0.00000373
 ,-0.00009728,0.00001208,0.00003646,-0.00003342,-0.00005802,-0.00035732
 ,-0.00000436,0.00001808,0.00008093,-0.00008233,-0.00000106,0.00000260,
 0.00010669,-0.00000757,-0.00003261,-0.00034285,-0.00009930,0.00064044,
 0.00136505,-0.00027961,-0.00176668,-0.00035267,-0.00055583,0.00045118,
 0.00015946,0.00002905,-0.00011944,-0.00002969,0.00011437,0.00008475,-0
 .00692230,-0.00112145,-0.00345567,-0.01077638,-0.02337526,-0.00249384,
 0.00219655,0.00081074,0.00048878,0.00066734,-0.00030042,0.00090667,-0.
 11741589,-0.11041943,-0.03059080,-0.00003942,0.00001078,-0.00018152,0.
 00001340,0.00014845,-0.00010342,-0.00001003,0.00000073,0.00000006,-0.0
 0001347,0.00000569,0.00000165,-0.00000689,-0.00000170,0.00000012,0.000
 00278,-0.00000192,0.00000063,0.00000383,0.00000403,0.00000259,-0.00000
 796,0.00000294,0.00000326,0.00000727,-0.00000403,-0.00000472,0.0000004
 7,-0.00000205,0.00000353,0.00001852,0.00012885,0.00000080,0.00035557,0
 .00070409,-0.00048607,-0.00006526,0.00016400,0.00029954,0.01242254,0.0
 1744163,0.00389578,-0.00522984,-0.00706277,-0.00238884,0.12433873,0.00
 000503,-0.00000985,0.00000931,0.00001234,-0.00000318,-0.00000561,-0.00
 000526,-0.00001927,0.00001073,-0.00002014,-0.00001647,0.00000015,-0.00
 001059,0.00000121,-0.00003930,-0.00000429,-0.00000295,-0.00002011,0.00
 001310,-0.00001783,0.00003498,0.00002358,0.00002126,0.00000815,-0.0000
 0371,-0.00000552,0.00000497,-0.00007276,-0.00000432,0.00001801,0.00004
 986,0.00000768,-0.00007754,0.00001563,-0.00000435,0.00001821,-0.000041
 84,0.00000464,0.00000127,0.00007048,-0.00000893,-0.00001250,-0.0000253
 8,-0.00000294,0.00010616,0.00038459,0.00032639,-0.00015112,-0.00006097
 ,0.00004238,0.00014523,0.00006090,-0.00004265,-0.00006480,-0.00007915,
 0.00004158,0.00000528,0.00121108,0.00161112,0.00061116,0.00472407,0.00
 504959,0.00175596,-0.00066012,0.00088527,0.00038266,-0.00008706,-0.000
 32736,0.00003672,-0.11296053,-0.23477260,-0.05029609,-0.00001029,0.000
 06131,-0.00001627,-0.00004438,-0.00002449,-0.00003951,-0.00000578,-0.0
 0000182,-0.00000096,-0.00000820,0.00000614,0.00000194,-0.00000554,0.00
 000047,0.00000003,0.00000304,-0.00000093,-0.00000076,0.00000345,0.0000
 0293,0.00000304,-0.00000692,0.00000069,0.00000088,0.00000651,-0.000003
 90,-0.00000206,0.00000191,-0.00000093,0.00000076,-0.00013623,-0.000002
 07,0.00001926,0.00034283,0.00045072,0.00042669,0.00002216,0.00024125,-
 0.00016336,-0.01062695,-0.01564448,-0.00313936,-0.00562866,-0.01079249
 ,-0.00368695,0.12350975,0.25290367,0.00000133,-0.00000530,-0.00001727,
 0.00001519,-0.00000475,0.00001518,-0.00001804,0.00000368,-0.00000498,0
 .00000088,-0.00000113,0.00000301,0.00000603,0.00000465,0.00000429,0.00
 000099,0.00000246,0.00000268,-0.00003388,0.00003380,-0.00001336,0.0000
 2305,-0.00001448,0.00001047,-0.00000288,-0.00000141,0.00000147,-0.0000
 4544,0.00000477,0.00001717,-0.00006558,-0.00003598,-0.00026726,-0.0000
 0793,0.00002056,0.00006156,-0.00004879,-0.00000306,-0.00000449,0.00005
 615,0.00000050,-0.00001436,-0.00029270,-0.00004646,0.00057268,0.000399
 30,-0.00024476,-0.00159090,0.00020895,0.00011059,-0.00036850,0.0000415
 1,0.00011566,0.00015353,0.00008256,-0.00001253,0.00006093,-0.00559901,
 -0.00092514,0.00002822,-0.00518999,-0.01728794,-0.00328475,0.00096997,
 0.00048057,0.00006695,0.00038454,0.00002195,0.00047430,-0.03073324,-0.
 04809632,-0.06442588,0.00003611,0.00003833,-0.00012884,0.00001341,0.00
 006045,-0.00006305,-0.00000499,0.00000055,-0.00000014,-0.00000599,0.00
 000047,-0.00000015,-0.00000331,-0.00000127,0.00000035,0.00000089,-0.00
 000072,0.00000064,0.00000177,0.00000116,0.00000050,-0.00000402,0.00000
 182,0.00000154,0.00000235,-0.00000178,-0.00000079,0.00000048,0.0000004
 8,0.00000139,-0.00006818,-0.00007677,-0.00010399,-0.00032526,0.0007341
 0,-0.00064199,0.00012854,0.00007305,0.00022360,-0.00931372,-0.01266444
 ,-0.00412645,0.01428329,0.02362334,0.00852207,0.03514264,0.05419568,0.
 06458883,-0.00003656,0.00002076,0.00003380,-0.00003029,0.00001549,-0.0
 0005162,0.00003824,-0.00000790,-0.00002290,0.00001670,0.00000311,-0.00
 002349,-0.00000517,0.00000506,-0.00001276,-0.00002581,0.00000769,0.000
 01327,0.00013778,-0.00014824,0.00005714,-0.00011510,0.00001528,0.00002
 506,0.00006151,0.00006002,-0.00009702,0.00026248,0.00095104,-0.0026373
 9,-0.00511856,0.02217621,0.00428304,-0.06372530,0.06360386,0.00727829,
 -0.00110785,-0.03689214,0.00244088,-0.00184504,-0.00152204,-0.00417101
 ,-0.00008898,0.00090392,-0.00315366,-0.00018294,0.00005932,0.00078203,
 0.00005709,0.00013968,0.00036904,-0.00005672,-0.00028665,-0.00026117,0
 .00126007,0.00017484,0.00064579,-0.00066701,-0.00013357,-0.00016756,0.
 00008634,0.00037709,0.00011713,0.00003971,-0.00019478,-0.00011865,-0.0
 0001046,-0.00003923,-0.00001388,-0.00001487,-0.00006324,-0.00001060,0.
 00004206,-0.00023369,0.00067758,-0.00052869,-0.00021015,-0.00016282,0.
 00044411,-0.00035042,0.00125533,0.00023141,0.00050419,0.00039629,0.000
 05779,0.00010199,-0.00006705,-0.00026403,-0.00034109,0.00029191,-0.000
 00172,0.00017251,-0.00003411,-0.00003657,-0.00010574,-0.00001590,0.000
 01727,-0.00003331,0.00036891,-0.00010934,0.00010358,0.00003447,0.00000
 859,-0.00000132,-0.00000275,-0.00002337,-0.00001586,0.00000378,0.00001
 010,0.00004042,0.00000209,0.00001324,-0.00000035,0.00000220,0.00000138
 ,0.00000539,0.00000257,-0.00002494,-0.00000674,-0.00001857,0.07031609,
 -0.00002595,0.00000342,-0.00000310,0.00001306,-0.00000185,0.00000718,-
 0.00000439,-0.00000315,0.00001598,-0.00000523,0.00000037,0.00000056,-0
 .00000315,-0.00000126,0.00001019,0.00002600,-0.00000747,-0.00000810,0.
 00005698,0.00006481,-0.00004183,-0.00009551,0.00012642,0.00002054,-0.0
 0002731,0.00009500,-0.00004044,0.00092652,0.00010500,0.00044785,0.0037
 2518,-0.00810521,-0.00192252,0.06297073,-0.29416486,-0.02638324,-0.011
 41122,-0.01743689,0.00573084,-0.00062151,-0.00089469,-0.00467010,0.000
 11777,-0.00042987,0.00136276,-0.00012062,-0.00005793,-0.00051097,-0.00
 011053,-0.00002955,-0.00026744,-0.00009749,0.00043589,0.00027208,-0.00
 230203,0.00117637,-0.00194136,0.00032062,0.00011920,0.00013533,-0.0000
 4223,-0.00023642,-0.00007199,-0.00005149,0.00011076,0.00008229,0.00000
 317,0.00002845,0.00000183,0.00000685,0.00004073,0.00000475,0.00009793,
 0.00042197,-0.00007572,-0.00010184,0.00001670,0.00011456,0.00003631,-0
 .00020178,0.00104619,-0.00010109,-0.00051767,0.00016607,-0.00001398,0.
 00000328,-0.00004398,-0.00021351,-0.00027085,0.00014538,0.00003534,0.0
 0022487,-0.00000955,0.00003964,0.00001746,-0.00002827,0.00019870,0.000
 55856,0.00031964,0.00005909,0.00038266,0.00022713,-0.00000531,0.000000
 35,0.00000354,0.00001694,0.00001030,-0.00000031,-0.00001042,-0.0000294
 6,0.00000183,-0.00000926,-0.00000065,0.00000007,0.00000001,-0.00000417
 ,-0.00000332,0.00001621,0.00000505,0.00001025,-0.05641753,0.32319300,0
 .00002745,0.00000262,-0.00001464,0.00001890,-0.00001229,0.00001590,-0.
 00001041,-0.00000132,0.00001942,-0.00000929,-0.00000028,0.00000861,0.0
 0000113,-0.00000538,0.00001151,0.00001811,-0.00000504,0.00000558,0.000
 03139,0.00012029,0.00002108,-0.00006784,0.00014502,-0.00018598,-0.0002
 4292,0.00005852,0.00007169,0.00013822,0.00072257,-0.00274435,-0.008760
 77,0.02082491,0.00204875,0.01046578,-0.03169073,-0.05783380,-0.0014679
 0,0.01139824,0.00355960,-0.00089964,0.00181413,0.00111696,-0.00053857,
 -0.00010304,-0.00322661,-0.00026215,0.00014262,0.00059151,0.00000261,0
 .00000600,0.00033378,-0.00020934,0.00004939,-0.00027962,0.00085418,0.0
 0071267,0.00114002,-0.00039623,-0.00003250,-0.00011132,-0.00002538,0.0
 0018155,0.00009339,0.00006502,-0.00008219,-0.00010243,0.00000522,-0.00
 001418,-0.00001666,-0.00000183,-0.00003877,-0.00000992,-0.00015170,-0.
 00007599,0.00049083,0.00089318,-0.00037906,0.00037166,0.00016412,0.000
 00885,-0.00059425,0.00032007,-0.00031498,0.00001548,0.00003335,0.00002
 731,0.00001871,0.00010326,0.00011704,-0.00008378,-0.00003250,-0.000088
 99,-0.00000398,-0.00000035,-0.00003729,-0.00004620,0.00040635,-0.00000
 151,-0.00089271,-0.00010291,-0.00010572,0.00020312,0.00000137,0.000001
 98,-0.00000672,-0.00000066,-0.00000314,0.00000877,-0.00000161,-0.00000
 553,0.00000457,0.00000991,-0.00000293,0.00000189,-0.00000287,0.0000062
 6,-0.00000576,-0.00000995,0.00000055,-0.00000944,-0.00815438,0.0267340
 6,0.05620876,0.00008348,0.00001009,-0.00008623,0.00006888,-0.00004338,
 0.00013129,-0.00008445,0.00002628,0.00004964,-0.00004206,-0.00000273,0
 .00005389,0.00000886,-0.00001657,0.00004083,0.00008561,-0.00001954,-0.
 00000193,-0.00066090,0.00019776,-0.00025842,0.00042490,-0.00052371,0.0
 0015323,0.00027012,-0.00008320,-0.00004511,0.00054291,0.00303736,-0.00
 233807,0.01186234,-0.00816328,-0.01751075,-0.06404219,0.01963690,0.059
 82703,-0.01155322,-0.00535646,0.03148736,-0.00718762,0.00127425,-0.002
 35330,-0.00035053,-0.00007992,-0.00071627,-0.00004166,-0.00029464,-0.0
 0005117,0.00015114,-0.00006747,-0.00024238,-0.00017817,-0.00101094,0.0
 0025087,-0.00361924,0.00039815,-0.00335711,0.00013135,0.00017146,0.000
 09682,-0.00000607,-0.00020979,-0.00017224,-0.00012251,0.00011596,0.000
 15804,-0.00000850,0.00004488,0.00000380,-0.00000924,0.00002814,0.00001
 632,-0.00154292,-0.00056910,0.00009628,-0.00017025,0.00190549,0.000252
 58,0.00037544,0.00000097,0.00061190,0.00046849,-0.00046186,0.00065140,
 0.00003856,0.00007881,0.00001233,-0.00008456,-0.00026394,0.00000936,0.
 00000805,-0.00004224,-0.00003126,0.00007534,-0.00007874,-0.00005770,-0
 .00009768,0.00016024,0.00005973,0.00002350,0.00026034,0.00024521,-0.00
 000713,-0.00000495,0.00001098,0.00002189,0.00001006,0.00000567,-0.0000
 3429,-0.00005217,0.00000611,-0.00001657,0.00000215,0.00000071,0.000006
 08,-0.00001157,0.00000389,0.00001072,0.00000497,0.00000617,0.00090462,
 0.00323386,0.00724805,0.07494446,-0.00004779,0.00002135,0.00002582,-0.
 00004741,0.00002154,-0.00003552,0.00003095,0.00000255,-0.00003484,0.00
 001536,0.00000319,-0.00002113,-0.00000792,0.00000800,-0.00001486,-0.00
 002179,0.00000702,0.00000705,-0.00020311,-0.00027660,-0.00005205,0.000
 17135,-0.00058183,0.00034793,0.00033984,-0.00042753,-0.00008574,0.0006
 2040,-0.00122473,0.00059083,-0.00239355,0.00227050,0.00816677,0.020517
 98,-0.06814752,-0.06907672,-0.01010948,0.00110723,0.02568913,-0.003854
 30,-0.00047594,0.00027603,0.00026149,0.00088329,-0.00019410,-0.0000401
 8,-0.00028690,0.00020037,-0.00005584,0.00006524,-0.00011885,-0.0001961
 2,0.00042559,0.00029052,0.00022289,0.00007380,0.00018417,-0.00024159,-
 0.00001014,-0.00002026,0.00011031,0.00010880,-0.00001784,-0.00005096,-
 0.00005242,0.00000085,-0.00001328,-0.00001115,0.00000912,-0.00001265,-
 0.00001281,0.00000283,0.00042706,-0.00064477,0.00025365,0.00027633,0.0
 0062832,-0.00011631,0.00022965,0.00003996,0.00080024,0.00005498,-0.000
 67540,0.00052559,0.00000809,0.00001906,-0.00002836,-0.00011134,-0.0002
 8523,0.00001591,0.00000126,-0.00004296,-0.00004567,0.00004601,0.000001
 04,-0.00004020,0.00008352,0.00020122,0.00018259,0.00000845,0.00035449,
 0.00024829,-0.00000063,0.00000043,0.00000215,-0.00000773,-0.00000786,-
 0.00000084,0.00000206,0.00001552,-0.00001441,0.00000016,0.00000293,0.0
 0000041,0.00000446,-0.00000186,0.00000682,-0.00000941,-0.00000536,-0.0
 0000658,0.00774114,-0.00485730,-0.02991822,-0.01327072,0.07217676,0.00
 007617,0.00000003,-0.00005405,0.00005705,-0.00002146,0.00007349,-0.000
 05453,0.00000998,0.00004953,-0.00003044,-0.00000303,0.00003947,0.00001
 168,-0.00001510,0.00003498,0.00006058,-0.00000988,-0.00000104,-0.00031
 460,0.00020970,-0.00011538,0.00010432,-0.00008786,-0.00014091,-0.00034
 294,-0.00009453,0.00008975,0.00015806,0.00148583,-0.00088838,0.0041769
 8,-0.00551589,-0.01445722,0.06261913,-0.06034020,-0.29984460,0.0052550
 0,0.00487599,-0.00227999,0.00006862,-0.00067839,0.00059666,0.00070969,
 -0.00015408,-0.00238744,-0.00001560,-0.00004353,-0.00000617,0.00019597
 ,-0.00003240,-0.00017453,0.00011003,-0.00062019,0.00028709,-0.00237989
 ,0.00057797,-0.00244191,-0.00001799,0.00005813,0.00018942,0.00001799,-
 0.00012980,-0.00013349,-0.00013315,0.00007652,0.00015708,-0.00001357,0
 .00003381,-0.00000914,-0.00001063,0.00001771,0.00001217,0.00182227,-0.
 00148825,0.00105116,0.00181623,0.00057357,0.00091723,0.00003192,-0.000
 03072,-0.00021002,-0.00001418,-0.00002422,-0.00002030,0.00000646,0.000
 01722,0.00001869,0.00003537,0.00006670,0.00000681,0.00001389,0.0000340
 0,0.00001429,0.00001323,0.00001998,0.00000372,-0.00003920,0.00003192,-
 0.00002863,0.00000060,-0.00006380,-0.00005451,-0.00000265,-0.00000467,
 0.00001194,0.00001437,0.00000401,0.00000507,-0.00002207,-0.00003483,0.
 00001216,-0.00001397,0.00000291,0.00000102,0.00000644,-0.00000987,0.00
 000522,0.00000479,0.00000273,0.00000178,-0.00012210,-0.00088832,-0.000
 37843,-0.07399833,0.06221335,0.32028018,0.00032601,0.00001243,-0.00006
 936,0.00001977,-0.00029710,-0.00035897,-0.00013349,0.00005945,0.000145
 80,-0.00009156,0.00000514,-0.00011505,-0.00029404,0.00006699,0.0001260
 2,0.00025413,-0.00017945,0.00005540,-0.00052886,-0.00047206,0.00000619
 ,0.00037355,-0.00099473,-0.00023668,-0.00008232,0.00005099,0.00004395,
 -0.00105369,-0.00010192,0.00026764,0.00099706,-0.00010584,0.00025559,-
 0.00001484,-0.00003968,-0.00016402,0.00012244,-0.00002559,0.00021611,-
 0.00046468,-0.00008679,0.00003458,0.00918153,0.01827537,-0.00692614,-0
 .05679160,-0.03852538,0.01580882,0.00074217,-0.00208326,-0.00196724,-0
 .00037392,-0.00031274,-0.00063822,-0.00027613,0.00003662,0.00026296,-0
 .02235673,-0.03055471,0.01156169,-0.00142695,0.00119572,0.00633485,0.0
 0059817,0.00046277,0.00075038,-0.00088499,-0.00186790,-0.00087643,0.00
 000138,-0.00041490,0.00007940,-0.00343748,0.00088272,-0.00469665,0.001
 45499,0.00102708,0.00112398,-0.00000016,-0.00000871,-0.00001143,0.0000
 5021,0.00000480,0.00000359,0.00000666,-0.00000061,0.00000467,-0.000011
 12,-0.00000551,0.00001056,-0.00000260,0.00000424,0.00000110,0.00001154
 ,-0.00000771,-0.00000986,0.00000141,0.00000382,-0.00000002,-0.00000630
 ,-0.00000155,0.00000824,0.00004148,0.00009720,-0.00006485,-0.00024794,
 -0.00042571,0.00064081,-0.00008724,-0.00001176,-0.00003417,0.00000793,
 0.00000223,0.00001061,-0.00003449,0.00006391,-0.00015262,-0.00017031,0
 .00009117,-0.00014909,0.00002251,-0.00001156,0.00002768,0.00006264,-0.
 00000219,0.00004604,0.07463917,-0.00045962,-0.00039370,0.00015775,-0.0
 0055409,-0.00158386,-0.00197695,0.00003620,-0.00005728,-0.00001977,0.0
 0000647,0.00012579,-0.00018976,-0.00035936,0.00002274,0.00016574,0.000
 33432,-0.00072478,0.00035994,0.00035359,-0.00083600,0.00014179,0.00006
 570,0.00037089,0.00001473,0.00000786,-0.00000667,-0.00002731,-0.001093
 81,0.00034891,-0.00038464,0.00023154,-0.00123496,0.00109019,-0.0000622
 2,-0.00009136,-0.00003401,-0.00009046,0.00019679,-0.00034530,0.0007557
 1,0.00012958,0.00014042,-0.00167337,-0.00567377,0.00096963,-0.04729621
 ,-0.26745437,0.09228512,-0.00336468,-0.01541565,0.01007508,-0.00052541
 ,-0.00042218,-0.00018087,0.00009438,0.00030935,-0.00009427,-0.00126431
 ,0.00789710,-0.00195371,0.00220540,-0.00079084,-0.00079640,-0.00257787
 ,-0.00249134,-0.00187678,-0.00025639,-0.00019459,0.00014485,-0.0000626
 8,0.00016581,0.00016964,0.00075951,0.00048498,0.00143523,-0.00019050,-
 0.00011066,0.00021850,-0.00002684,0.00003693,0.00001207,-0.00014020,-0
 .00002134,-0.00002509,-0.00002512,-0.00001842,-0.00000452,0.00001977,0
 .00001089,-0.00000982,0.00000715,-0.00000753,-0.00000665,-0.00003472,0
 .00004038,0.00002978,0.00000224,0.00000290,-0.00000007,0.00001301,-0.0
 0000435,-0.00001176,-0.00001539,-0.00000176,0.00006210,-0.00004865,0.0
 0008387,0.00002191,-0.00003414,0.00004975,-0.00006912,-0.00004472,0.00
 004847,-0.00003230,-0.00001576,-0.00000136,-0.00003779,0.00004060,-0.0
 0001959,-0.00002758,0.00000071,0.00001894,-0.00000172,-0.00006799,0.00
 002046,-0.00002376,0.05477031,0.28591288,0.00001308,-0.00015552,0.0002
 2532,0.00007756,-0.00020983,0.00040032,0.00045095,0.00001058,0.0000999
 6,-0.00004266,-0.00001179,-0.00009465,-0.00017656,-0.00000054,0.000069
 20,0.00013258,0.00014253,-0.00002467,-0.00148419,-0.00021483,-0.000817
 88,0.00023224,-0.00159931,-0.00019021,-0.00004880,0.00011349,0.0000224
 1,0.00015488,-0.00028097,0.00026688,-0.00061292,-0.00017947,-0.0008695
 9,-0.00007733,0.00012181,0.00011288,-0.00002263,-0.00009277,0.00015999
 ,-0.00026755,-0.00008179,-0.00006885,0.00343224,0.02211204,-0.00679316
 ,0.01660694,0.09140549,-0.08805408,-0.00530543,-0.01952276,0.01141551,
 0.00009574,0.00010643,-0.00031885,0.00013134,-0.00029307,-0.00022749,0
 .01298606,0.01116894,-0.00251779,0.00060077,-0.00361262,-0.00418296,-0
 .00419025,-0.00522502,-0.00119079,0.00014290,0.00080124,0.00033542,-0.
 00007098,0.00012744,0.00011957,-0.00363977,0.00097400,-0.00561362,0.00
 226615,0.00254993,0.00198123,-0.00000395,-0.00000032,0.00002086,0.0000
 5296,-0.00000233,0.00002554,0.00000468,-0.00000331,-0.00000411,-0.0000
 0240,-0.00000098,0.00000371,-0.00000700,-0.00000204,-0.00000909,0.0000
 0881,-0.00000715,-0.00001085,-0.00000825,-0.00000047,-0.00000702,-0.00
 000290,-0.00000090,0.00000294,-0.00005085,-0.00003661,0.00008849,0.000
 13612,0.00022201,-0.00018734,0.00002226,-0.00005442,0.00001209,-0.0000
 8666,0.00004260,-0.00002905,-0.00000924,-0.00003936,-0.00002811,0.0000
 7529,0.00000579,0.00003202,-0.00003984,0.00001389,-0.00003598,0.000082
 44,0.00001577,0.00000250,-0.02135378,-0.09870382,0.09498252,0.00000888
 ,-0.00000103,-0.00002741,0.00003627,-0.00002184,0.00003594,-0.00005271
 ,0.00001501,0.00003148,-0.00000953,-0.00000405,0.00003689,0.00003337,-
 0.00000886,0.00003048,0.00005095,0.00001506,-0.00001607,-0.00019718,0.
 00013143,-0.00010237,0.00004575,-0.00013314,0.00000190,-0.00001183,0.0
 0001617,0.00000378,-0.00039534,-0.00062133,0.00018568,0.00131521,0.002
 02784,0.00113705,0.00015633,-0.00008911,-0.00015468,-0.00022090,-0.000
 12836,0.00003011,0.00032048,0.00005481,-0.00008960,0.00054989,-0.00087
 118,0.00091808,-0.00208070,0.00094441,-0.00303687,-0.09333154,0.042093
 69,-0.08224155,-0.01038163,0.00818143,-0.02440007,-0.00663766,0.003814
 83,-0.00001099,0.00139677,0.00093776,-0.00012026,0.00277128,-0.0028004
 4,0.00015467,0.00512741,-0.01659234,0.02648404,-0.00055859,0.00045689,
 0.00015049,-0.00046432,-0.00018017,-0.00054825,0.00005774,-0.00001625,
 -0.00039826,0.00023355,0.00009734,-0.00047837,-0.00003808,0.00001092,-
 0.00001747,-0.00005801,0.00010079,-0.00001286,-0.00001716,-0.00001623,
 0.00000622,-0.00000478,-0.00001184,0.00001477,0.00000150,-0.00000702,-
 0.00000458,-0.00004686,-0.00002742,0.00001979,0.00009590,-0.00007563,-
 0.00004546,-0.00001273,-0.00002030,0.00002926,-0.00022686,0.00000517,0
 .00025041,0.00006822,0.00002889,-0.00006415,-0.00002854,-0.00001231,-0
 .00013188,0.00019957,0.00009876,-0.00019748,-0.00115148,0.00015431,0.0
 0003600,0.00002704,-0.00002008,0.00014114,0.00007175,-0.00007355,0.000
 09273,-0.00010568,-0.00004007,-0.00005127,0.00013691,-0.00018539,-0.00
 018328,0.10305818,0.00001615,-0.00000213,-0.00003613,0.00003630,-0.000
 02168,0.00004282,-0.00004593,0.00001141,0.00001770,-0.00000232,-0.0000
 0057,0.00002749,0.00002208,-0.00001295,0.00001169,0.00001790,0.0000008
 1,0.00001063,-0.00013320,0.00018410,-0.00004422,0.00008589,0.00004651,
 -0.00003607,-0.00002059,-0.00004027,0.00000181,0.00006725,0.00034119,-
 0.00000953,-0.00020536,-0.00128520,-0.00088441,-0.00010163,0.00007062,
 0.00018658,0.00002396,0.00007092,-0.00001128,-0.00003573,-0.00004312,0
 .00001645,0.00276858,-0.00327586,-0.00075438,-0.01313527,0.00761576,-0
 .02223334,0.04307519,-0.08415277,0.07120311,0.00697470,-0.00351747,0.0
 1499696,0.00388988,-0.00075699,-0.00025706,-0.00013050,0.00147981,0.00
 152339,0.00302941,-0.00367097,-0.00157021,-0.00553080,-0.01545348,0.02
 718643,-0.00065288,0.00069656,0.00033919,-0.00020350,0.00051289,0.0007
 0256,-0.00027182,0.00058704,-0.00085299,-0.00101164,-0.00025702,-0.001
 81050,0.00000622,-0.00000566,0.00000031,0.00001557,-0.00004808,-0.0000
 0195,0.00000157,0.00000421,-0.00000030,0.00000144,0.00000329,-0.000002
 59,0.00000382,0.00000919,0.00000408,0.00001486,0.00001894,-0.00000541,
 -0.00004032,0.00003388,0.00002795,0.00000814,0.00001502,-0.00000936,-0
 .00022499,-0.00006482,0.00034425,0.00009903,0.00002370,-0.00007759,-0.
 00004483,-0.00004452,-0.00019104,-0.00031244,0.00011831,-0.00024873,0.
 00008896,0.00041621,-0.00028841,0.00008789,-0.00000559,-0.00009041,-0.
 00008054,0.00006326,-0.00005159,0.00009161,0.00000395,0.00005316,-0.00
 020382,0.00148360,0.00059701,-0.03699982,0.09787701,0.00004964,-0.0000
 0715,-0.00010138,0.00008454,-0.00004170,0.00012040,-0.00011490,0.00003
 252,0.00004021,-0.00001457,-0.00000457,0.00007052,0.00006331,-0.000010
 20,0.00006741,0.00008869,0.00002101,-0.00000266,-0.00049585,0.00030394
 ,-0.00021402,0.00025173,-0.00034386,-0.00002251,-0.00002752,-0.0000136
 3,0.00000822,-0.00009998,0.00010251,0.00021722,0.00048163,-0.00049423,
 -0.00084945,0.00006702,0.00012974,0.00013762,-0.00008685,-0.00001562,0
 .00013086,0.00004416,-0.00002171,-0.00011154,0.00317000,-0.00393546,0.
 00141779,-0.01382221,0.00672743,-0.02058820,-0.08237903,0.07017290,-0.
 21162785,0.00300626,-0.00224575,0.00478932,0.00167900,-0.00092171,0.00
 176978,-0.00020439,-0.00086284,0.00170767,-0.00321029,0.00367056,0.001
 43010,0.01039284,0.01548821,-0.01245087,0.00067436,-0.00034472,-0.0001
 0898,0.00029573,-0.00002526,-0.00110845,-0.00042295,-0.00020865,-0.000
 82118,-0.00080825,0.00058439,-0.00190773,-0.00001350,-0.00000461,-0.00
 002128,-0.00000644,0.00001437,-0.00001200,-0.00000591,-0.00000250,0.00
 000571,-0.00000595,-0.00001031,0.00001231,0.00000736,0.00001449,0.0000
 0803,0.00000026,0.00000769,0.00001083,-0.00000104,0.00000503,-0.000006
 15,-0.00001234,-0.00000484,0.00002158,0.00016211,0.00007622,-0.0002676
 4,-0.00006154,0.00000039,0.00004629,-0.00001544,-0.00009093,0.00020864
 ,0.00019478,-0.00026212,0.00037381,0.00017963,-0.00040565,0.00074117,-
 0.00016911,-0.00011199,0.00020297,-0.00006452,0.00004247,-0.00003112,0
 .00005238,-0.00001039,0.00005283,0.00007930,-0.00013957,0.00113916,0.0
 8214932,-0.08702522,0.23447390,-0.00001596,-0.00000162,-0.00000198,-0.
 00000133,0.00000110,0.00000746,0.00001441,-0.00000023,0.00000362,0.000
 00354,0.00000609,-0.00000783,-0.00001163,0.00000130,0.00000274,0.00000
 082,-0.00001381,0.00001307,-0.00001424,0.00001733,-0.00000078,-0.00002
 520,0.00001850,0.00001710,-0.00000532,0.00000612,0.00000031,-0.0018853
 1,-0.00095859,0.00001014,0.00208500,0.00323312,0.00100303,-0.00003845,
 0.00000817,0.00021475,-0.00027717,-0.00008719,-0.00001159,0.00038547,-
 0.00026264,-0.00043820,-0.00070567,-0.00004605,-0.00014142,-0.00026430
 ,0.00000912,-0.00019994,-0.01207124,-0.01828761,0.01698274,-0.11772416
 ,-0.07202174,0.08911146,0.00851187,0.01340554,-0.02564109,0.00018918,0
 .00042745,0.00002054,-0.00017230,-0.00207912,-0.00058561,-0.00543708,0
 .00481935,0.00321693,-0.00032555,0.00043021,0.00018272,-0.00018932,0.0
 0025476,0.00033362,0.00014280,-0.00004858,-0.00002542,0.00029023,-0.00
 015757,-0.00008139,-0.00005296,0.00003662,0.00003134,-0.00002097,-0.00
 008667,-0.00005702,-0.00001393,-0.00002112,-0.00000865,0.00000515,-0.0
 0001074,-0.00000134,0.00000666,0.00001952,0.00000633,0.00003757,0.0000
 8717,0.00008151,0.00012672,0.00009658,-0.00013391,-0.00024156,-0.00008
 104,0.00013469,-0.00006415,-0.00008816,0.00019259,0.00002751,0.0000027
 3,-0.00003406,-0.00001952,-0.00003912,-0.00001024,-0.00016689,0.000053
 45,-0.00008690,0.00000599,-0.00000211,-0.00004019,0.00002047,-0.000012
 37,-0.00000072,0.00010810,-0.00006050,0.00007824,0.00000307,-0.0000171
 3,-0.00001063,0.00003441,0.00038071,0.00025214,-0.00015080,-0.00028374
 ,-0.00050704,0.12962020,0.00000854,0.00000322,0.00001443,-0.00001966,0
 .00000684,-0.00003021,0.00001528,-0.00000346,-0.00001903,0.00000942,0.
 00000033,-0.00001140,0.00000065,0.00000214,-0.00001683,-0.00003659,0.0
 0000606,0.00001439,0.00013563,-0.00004738,0.00006606,-0.00003696,0.000
 13540,-0.00001774,-0.00000103,-0.00001586,-0.00000229,-0.00020718,0.00
 057305,-0.00148713,-0.00034137,-0.00227980,-0.00184993,-0.00021478,-0.
 00001402,0.00015099,0.00023799,0.00000293,-0.00012132,-0.00082317,0.00
 038443,0.00031718,0.00059728,-0.00017350,-0.00025072,-0.00040499,-0.00
 002285,0.00010338,0.00858406,0.00941121,-0.01024035,-0.07212784,-0.132
 68733,0.09057479,0.00415907,0.00111994,0.01015033,-0.00026874,-0.00000
 311,0.00017400,0.00059102,0.00105624,-0.00010316,0.00301390,-0.0014354
 0,-0.00150093,0.00016603,-0.00024501,-0.00010075,0.00002294,-0.0000741
 6,-0.00010198,-0.00009811,0.00031353,0.00016093,-0.00032133,-0.0001418
 9,0.00012967,0.00017090,-0.00008416,-0.00005545,0.00001304,-0.00012903
 ,0.00000720,0.00005896,0.00004329,-0.00000106,-0.00001603,0.00001927,-
 0.00000458,-0.00001597,-0.00004364,-0.00001289,-0.00000467,-0.00007151
 ,-0.00012332,-0.00005253,-0.00004250,0.00017296,0.00012329,0.00020277,
 -0.00014700,0.00002692,0.00005185,-0.00010017,0.00000270,-0.00000794,0
 .00001947,0.00001096,0.00000867,-0.00001230,0.00005908,-0.00001859,0.0
 0002074,0.00000057,0.00000844,0.00001122,-0.00000974,-0.00000236,-0.00
 000268,-0.00005720,0.00002106,-0.00003579,0.00009074,-0.00000029,0.000
 06196,0.00007044,-0.00014819,-0.00014864,-0.00070958,0.00105685,0.0001
 2624,0.07346103,0.13756879,0.00006563,-0.00000019,-0.00002516,0.000028
 24,0.00000235,0.00003073,-0.00004393,0.00001038,0.00002856,-0.00002235
 ,-0.00000476,0.00003535,0.00002325,-0.00001312,0.00002534,0.00003751,0
 .00000749,-0.00000578,-0.00029020,0.00006977,-0.00008382,0.00013725,-0
 .00026220,-0.00002530,-0.00002920,0.00001030,0.00001722,-0.00050066,-0
 .00206924,0.00291129,0.00385847,0.00863916,0.00047240,0.00024885,0.000
 10267,0.00010693,-0.00015932,-0.00056367,0.00054214,-0.00078946,0.0000
 5828,-0.00051625,-0.00050261,-0.00020176,0.00033580,-0.00036353,0.0005
 6541,-0.00012192,0.00527082,0.00704605,-0.00543300,0.08791782,0.085681
 08,-0.15663697,-0.00409706,0.01520023,-0.03531707,0.00016728,-0.000058
 31,0.00008536,0.00010742,0.00043704,0.00045656,0.00141657,-0.00149869,
 0.00027286,0.00000154,-0.00006273,-0.00002250,0.00005720,-0.00006335,-
 0.00013481,-0.00018673,-0.00054012,-0.00003799,0.00058218,0.00023339,-
 0.00042735,-0.00000835,-0.00000168,0.00000441,0.00002530,0.00017403,-0
 .00009294,0.00000196,0.00000698,0.00000242,-0.00002438,-0.00004017,0.0
 0002743,0.00000639,0.00002308,0.00001318,0.00003112,-0.00003582,0.0000
 9102,0.00008208,-0.00001074,-0.00012666,-0.00009596,-0.00010310,0.0002
 0885,-0.00000393,0.00001803,-0.00001601,0.00000003,0.00000062,0.000008
 23,-0.00001086,0.00000536,0.00000296,0.00003471,-0.00001968,0.00004445
 ,-0.00001598,-0.00001416,0.00002395,0.00000152,0.00000735,-0.00000475,
 0.00017106,-0.00018201,0.00017158,-0.00005538,-0.00006820,-0.00002888,
 0.00007333,-0.00034874,-0.00009426,-0.00035543,-0.00064736,0.00122546,
 -0.08710729,-0.10552450,0.18131276,-0.00002907,0.00002022,0.00000225,0
 .00001264,0.00000162,0.00001161,0.00001023,0.00000091,0.00000741,0.000
 00198,-0.00000018,0.00000245,0.00000455,-0.00000597,0.00001719,0.00002
 735,-0.00000131,0.00001524,-0.00004310,0.00003933,-0.00006579,-0.00003
 623,-0.00003416,0.00001533,-0.00000118,0.00002570,-0.00000359,-0.00020
 410,-0.00028031,-0.00009830,-0.00180203,0.00244036,-0.00146945,0.00034
 444,-0.00084508,-0.00044523,-0.00043173,0.00001015,-0.00003361,0.00071
 090,-0.00002002,-0.00017546,-0.00123911,0.00014161,-0.00037106,-0.0044
 8923,-0.00064786,-0.00158051,0.00597470,0.02870157,0.01440163,-0.05745
 178,-0.04302153,-0.01526813,-0.00848123,-0.01963158,-0.01697156,-0.001
 70925,0.00073921,0.00235955,0.00046382,0.00130781,0.00033142,0.0028679
 4,-0.00105292,-0.00168113,0.00001865,-0.00011171,-0.00007699,0.0000385
 4,-0.00016219,-0.00013776,0.00024998,-0.00015913,0.00011308,0.00045066
 ,-0.00008685,0.00005754,-0.00006498,0.00003972,0.00004706,-0.00011239,
 -0.00000342,0.00009104,-0.00002733,-0.00002427,-0.00000472,0.00000869,
 -0.00000524,0.00000308,0.00000383,0.00001290,-0.00000527,-0.00002839,0
 .00003256,0.00000262,-0.00000036,-0.00006269,-0.00009076,0.00001001,-0
 .00002751,-0.00000670,0.00003448,0.00002454,-0.00004470,-0.00004062,-0
 .00005394,0.00004630,-0.00000282,0.00001695,0.00000584,0.00007317,-0.0
 0003167,0.00003449,0.00001922,0.00000876,0.00003539,-0.00008569,-0.000
 01599,-0.00002467,0.00000129,0.00003213,0.00003258,-0.00024627,0.00006
 705,-0.00015324,0.00011388,0.00020840,0.00004724,0.00042935,-0.0007496
 2,-0.00057608,-0.00175647,-0.01582720,-0.00564119,0.06639358,0.0000030
 5,-0.00002242,-0.00001772,0.00000796,-0.00000911,0.00001976,-0.0000182
 5,-0.00000049,0.00001079,-0.00000836,0.00000043,0.00000364,-0.00001083
 ,0.00000476,-0.00000336,0.00000901,-0.00001041,-0.00002245,-0.00005982
 ,0.00001950,-0.00000139,0.00004565,-0.00004331,0.00001727,0.00000049,-
 0.00000333,0.00000122,-0.00031074,0.00029144,-0.00060443,0.00084012,0.
 00072789,0.00222603,0.00000603,0.00019121,0.00021264,-0.00016937,0.000
 06701,-0.00006174,0.00040847,-0.00004177,-0.00007375,0.00049809,-0.000
 00864,0.00060569,0.00170350,0.00084475,0.00190647,-0.00280772,-0.01407
 175,-0.00643082,-0.04811401,-0.27815635,-0.09418712,0.00138970,0.01009
 008,0.00305691,0.00083136,0.00015010,-0.00084188,-0.00023807,-0.000823
 59,-0.00035757,-0.00107328,0.00210707,0.00131849,-0.00001950,0.0000613
 7,0.00006369,-0.00000734,0.00011701,0.00008139,-0.00008033,0.00003710,
 -0.00020436,-0.00011093,0.00011731,-0.00015216,-0.00002406,0.00001529,
 0.00001317,-0.00007285,0.00001044,0.00005537,-0.00001532,-0.00000639,-
 0.00000486,0.00001164,0.00000225,-0.00000458,0.00000504,0.00000922,0.0
 0000405,-0.00001909,0.00001854,-0.00000174,0.00002510,-0.00001115,-0.0
 0004591,0.00001415,-0.00002444,-0.00001692,-0.00001737,-0.00001249,0.0
 0001470,0.00002794,0.00003937,-0.00002123,-0.00000573,-0.00002516,-0.0
 0000357,-0.00004082,0.00001526,-0.00000624,-0.00002233,-0.00002509,-0.
 00002192,0.00006443,0.00001803,0.00000706,0.00000161,-0.00001608,-0.00
 002702,0.00005048,-0.00002117,0.00003797,-0.00006529,-0.00005486,0.000
 00501,0.00049701,-0.00004593,0.00013622,-0.00211774,-0.01424898,-0.005
 89908,0.04895627,0.29269319,0.00001273,0.00000206,-0.00001049,0.000015
 87,-0.00000265,0.00001604,-0.00001938,0.00000464,0.00001729,-0.0000094
 5,-0.00000033,0.00001520,0.00000986,-0.00000558,0.00001490,0.00002344,
 0.00000089,-0.00000484,-0.00008217,0.00007092,-0.00005481,0.00000978,-
 0.00003597,0.00000832,-0.00001369,0.00001841,0.00000321,0.00003303,-0.
 00073744,0.00130914,-0.00217479,0.00475688,-0.00260381,0.00042652,-0.0
 0115998,-0.00056510,-0.00041517,-0.00016935,0.00012023,0.00017578,0.00
 006689,-0.00021480,-0.00085167,0.00017130,0.00070528,0.00089680,-0.000
 32762,0.00062787,0.00136666,-0.01019674,-0.00287648,-0.01539835,-0.083
 52955,-0.08276983,-0.01410380,-0.02767186,-0.02258998,0.00060727,0.000
 21863,-0.00030584,0.00021918,-0.00079553,-0.00042477,-0.00188642,0.000
 47804,0.00081785,-0.00006534,0.00010360,0.00003214,-0.00005817,0.00008
 174,0.00009131,0.00011759,-0.00001375,-0.00019577,0.00040539,-0.000096
 33,-0.00022328,-0.00004500,0.00001381,0.00001539,-0.00001022,0.0000284
 1,-0.00002205,-0.00001330,-0.00001522,0.00000496,-0.00000989,-0.000023
 22,0.00001609,0.00000375,0.00000861,-0.00000050,-0.00000896,-0.0000044
 4,0.00003146,0.00004274,-0.00003454,-0.00003029,-0.00004067,0.00000111
 ,0.00006013,-0.00003406,0.00000394,0.00005074,0.00004854,0.00001759,-0
 .00001308,-0.00001915,-0.00004538,-0.00002222,-0.00005780,0.00002867,-
 0.00002263,-0.00000502,0.00000660,-0.00002636,0.00003057,0.00000505,0.
 00000956,-0.00003055,0.00003048,0.00007045,-0.00029109,0.00006355,-0.0
 0018692,-0.00001106,-0.00017239,-0.00013469,0.00073342,-0.00012411,-0.
 00017605,0.00324347,0.01975625,0.01071516,0.02722239,0.09921697,0.0987
 1029,-0.00005720,0.00001388,0.00000896,-0.00083856,-0.00019261,0.00021
 564,-0.00003970,0.00008275,-0.00024314,-0.00009901,0.00003808,0.000053
 22,0.00001223,-0.00001832,0.00002796,0.00005031,0.00001002,-0.00004528
 ,-0.00079070,0.00158638,-0.00390653,-0.01491298,0.01319359,0.00080282,
 -0.14775710,0.13027979,0.01952678,-0.00005678,-0.00009379,0.00014518,-
 0.00025071,-0.00001803,-0.00034989,0.00048106,0.00001183,-0.00071981,-
 0.00051640,0.00034607,0.00027979,0.00016889,-0.00014561,-0.00022995,-0
 .00029890,-0.00067153,0.00022419,-0.00001368,0.00013036,-0.00001573,-0
 .00000647,-0.00003831,0.00004105,-0.00003652,0.00003444,-0.00005418,0.
 00011139,0.00001955,0.00015880,0.00007485,-0.00000877,-0.00001103,-0.0
 0002086,-0.00001360,0.00001576,0.00002276,0.00000118,-0.00002639,0.000
 00153,-0.00000297,0.00000922,0.00000374,0.00000351,0.00000087,-0.00008
 864,-0.00074786,-0.00045452,0.00190628,0.00208483,0.00096093,-0.000014
 89,0.00004012,0.00007323,-0.00001859,0.00002047,-0.00000660,-0.0000259
 2,0.00000108,0.00002568,-0.00002092,-0.00002370,-0.00000782,0.00007668
 ,-0.00003981,0.00005303,-0.00001060,0.00000700,0.00000611,0.00000251,-
 0.00001901,-0.00001842,0.00000444,-0.00001066,0.00000145,-0.00000136,0
 .00000051,-0.00000400,-0.00000301,0.00000088,-0.00000261,0.00000671,0.
 00000456,-0.00000862,0.00000287,-0.00000061,-0.00000124,-0.00000192,0.
 00000169,-0.00000051,0.00000213,-0.00000014,0.00000140,-0.00012537,-0.
 00001892,0.00025146,-0.00019025,-0.00033554,0.00019478,-0.00001498,0.0
 0000453,0.00000204,0.00001259,0.00000619,0.00001089,0.00000625,-0.0000
 0788,0.00000941,0.00001187,-0.00000035,0.00001556,0.15906183,0.0000416
 5,-0.00002360,0.00002505,-0.00004516,0.00039524,-0.00030688,0.00005584
 ,-0.00003051,0.00007364,-0.00004103,-0.00001940,-0.00002970,0.00001785
 ,-0.00001954,0.00003937,-0.00000542,-0.00000320,-0.00002852,-0.0001553
 9,0.00039642,0.00048445,-0.00012559,-0.00133546,-0.00024662,0.13223295
 ,-0.21932374,-0.02115652,-0.00018496,-0.00015904,0.00014000,-0.0000495
 0,0.00017144,-0.00014588,0.00033788,-0.00061108,-0.00082590,-0.0002747
 6,-0.00101662,-0.00011880,0.00017362,0.00039695,-0.00011086,-0.0000590
 0,0.00015177,-0.00046902,-0.00003221,-0.00003222,-0.00000371,0.0000082
 0,-0.00001073,-0.00001948,0.00000709,0.00001906,-0.00005404,-0.0000001
 4,-0.00002335,0.00013034,0.00003475,0.00002445,0.00002194,-0.00004798,
 -0.00002926,-0.00002048,0.00001673,0.00001611,0.00002554,-0.00000214,0
 .00000920,-0.00001095,0.00000158,0.00000071,0.00000380,0.00019785,0.00
 052728,0.00025141,-0.00066893,-0.00058355,-0.00014748,-0.00011926,0.00
 024494,0.00012541,-0.00004455,-0.00008682,0.00008084,-0.00001900,-0.00
 000664,0.00000998,0.00000481,-0.00009704,-0.00008206,0.00010018,-0.000
 18912,0.00010287,-0.00001836,0.00001358,0.00000666,0.00001497,-0.00003
 317,-0.00002884,-0.00000161,0.00002604,0.00001670,0.00000563,-0.000002
 95,0.00000189,0.00000720,0.00000383,0.00000309,-0.00001690,-0.00001338
 ,0.00001171,-0.00000066,-0.00000179,0.00000004,-0.00000031,-0.00000182
 ,-0.00000061,0.00000343,0.00000360,0.00000141,-0.00001892,0.00001163,0
 .00010988,-0.00022487,-0.00055631,0.00001231,0.00001461,-0.00000761,0.
 00001201,0.00000570,-0.00000067,0.00000767,0.00000092,-0.00000738,0.00
 001201,0.00000369,0.00000251,0.00000715,-0.14260502,0.23669008,-0.0000
 4143,-0.00000859,0.00004776,-0.00117883,-0.00028207,0.00078836,-0.0001
 3193,0.00023014,-0.00041204,-0.00006247,0.00006916,0.00010675,-0.00000
 917,0.00000552,-0.00003385,0.00001918,-0.00001761,-0.00000490,-0.00253
 984,0.00035748,-0.00506491,-0.01939390,0.02277155,0.00359737,0.0213875
 1,-0.02478413,-0.05391339,0.00077840,0.00026853,0.00008573,-0.00053894
 ,-0.00046413,0.00001261,-0.00116855,-0.00129399,0.00021859,0.00033287,
 0.00063304,0.00106915,-0.00043492,0.00054413,-0.00147208,-0.00068544,-
 0.00025666,0.00128089,0.00004763,0.00006358,-0.00008339,-0.00007887,-0
 .00000109,0.00006178,-0.00014631,0.00001902,-0.00001948,0.00034807,0.0
 0010758,0.00004755,0.00005105,-0.00003229,-0.00005241,0.00002597,0.000
 02995,0.00007828,0.00003802,-0.00002181,-0.00009165,0.00001312,-0.0000
 1794,0.00001594,0.00000653,-0.00000018,-0.00001011,-0.00001204,-0.0014
 0072,-0.00075580,0.00162458,0.00292870,-0.00007635,0.00013972,-0.00023
 040,-0.00005455,0.00012988,-0.00013219,0.00026084,-0.00000134,0.000029
 71,0.00001394,-0.00003861,0.00000513,0.00009658,-0.00000801,0.00024970
 ,-0.00019437,0.00000668,-0.00001297,-0.00001910,-0.00001789,0.00001305
 ,-0.00001999,-0.00004317,0.00006231,0.00012187,-0.00000688,0.00000365,
 -0.00000710,-0.00001401,-0.00000291,-0.00000677,0.00003201,0.00002523,
 -0.00001766,0.00000445,-0.00000026,-0.00000039,-0.00000341,0.00000582,
 -0.00000417,-0.00000219,-0.00000241,0.00000038,0.00021076,0.00017608,-
 0.00002388,-0.00001112,-0.00019171,0.00007135,-0.00004983,0.00002966,-
 0.00002913,0.00001290,-0.00001145,-0.00002271,0.00000631,-0.00000436,-
 0.00001693,0.00002055,-0.00000233,0.00001456,-0.01606037,0.02512402,0.
 05583158,-0.00018739,0.00005803,0.00008641,0.00011974,0.00112902,-0.00
 022910,0.00017376,-0.00005183,-0.00007577,0.00001675,-0.00004621,-0.00
 012735,-0.00004831,0.00004093,-0.00004105,-0.00008109,-0.00002345,-0.0
 0000257,0.00138450,-0.00024955,-0.00064269,-0.01444896,-0.01321561,-0.
 00355808,-0.12833181,-0.11859001,-0.01597983,0.00017174,-0.00001025,0.
 00002431,-0.00020217,-0.00002146,0.00000197,-0.00002718,-0.00001603,-0
 .00018101,0.00002722,0.00005649,0.00016966,-0.00011461,0.00006725,-0.0
 0016137,-0.00046848,0.00103043,0.00050370,0.00009771,-0.00007742,-0.00
 007417,-0.00002971,0.00005975,0.00000050,-0.00003583,0.00001821,0.0000
 1448,0.00010234,-0.00004264,-0.00001164,-0.00006672,-0.00006522,-0.000
 01378,0.00007278,0.00007809,0.00002465,-0.00002346,-0.00005241,-0.0000
 2021,-0.00000069,-0.00001146,0.00000196,-0.00000517,-0.00000531,-0.000
 00518,0.00030567,-0.00034271,0.00035196,-0.00006445,-0.00081276,-0.002
 04427,0.00002003,0.00000130,-0.00000596,0.00001848,-0.00000753,0.00002
 991,-0.00000185,0.00000923,0.00001242,-0.00001091,-0.00001294,-0.00000
 077,0.00003078,-0.00002475,-0.00000569,0.00000621,-0.00000244,-0.00000
 226,-0.00000898,-0.00000052,-0.00000272,-0.00000688,0.00000401,0.00001
 186,0.00000128,0.00000309,0.00000055,-0.00000709,-0.00000777,-0.000001
 70,0.00000941,0.00001256,-0.00000249,0.00000266,0.00000269,0.00000014,
 0.00000136,0.00000208,0.00000346,-0.00000635,-0.00000580,-0.00000303,-
 0.00001072,0.00001145,0.00006425,-0.00009513,-0.00010536,0.00008210,-0
 .00000697,0.00000281,0.00001896,-0.00000273,-0.00001780,-0.00002190,0.
 00000143,0.00000140,-0.00000414,0.00000708,-0.00000729,0.00000249,0.01
 324322,0.01607955,0.00270283,0.13927241,-0.00003893,0.00001795,0.00015
 650,-0.00059522,-0.00022222,-0.00050305,0.00018621,-0.00005684,0.00000
 536,-0.00001833,0.00007205,-0.00007750,0.00000615,-0.00001836,0.000050
 26,-0.00003391,0.00002837,-0.00001575,0.00140763,0.00034700,0.00048748
 ,0.00255509,0.00436910,-0.00064192,-0.11699911,-0.21667726,-0.02408868
 ,0.00005316,0.00004469,-0.00017002,0.00009725,0.00002178,0.00021857,-0
 .00012562,0.00004908,0.00035714,0.00019474,-0.00002242,-0.00039935,-0.
 00019916,-0.00023505,0.00039706,0.00015227,0.00028376,-0.00036828,0.00
 004304,-0.00011044,-0.00000615,0.00000034,0.00003883,-0.00001078,0.000
 02175,-0.00001842,0.00005036,-0.00005730,-0.00003559,-0.00012281,-0.00
 007912,-0.00001396,-0.00000228,0.00004766,0.00003411,0.00000418,-0.000
 02925,-0.00001880,0.00000237,-0.00000115,-0.00000207,-0.00000148,-0.00
 000477,-0.00000250,-0.00000230,0.00004917,0.00078163,0.00008981,-0.000
 32181,-0.00069107,-0.00001481,0.00008838,-0.00008326,-0.00008894,0.000
 02935,0.00005646,-0.00007346,0.00002260,-0.00000819,-0.00001791,0.0000
 0106,0.00005689,0.00003777,-0.00010190,0.00003925,-0.00004944,0.000014
 78,-0.00001140,-0.00000327,-0.00000956,0.00002904,0.00002426,0.0000055
 8,-0.00001342,-0.00002954,0.00000169,0.00000100,0.00000272,-0.00000167
 ,-0.00000429,-0.00000046,-0.00000337,0.00000448,0.00000266,-0.00000088
 ,0.00000146,0.00000110,0.00000206,-0.00000004,0.00000071,-0.00000394,-
 0.00000283,-0.00000210,0.00005537,-0.00002265,-0.00012167,0.00009382,0
 .00020689,-0.00012266,0.00000540,-0.00000526,0.00000709,-0.00001013,-0
 .00000644,-0.00001383,-0.00000365,0.00000819,-0.00000853,-0.00000740,-
 0.00000336,-0.00001098,-0.01585937,-0.02080321,-0.00251394,0.13070464,
 0.23522277,-0.00025244,0.00007772,0.00012287,0.00018660,0.00098154,-0.
 00015522,0.00017675,-0.00004052,-0.00008158,0.00007490,-0.00005918,-0.
 00015397,-0.00007587,0.00007106,-0.00007885,-0.00006995,0.00003366,0.0
 0003647,0.00130623,-0.00077427,-0.00017445,-0.01695862,-0.02044560,-0.
 00367575,-0.01829900,-0.02745932,-0.05254896,0.00031227,0.00014170,-0.
 00004879,-0.00028593,-0.00013896,0.00014656,-0.00010615,-0.00002925,-0
 .00004619,0.00018095,0.00011323,0.00002658,-0.00032672,-0.00013567,0.0
 0002541,-0.00047243,0.00080787,0.00085765,0.00008327,0.00000013,-0.000
 04641,-0.00003071,0.00005315,0.00001370,-0.00005973,0.00001000,0.00001
 261,0.00016459,-0.00002372,-0.00005805,-0.00005411,-0.00008281,-0.0000
 1787,0.00007440,0.00010030,0.00002051,-0.00001126,-0.00006392,-0.00002
 997,-0.00000136,-0.00001514,0.00000633,-0.00000577,-0.00000797,-0.0000
 0233,0.00040983,-0.00079506,0.00011579,-0.00191604,-0.00078766,-0.0016
 1365,0.00013026,-0.00013187,-0.00013856,0.00007050,0.00005291,-0.00002
 072,0.00000764,0.00001944,0.00000897,-0.00001645,0.00004344,0.00005751
 ,-0.00003264,0.00001830,-0.00007500,0.00001472,-0.00001417,-0.00000615
 ,-0.00001774,0.00003443,0.00001656,-0.00000554,-0.00000680,0.00000200,
 -0.00000318,0.00000357,-0.00000259,-0.00000826,-0.00000728,0.00000045,
 0.00001469,0.00001140,-0.00000905,0.00000484,0.00000314,-0.00000183,0.
 00000100,0.00000302,0.00000637,-0.00000694,-0.00000691,-0.00000328,0.0
 0002723,0.00001530,0.00001344,-0.00003238,-0.00001081,-0.00004668,-0.0
 0001884,0.00001208,0.00001613,-0.00000099,-0.00001602,-0.00001859,-0.0
 0000032,0.00000145,-0.00001083,0.00000834,-0.00000666,0.00000051,-0.00
 176164,-0.00294550,-0.00108443,0.02240273,0.02809862,0.05383882,0.0000
 3172,0.00008705,-0.00019758,0.00021687,-0.00017299,0.00016591,-0.00003
 926,-0.00000691,0.00005332,0.00000412,0.00002284,0.00002422,-0.0000073
 9,0.00000479,-0.00000466,-0.00002383,-0.00001329,0.00004725,0.00109000
 ,-0.00024884,-0.00100332,0.01240628,0.00175048,-0.01792901,-0.13838554
 ,-0.01657996,0.12756630,0.00019561,-0.00013403,-0.00002081,0.00003164,
 0.00002490,-0.00004918,-0.00023190,-0.00016723,0.00009361,0.00010707,0
 .00034313,0.00028175,-0.00022182,0.00001577,-0.00022960,-0.00022821,0.
 00012003,0.00020012,-0.00000012,0.00000704,-0.00003010,-0.00001264,-0.
 00001236,0.00000840,-0.00003179,0.00000258,-0.00002471,0.00001758,0.00
 003729,0.00005580,0.00002839,0.00001413,0.00000802,-0.00002940,-0.0000
 2650,0.00000596,0.00001349,0.00000978,-0.00000653,0.00000273,0.0000023
 9,-0.00000336,0.00000364,0.00000097,-0.00000061,-0.00001844,-0.0003549
 8,0.00003170,0.00072072,0.00101239,-0.00053030,0.00010831,-0.00008453,
 -0.00002565,0.00005387,0.00001278,0.00003211,0.00001725,-0.00001120,-0
 .00002043,-0.00001507,0.00003525,0.00005956,-0.00008168,0.00006229,-0.
 00007142,0.00000750,-0.00001135,-0.00000849,-0.00000504,0.00001340,0.0
 0000601,-0.00000661,0.00000532,0.00001768,-0.00000213,-0.00000130,-0.0
 0000096,0.00000156,0.00000305,0.00000174,0.00000257,-0.00000472,0.0000
 0071,-0.00000037,-0.00000134,-0.00000017,-0.00000110,0.00000051,-0.000
 00208,0.00000203,0.00000236,0.00000154,0.00002231,0.00003512,0.0000047
 4,-0.00002714,-0.00003636,0.00005076,0.00000983,0.00000118,0.00000613,
 0.00000538,0.,0.00000054,0.00000160,-0.00000132,0.00000147,0.00000373,
 0.00000118,0.00000556,-0.01020880,-0.00460582,0.01443608,-0.01050351,-
 0.00085390,0.01447852,0.14745710,0.00000620,-0.00000512,-0.00003572,-0
 .00009243,-0.00009349,-0.00022688,0.00001090,-0.00002425,0.00004981,-0
 .00004007,0.00001217,-0.00001848,-0.00000595,-0.00001365,0.00005435,0.
 00007821,0.00003013,-0.00001100,-0.00030616,0.00027399,0.00050156,-0.0
 0341558,-0.00153409,0.00075709,-0.01605672,-0.05303245,0.02879213,-0.0
 0020003,-0.00005264,-0.00001486,0.00018497,0.00016138,-0.00002072,0.00
 033032,0.00027164,-0.00014661,-0.00007570,-0.00049624,-0.00039974,0.00
 010039,-0.00006624,0.00036310,0.00010713,-0.00021122,-0.00006916,-0.00
 003031,0.00005497,0.00002396,0.00002557,-0.00002495,-0.00000133,0.0000
 2983,-0.00000293,-0.00001436,-0.00009693,0.00001168,0.00003224,0.00002
 110,0.00002037,0.00002126,-0.00002420,-0.00002967,-0.00002748,-0.00000
 295,0.00001637,0.00002176,-0.00000528,0.00000402,0.00000305,-0.0000000
 5,0.00000182,0.00000620,-0.00021770,-0.00007385,0.00009925,0.00071421,
 0.00025561,-0.00022410,-0.00002612,0.00005717,-0.00000157,-0.00003056,
 0.00001862,-0.00005006,-0.00000576,-0.00000549,0.00000354,0.00001082,-
 0.00001161,-0.00003304,-0.00000929,-0.00009422,0.00002399,-0.00000677,
 0.00000405,0.00000604,0.00000625,-0.00000700,-0.00000110,0.00000800,-0
 .00001101,-0.00002447,-0.00000410,-0.00000091,-0.00000137,0.00000359,0
 .00000369,0.00000261,-0.00000236,-0.00000932,-0.00000593,-0.00000104,-
 0.00000047,-0.00000094,0.00000023,-0.00000180,0.00000132,0.00000272,0.
 00000196,0.00000083,-0.00003293,-0.00003479,0.00001545,0.00008102,0.00
 001573,-0.00006963,0.00000529,-0.00001430,0.00000501,0.00000063,0.0000
 0843,0.00001476,-0.00000083,-0.00000094,0.00000698,-0.00000417,0.00000
 243,-0.00000088,0.01370747,0.00545645,-0.02217410,-0.01502185,-0.00270
 743,0.02292953,0.01947096,0.05078356,0.00027486,-0.00004453,-0.0001036
 8,-0.00028707,-0.00027152,0.00036539,-0.00007107,0.00006643,-0.0000749
 3,0.,0.00001182,0.00005658,-0.00000906,0.00001250,-0.00005948,-0.00011
 909,0.00000685,0.00012265,0.00137340,-0.00103577,0.00105276,0.01515871
 ,0.00119829,-0.02577063,0.12457781,0.02667867,-0.22476022,-0.00000452,
 -0.00041825,-0.00003603,0.00022458,0.00031726,-0.00014101,0.00013181,0
 .00011630,-0.00011031,-0.00002249,-0.00019693,0.00005432,-0.00017272,0
 .00014257,0.00001612,0.00007644,-0.00051769,0.00030166,0.00003830,0.00
 019494,0.00004477,0.00005123,-0.00002328,0.00003131,0.00004262,0.00000
 337,0.00000205,-0.00009464,-0.00005738,0.00001430,-0.00003111,-0.00001
 610,0.00002495,0.00002283,-0.00000625,-0.00001970,-0.00004073,-0.00000
 108,0.00001575,-0.00000190,-0.00000501,0.00000479,-0.00000157,-0.00000
 037,0.00000113,-0.00012485,-0.00088077,-0.00022075,0.00077732,0.002441
 49,0.00096300,0.00005044,0.00003963,0.00007726,0.00001125,-0.00002037,
 0.00001293,0.00002640,-0.00003685,-0.00003271,-0.00000729,-0.00000186,
 0.00000303,-0.00011622,-0.00003986,-0.00003559,0.00000848,-0.00000437,
 -0.00000641,0.00000233,-0.00001034,-0.00000661,-0.00000007,0.00000260,
 0.00000174,-0.00001136,0.00000124,-0.00000102,-0.00000097,0.00000088,0
 .00000354,0.00001240,-0.00000261,-0.00001062,-0.00000250,0.00000215,-0
 .00000105,0.00000064,-0.00000060,0.00000368,-0.00000054,-0.00000064,-0
 .00000032,-0.00001351,-0.00001188,0.00002827,0.00002542,-0.00002958,-0
 .00001503,0.00001794,-0.00000221,0.00001547,0.00000019,0.00001111,0.00
 001648,-0.00000311,0.00000383,0.00000966,-0.00000507,-0.00000159,-0.00
 000092,0.00060905,-0.00009985,-0.00129012,-0.00294731,0.00002671,0.004
 92364,-0.13493088,-0.02993154,0.24646913,-0.00461014,0.00372983,-0.000
 24825,-0.00862577,-0.00302608,0.02715560,-0.10715944,-0.00316868,0.107
 64636,0.01132830,0.00166444,-0.01692539,-0.00082714,0.00349584,-0.0021
 9405,-0.00070782,0.00028314,-0.00057755,0.00046355,-0.00197619,0.00249
 175,0.00030954,-0.00002834,-0.00051329,0.00000572,0.00004568,-0.000015
 31,0.00001903,0.00002667,-0.00007349,-0.00004891,-0.00000537,0.0000542
 8,-0.00002206,0.00000615,0.00001072,0.00001889,0.00000775,-0.00005086,
 -0.00000408,-0.00001983,0.00005087,0.00000904,0.00002396,0.00021231,-0
 .00000278,-0.00001404,0.00003503,-0.00000184,0.00000713,0.00000216,0.0
 0001531,-0.00001212,0.00003613,0.00000410,-0.00001355,-0.00005585,-0.0
 0005154,-0.00003661,-0.00004384,0.00007696,0.00002006,0.00002182,-0.00
 002506,0.00000118,-0.00001443,0.00000565,-0.00001104,-0.00000265,0.000
 00965,-0.00001149,-0.00001875,-0.00001970,-0.00007830,-0.00010751,0.00
 005918,0.00012939,-0.00009309,-0.00000245,0.00000863,0.00001455,0.0000
 0124,0.00000085,-0.00000296,-0.00000262,0.00000669,-0.00000561,0.00001
 128,-0.00000497,-0.00002171,0.00000341,-0.00000801,0.00001247,0.000000
 20,-0.00000005,-0.00000030,-0.00000136,0.00000242,0.00000171,0.0000011
 0,-0.00000162,-0.00000579,-0.00000140,0.00000003,0.00000535,-0.0000055
 4,-0.00000138,-0.00000156,0.00000543,0.00001538,-0.00000394,-0.0000114
 6,-0.00000170,0.00000378,-0.00000156,0.00000022,-0.00000227,-0.0000067
 1,0.00000551,0.00000022,0.00000385,-0.00000139,-0.00000456,-0.00000610
 ,0.00000787,-0.00000887,-0.00002011,-0.00002618,-0.00001257,-0.0000061
 5,-0.00000381,-0.00001226,0.00000025,0.00000213,-0.00000767,-0.0000009
 3,0.00000028,-0.00000407,0.00000899,-0.00000404,-0.00000849,0.00000433
 ,-0.00000026,0.00001496,-0.00002102,0.00001840,-0.00003727,0.10963195,
 0.00342483,0.00380322,0.00130652,0.00415639,0.00397562,-0.00912244,-0.
 00397658,-0.04268554,0.02884911,-0.00585252,0.00256353,0.01144157,0.00
 370177,0.00513973,0.00287668,0.00022022,-0.00035274,0.00003448,-0.0012
 3584,-0.00294183,-0.00142966,0.00025565,-0.00010294,0.00015372,0.00002
 503,0.00009900,-0.00000930,-0.00007203,-0.00002969,0.00004206,0.000053
 96,0.00003396,-0.00004974,0.00002493,0.00000429,0.00000321,-0.00004059
 ,-0.00001268,0.00001668,0.00006151,0.00001907,-0.00002268,0.00004071,-
 0.00006430,-0.00001744,0.00018760,0.00001059,-0.00008684,0.00000875,0.
 00002527,-0.00002537,0.00003189,0.00000248,-0.00000095,-0.00004090,0.0
 0000651,0.00001273,-0.00007837,0.00020718,0.00012689,-0.00007230,-0.00
 016930,-0.00006789,-0.00005968,0.00006488,0.00008358,0.00001871,0.0000
 0167,-0.00000542,0.00002066,0.00000414,-0.00000666,-0.00006750,-0.0000
 4246,0.00000143,0.00003263,0.00012499,0.00004151,-0.00000290,-0.000002
 97,0.00000168,-0.00000850,-0.00000072,0.00000224,-0.00000233,-0.000004
 22,0.00000112,-0.00000295,0.00000239,0.00000815,0.00000105,0.00000190,
 -0.00001005,-0.00000509,0.00000164,0.00000077,0.00000475,-0.00000509,-
 0.00000192,0.00000140,0.00000116,0.00000230,-0.00002558,-0.00001080,0.
 00000688,0.00000229,0.00001753,0.00000764,0.00000561,-0.00001072,-0.00
 000116,-0.00002648,-0.00000498,-0.00000519,-0.00000300,-0.00000291,0.0
 0000243,0.00000456,0.00001365,0.00000892,-0.00000514,0.00000104,0.0000
 0145,0.00000562,-0.00000469,0.00000459,-0.00000483,-0.00000027,-0.0000
 1093,-0.00000080,-0.00000541,0.00000936,-0.00000634,-0.00000143,0.0000
 0471,-0.00000544,0.00000526,-0.00000007,-0.00000713,0.00001087,-0.0000
 2476,-0.00000327,-0.00001496,0.00000307,0.00000333,0.00001047,0.000004
 52,0.00059485,0.03340504,0.00087106,0.00060020,0.00161440,0.00081642,0
 .00114689,-0.00162897,0.10780386,0.02772863,-0.28661018,0.01214620,0.0
 0136670,-0.01695323,-0.00320649,0.00343413,-0.00113859,-0.00050859,0.0
 0002125,0.00040810,-0.00238445,-0.00010730,0.00026942,0.00018991,-0.00
 035449,0.00035473,0.00002638,0.00002172,-0.00004638,0.00000881,-0.0000
 3465,0.00000633,0.00000209,0.00005321,-0.00001171,-0.00000334,0.000009
 87,0.00000543,-0.00000135,-0.00001595,0.00000609,-0.00000993,0.0000213
 4,-0.00000719,0.00000708,-0.00004627,0.00021667,0.00024766,0.00003077,
 -0.00010435,0.00001707,0.00006128,-0.00001406,0.00003293,0.00000744,0.
 00002386,-0.00001742,-0.00002589,-0.00002946,-0.00014992,0.00013855,0.
 00011211,0.00002646,-0.00012799,-0.00003998,-0.00011747,0.00003298,0.0
 0007133,0.00001741,-0.00001047,-0.00000109,0.00002876,-0.00000331,-0.0
 0002974,-0.00011992,-0.00024955,-0.00010477,0.00017780,0.00032175,-0.0
 0003246,0.00000010,0.00000094,-0.00000338,-0.00000029,-0.00000286,-0.0
 0000089,0.00000331,-0.00000377,0.00000103,-0.00000437,0.00000143,0.000
 00656,-0.00000508,-0.00000046,-0.00000606,0.00000139,-0.00000049,-0.00
 000031,0.00000036,-0.00000204,0.00000007,-0.00000007,0.00000138,0.0000
 0111,-0.00002332,-0.00000624,0.00001245,-0.00000450,0.00000994,0.00000
 366,0.00001279,0.00000673,-0.00000702,-0.00003399,-0.00000217,0.000000
 92,-0.00000342,-0.00000086,0.00000624,-0.00000440,0.00001272,0.0000093
 3,0.00000071,-0.00000300,-0.00000179,-0.00000573,0.00000166,-0.0000033
 6,-0.00001716,0.00000385,-0.00000350,-0.00000234,-0.00000949,0.0000044
 8,-0.00000922,0.00000263,0.00000232,-0.00000533,0.00000001,-0.00000246
 ,0.00001412,0.00000403,0.00000585,0.00002077,0.00000060,0.00001440,-0.
 00000603,-0.00000171,0.00000179,-0.11606764,-0.03288085,0.30361513,0.0
 0059651,-0.00025855,-0.00014936,0.00146182,0.00284921,-0.00247825,-0.0
 1181064,0.00400186,0.00440328,-0.30631179,0.08726975,0.04217343,-0.008
 16690,0.00402836,-0.00038954,0.00153201,0.00114442,0.00291363,-0.00038
 289,0.00013868,0.00070182,-0.00010200,0.00015961,-0.00025716,-0.000046
 37,0.00003630,0.00005927,-0.00007007,0.00003370,0.00003672,0.00004076,
 -0.00005736,-0.00004022,0.00002644,-0.00001294,-0.00000482,-0.00003370
 ,0.00001598,0.00001549,0.00006466,-0.00002206,-0.00001916,0.00003224,0
 .00002023,-0.00032920,-0.00011999,-0.00003238,0.00004215,-0.00001661,-
 0.00004318,-0.00002408,-0.00002249,-0.00000177,-0.00004163,-0.00000356
 ,0.00004606,0.00006853,0.00013488,0.00002622,0.00000832,-0.00013360,-0
 .00002264,-0.00002639,0.00008943,0.00002417,0.00000537,0.00000241,0.00
 001537,-0.00000371,-0.00000194,0.00000678,0.00001849,0.00010247,0.0002
 9999,0.00016389,-0.00022894,-0.00038957,0.00005766,-0.00000651,-0.0000
 0876,-0.00000481,-0.00000562,0.00000646,0.00000198,-0.00000778,0.00000
 498,0.00000114,0.00000488,-0.00000142,-0.00000179,0.00000836,0.0000078
 7,0.00000752,-0.00000636,0.00000186,0.00000122,0.00000352,-0.00000073,
 -0.00000152,0.00000102,-0.00000137,0.00000192,0.00000925,-0.00000227,-
 0.00000536,0.00000869,0.00000486,0.00000071,-0.00001573,-0.00001855,0.
 00001358,0.00001765,0.00000125,-0.00001129,-0.00000610,0.00000412,0.00
 000558,0.00000974,-0.00000504,0.00000219,-0.00000590,0.00000630,0.0000
 0384,0.00001360,-0.00000738,0.00001025,0.00002086,0.00000259,-0.000008
 01,0.00000544,0.00000646,0.00001320,0.00000463,-0.00000638,0.00000321,
 0.00000215,0.00000581,0.00000407,-0.00001821,0.00000625,-0.00003229,-0
 .00001968,-0.00000632,-0.00002002,0.00000735,0.00000469,-0.00000583,0.
 00037327,-0.00146305,-0.00058560,0.32327875,-0.00023277,-0.00021532,0.
 00028155,0.00253118,0.00566061,0.00377469,0.01163839,-0.00091745,-0.00
 293874,0.08708607,-0.06634053,-0.00760948,-0.00332345,0.00375112,0.000
 56217,0.00139753,0.00586455,0.00191982,0.00056423,0.00019438,-0.000330
 30,-0.00003558,-0.00031053,0.00017014,0.00001873,-0.00000674,-0.000027
 09,0.00000760,-0.00003051,-0.00001464,-0.00000418,0.00005322,0.0000114
 6,-0.00000729,0.00000840,0.00000654,0.00000087,-0.00001038,-0.00001052
 ,-0.00000568,0.00001163,0.00000876,-0.00000134,-0.00002103,0.00025162,
 0.00015728,0.00001756,-0.00004750,0.00002852,0.00004212,0.00001672,0.0
 0004012,-0.00000661,0.00003370,-0.00002797,-0.00002899,-0.00005522,-0.
 00018322,0.00003348,-0.00000506,0.00015737,-0.00005024,0.00003802,-0.0
 0012561,0.00001304,0.00001682,-0.00000868,-0.00001201,-0.00000990,0.00
 001850,-0.00001509,-0.00003979,-0.00008527,-0.00022092,-0.00011925,0.0
 0011677,0.00026904,-0.00008245,0.00000052,0.00000282,0.00000322,0.0000
 0057,-0.00000226,0.00000020,0.00000137,-0.00000140,-0.00000074,-0.0000
 0037,0.00000059,0.00000012,-0.00000177,-0.00000363,-0.00000283,0.00000
 033,-0.00000059,-0.00000091,0.00000076,-0.00000165,0.00000056,0.000000
 92,0.00000100,-0.00000142,-0.00001019,-0.00000188,0.00001288,-0.000004
 50,0.00000113,0.00000218,0.00001079,0.00001742,-0.00001231,-0.00004496
 ,-0.00002045,0.00002936,0.00001028,-0.00001363,-0.00002033,-0.00001315
 ,0.00002570,0.00000035,0.00000183,-0.00000277,-0.00000173,-0.00000614,
 0.00000265,-0.00000534,-0.00001490,0.00001133,0.00000086,-0.00000584,-
 0.00000831,-0.00001492,-0.00000676,0.00000421,-0.00000148,-0.00000323,
 -0.00000081,-0.00000399,0.00001371,-0.00000220,0.00000967,0.00000614,-
 0.00000022,0.00000748,-0.00000429,0.00000223,-0.00000181,-0.00158496,-
 0.00315356,-0.00108552,-0.09629595,0.05917539,-0.00025684,0.00032452,-
 0.00118927,-0.00112611,0.00326339,-0.00312626,-0.02455763,0.00746629,0
 .00799790,0.04215761,-0.00776152,-0.06560899,0.02857123,-0.00987027,0.
 00043582,0.00183409,0.00237981,-0.00481043,-0.00104325,0.00039935,0.00
 064351,-0.00016074,0.00004405,-0.00040059,-0.00006133,0.00007824,0.000
 05027,-0.00001295,-0.00000785,0.00002163,0.00001682,0.00000653,-0.0000
 1519,0.00000680,-0.00000150,-0.00000090,-0.00000965,-0.00000270,0.0000
 1388,0.00001068,0.00000779,-0.00001491,0.00001095,-0.00001367,-0.00005
 529,0.00000736,0.00001234,-0.00000223,0.00001102,0.00000314,-0.0000015
 4,0.00000391,0.00000348,-0.00001044,-0.00000919,0.00000028,0.00000972,
 -0.00001390,-0.00000382,-0.00001418,0.00002724,-0.00000389,0.00002705,
 -0.00001251,0.00000284,-0.00000139,-0.00001570,0.00000583,-0.00000280,
 -0.00001277,0.00000430,-0.00000091,0.00000441,0.00005615,0.00002792,-0
 .00001854,-0.00011416,0.00001716,-0.00000156,-0.00000398,-0.00000779,-
 0.00000151,-0.00000018,-0.00000049,-0.00000004,-0.00000088,0.00000241,
 -0.00000269,0.00000143,0.00000536,0.00000098,0.00000304,-0.00000192,-0
 .00000056,0.00000024,0.00000052,0.00000088,-0.00000134,-0.00000008,-0.
 00000025,0.00000107,0.00000207,0.00000567,0.00000057,0.00000044,0.0000
 0192,-0.00000254,-0.00000097,-0.00000268,0.00000097,-0.00000187,-0.000
 00219,-0.00000539,0.00001618,0.00001216,-0.00000743,-0.00001321,-0.000
 00031,0.00000380,-0.00000277,-0.00000120,0.00000024,0.00000119,0.00000
 116,-0.00000273,0.00000243,0.00000131,0.00000354,-0.00001061,0.0000032
 8,0.00000202,0.00000008,-0.00000200,0.00000020,0.00000302,-0.00000007,
 -0.00000089,0.00000117,-0.00002406,0.00000271,-0.00003254,-0.00000586,
 -0.00000575,-0.00000186,0.00000585,-0.00000207,0.00000143,-0.00004034,
 -0.00123037,0.00066686,-0.04593647,0.00665917,0.06456000,-0.00407448,0
 .00329960,0.00284886,-0.00072237,-0.00020101,0.00075330,0.00019332,0.0
 0168552,0.00338348,0.01120226,-0.00583104,0.01116973,-0.13472500,0.064
 90994,-0.10858440,-0.01045843,0.01158641,-0.02456949,0.00003597,-0.000
 40977,-0.00002838,-0.00005125,0.00010294,0.00005024,0.00003352,-0.0000
 1626,-0.00001340,-0.00003473,0.00006128,-0.00000284,-0.00001275,-0.000
 05815,-0.00000485,0.00000692,-0.00000751,0.00000117,-0.00001701,0.0000
 1876,-0.00000259,0.00005341,-0.00002931,-0.00000361,0.00001461,-0.0000
 1131,-0.00006113,-0.00004761,-0.00002819,0.00002563,-0.00000490,-0.000
 00621,-0.00003901,-0.00000739,0.00000104,-0.00002158,0.00000841,0.0000
 3064,0.00003317,0.00004066,0.00003166,0.00000351,-0.00002707,-0.000031
 49,-0.00001277,0.00001280,0.00002048,0.00001941,0.00000090,0.00000508,
 -0.00000158,0.00000435,0.00000273,-0.00000692,0.00001576,0.00008062,0.
 00001977,-0.00002719,-0.00008120,0.00003038,-0.00000987,-0.00000813,-0
 .00000933,-0.00000411,0.00000857,-0.00000315,-0.00000830,0.00001034,-0
 .00000024,0.00001068,-0.00000356,-0.00001147,0.00001117,0.00000523,0.0
 0001935,-0.00000437,0.00000170,0.00000146,0.00000152,0.00000112,0.0000
 0037,0.00000105,-0.00000175,0.00000122,0.00000127,-0.00000124,0.000000
 87,0.00000302,0.00000340,-0.00000037,-0.00000478,-0.00000427,0.0000028
 3,-0.00000294,-0.00000243,0.00000576,0.00000104,-0.00000346,-0.0000021
 9,0.00000220,0.00000365,0.00000190,-0.00000276,0.00000437,0.00000017,0
 .00000362,-0.00000236,0.00000236,-0.00000655,-0.00001643,-0.00000352,0
 .00000575,-0.00000008,0.00001031,-0.00000168,-0.00000514,0.00000063,0.
 00000051,0.00000508,0.00000116,-0.00000158,0.00000249,0.00000111,-0.00
 000271,-0.00000414,-0.00000437,-0.00000683,-0.00000179,-0.00001293,0.0
 0042372,-0.00028449,0.00064415,0.00033571,-0.00131365,-0.00081653,0.13
 788109,0.00360697,0.00543317,0.00038368,-0.00038094,-0.00042387,-0.000
 55817,0.00157531,0.00616185,0.00163612,0.00172800,0.00255227,0.0008787
 8,0.06490068,-0.08424605,0.08863177,0.00382504,-0.00034611,0.00798137,
 -0.00036640,-0.00091702,-0.00008891,0.00008729,-0.00008347,0.00005092,
 -0.00001644,-0.00003130,-0.00000119,0.00000834,-0.00003288,-0.00000873
 ,-0.00000018,0.00005333,0.00002014,-0.00000346,0.00000433,0.00000407,-
 0.00000014,-0.00001193,-0.00000856,-0.00000469,0.00001715,0.00000632,-
 0.00001309,-0.00002483,0.00014359,0.00006918,0.00002293,-0.00002182,0.
 00001827,-0.00000617,0.00007256,0.00003630,-0.00001204,0.00003208,-0.0
 0003313,-0.00002928,-0.00006396,-0.00009388,-0.00002091,-0.00003749,0.
 00010541,0.00001506,0.00006048,-0.00004626,0.00000356,-0.00003651,-0.0
 0002055,-0.00000480,-0.00000685,-0.00002505,-0.00000907,0.00001369,-0.
 00003632,-0.00013922,-0.00009703,0.00010350,0.00023727,0.00001996,0.00
 000036,0.00000239,0.00000222,0.00000047,-0.00000529,0.00000257,0.00000
 221,-0.00000276,0.00000026,-0.00000229,0.00000238,0.00000436,-0.000004
 37,-0.00000221,-0.00000654,0.00000031,-0.00000061,-0.00000145,0.000000
 95,-0.00000253,0.00000034,0.00000123,0.00000195,-0.00000175,0.00000029
 ,0.00000079,0.00000274,-0.00000265,-0.00000393,0.00000055,0.00000732,0
 .00001257,-0.00001060,-0.00000643,-0.00000343,0.00001296,0.00001481,-0
 .00001283,-0.00002353,-0.00000279,0.00000947,-0.00000962,0.00000189,-0
 .00000299,-0.00000023,-0.00000537,0.00000099,-0.00000418,-0.00000548,0
 .00001099,0.00001812,-0.00001025,-0.00000218,-0.00003209,0.00000064,0.
 00000592,-0.00000359,-0.00000145,-0.00000316,-0.00000287,0.00000508,0.
 00000414,0.00000413,0.00000614,0.00000078,-0.00000977,-0.00000123,-0.0
 0000634,0.00000687,0.00008990,0.00002004,-0.00001653,-0.00144331,-0.00
 302424,-0.00090323,-0.07253929,0.07770895,0.00188352,0.00076874,0.0013
 5810,0.00075936,-0.00041975,-0.00017778,0.00433928,0.00121176,-0.00343
 187,-0.01740713,0.01173176,-0.01661812,-0.10862352,0.08853203,-0.21979
 464,0.00404864,-0.00270907,0.00762567,-0.00001358,-0.00029632,0.000082
 99,-0.00003006,0.00008914,0.00003742,-0.00000965,-0.00000687,0.0000144
 2,-0.00004375,0.00001766,0.00002306,0.00002271,-0.00003037,-0.00002712
 ,0.00001621,-0.00000679,-0.00000204,-0.00002269,0.00000773,0.00001101,
 0.00004223,-0.00000982,-0.00001495,0.00001516,-0.00001524,-0.00015296,
 -0.00003666,-0.00003029,0.00001836,-0.00001168,-0.00001819,-0.00002635
 ,-0.00000705,-0.00000035,-0.00001926,-0.00000411,0.00002514,0.00003692
 ,0.00006808,0.00005618,0.00002830,-0.00009717,-0.00004745,-0.00003912,
 0.00004145,0.00002588,0.00002070,0.00001168,0.00000742,-0.00000056,0.0
 0001355,0.00000342,0.00000503,0.00004104,0.00013280,0.00005967,-0.0001
 0186,-0.00012707,0.00005964,-0.00000373,-0.00000512,-0.00000294,-0.000
 00390,0.00000341,0.00000175,-0.00000437,0.00000215,0.00000068,0.000002
 45,-0.00000032,0.00000066,0.00000386,0.00000480,0.00000280,-0.00000399
 ,0.00000118,0.00000060,0.00000240,-0.00000092,-0.00000113,0.00000080,-
 0.00000066,0.00000137,-0.00000137,-0.00000317,-0.00000187,0.00000453,0
 .00000704,0.00000135,-0.00000643,-0.00001178,0.00000782,0.00000105,-0.
 00000011,-0.00001104,-0.00000902,0.00000490,0.00000791,0.00000482,0.00
 000047,0.00000522,-0.00000381,0.00000365,0.00000207,0.00000725,-0.0000
 0445,0.00000551,0.00000839,0.00000117,-0.00000767,0.00000248,0.0000023
 9,0.00001144,0.00000152,-0.00000360,0.00000189,-0.00000016,0.00000449,
 0.00000203,-0.00000581,0.00000556,-0.00000663,-0.00000617,-0.00000378,
 -0.00001214,0.00000391,-0.00000248,0.00000251,-0.00092944,0.00055319,-
 0.00096535,-0.00017181,-0.00115241,0.00079150,0.11661578,-0.09732914,0
 .23026553,0.01091120,0.00146173,-0.01694558,-0.00076363,0.00367664,-0.
 00197750,-0.00084686,0.00043111,-0.00075202,-0.00442420,0.00405697,-0.
 00010665,-0.00771290,-0.00393175,0.02868029,-0.10724520,-0.00311692,0.
 10820726,0.00068046,0.00008807,-0.00066778,0.00002203,-0.00008866,0.00
 001673,-0.00001683,0.00001872,0.00000450,-0.00002712,-0.00005425,0.000
 02448,0.00003346,0.00006607,-0.00000156,0.00001053,0.00000682,0.000000
 35,-0.00001924,-0.00002697,0.00001796,0.00002281,0.00005088,-0.0000166
 9,0.00002132,-0.00002989,0.00008363,-0.00001133,-0.00000691,0.00001964
 ,0.00000689,-0.00003308,0.00006325,0.00003383,-0.00000956,0.00002391,-
 0.00004087,-0.00002607,-0.00004557,-0.00001413,-0.00002115,-0.00002587
 ,0.00001855,0.00002507,0.00003357,0.00001046,0.00001118,-0.00004294,-0
 .00000656,-0.00000075,-0.00000044,-0.00001376,-0.00000488,0.00001518,-
 0.00003468,-0.00005947,-0.00005646,0.00004345,0.00008084,-0.00001448,-
 0.00000309,-0.00000598,-0.00002398,-0.00000591,-0.00000819,0.00000066,
 0.00000465,-0.00000777,0.00000687,-0.00001258,0.00001117,0.00001914,-0
 .00000296,-0.00000079,-0.00001119,-0.00000015,0.00000060,-0.00000014,0
 .00000216,-0.00000590,0.00000021,0.00000121,0.00000502,0.00000279,0.00
 000212,0.00000114,-0.00000209,-0.00000111,-0.00000254,-0.00000074,0.00
 000363,0.00000475,-0.00000393,0.00000670,0.00000160,-0.00000366,0.0000
 0140,0.00000147,-0.00000572,0.00000057,-0.00000150,-0.00000412,-0.0000
 0074,-0.00000423,0.00000099,-0.00000347,-0.00000151,-0.00000055,0.0000
 1365,0.00001576,0.00000670,-0.00001444,0.00000102,-0.00002810,0.000005
 27,0.00000476,-0.00000178,-0.00000260,-0.00000239,-0.00000167,-0.00000
 737,-0.00000024,-0.00000427,-0.00000175,-0.00000297,0.00000033,0.00000
 061,-0.00000347,0.00001257,0.00001047,-0.00043057,-0.00001241,-0.00045
 965,-0.00010125,0.00153059,0.00057213,-0.00133309,-0.00072833,0.108981
 12,-0.00629247,0.00136408,0.01157210,0.00390638,0.00566840,0.00286350,
 0.00033968,-0.00037199,0.00005632,0.00381625,0.00483823,0.00142492,0.0
 0402909,0.00369985,-0.00988344,-0.00331118,-0.04230685,0.02762526,-0.0
 0039408,0.00037821,0.00057710,0.00004737,-0.00002598,0.00001210,0.0000
 0426,-0.00000072,-0.00000782,-0.00001754,0.00000731,-0.00007904,-0.000
 02819,0.00001866,0.00006608,-0.00001293,-0.00000083,0.00000724,-0.0000
 0322,0.00001245,-0.00005473,0.00004666,-0.00001339,0.00004950,0.000016
 62,-0.00000425,0.00023153,-0.00005950,-0.00005853,0.00005139,-0.000029
 97,-0.00007225,0.00009650,0.00002680,-0.00004836,0.00008044,-0.0000309
 6,-0.00000568,-0.00009773,0.00003269,0.00000648,-0.00005432,-0.0000240
 7,0.00001248,0.00005037,0.00006019,0.00003737,-0.00008233,0.00000053,-
 0.00000139,-0.00000073,-0.00000219,-0.00000917,0.00001126,-0.00003910,
 -0.00012105,-0.00013542,0.00007228,0.00019758,-0.00008517,-0.00000606,
 -0.00000155,0.00003041,-0.00000291,-0.00000573,0.00001090,-0.00000615,
 0.00000530,-0.00000989,0.00001749,0.00000598,-0.00001079,0.00000253,-0
 .00000324,-0.00000391,-0.00000558,0.00000158,-0.00000456,0.00000205,-0
 .00000141,-0.00000070,0.00000720,-0.00000202,-0.00001062,0.00000328,0.
 00000009,-0.00000410,-0.00000098,0.00000139,-0.00000213,0.00000402,0.0
 0000601,-0.00000310,0.00000513,-0.00000218,-0.00000257,-0.00000432,0.0
 0000157,-0.00001065,0.00000180,0.00000459,-0.00000314,0.00000189,0.000
 00034,-0.00000089,-0.00000501,0.00000307,-0.00000787,0.00002410,0.0000
 6604,0.00003398,-0.00003061,-0.00000159,-0.00004835,0.00001874,0.00000
 136,-0.00002122,0.00000119,0.00000612,-0.00000882,0.00000849,-0.000002
 42,0.00000632,-0.00000040,-0.00000169,0.00000150,-0.00000527,0.0000041
 4,-0.00000649,-0.00042154,-0.00094615,-0.00027270,0.00029808,0.0003085
 6,-0.00046363,-0.00152966,-0.00287755,-0.00083629,0.00095574,0.0338766
 4,0.01180144,0.00111192,-0.01766647,-0.00323752,0.00348979,-0.00087794
 ,-0.00060991,0.00005885,0.00043932,0.00101895,0.00090693,0.00186941,-0
 .00011134,0.00079531,-0.00025991,0.10799026,0.02762402,-0.28711056,0.0
 0121178,-0.00025264,-0.00048933,0.00002171,0.00021842,-0.00001274,-0.0
 0002819,-0.00001231,0.00003740,-0.00011541,-0.00002901,0.00013067,0.00
 010893,-0.00000511,-0.00011453,0.00006043,-0.00000023,-0.00001038,-0.0
 0006953,-0.00002754,0.00008250,0.00008805,0.00004083,-0.00008148,0.000
 05117,0.00000843,-0.00045632,-0.00002347,0.00002036,0.00000058,0.00002
 631,0.00002042,-0.00008605,-0.00000438,0.00002860,-0.00008267,-0.00002
 908,0.00002622,0.00011274,0.00002796,0.00003713,0.00005149,-0.00004831
 ,-0.00005727,-0.00005338,-0.00001033,0.00001266,0.00007667,-0.00000106
 ,0.00001090,-0.00000861,0.00000577,0.00000618,-0.00000234,0.00009736,0
 .00034520,0.00024276,-0.00029518,-0.00044179,0.00009413,-0.00001560,-0
 .00001930,-0.00004492,-0.00001379,0.00000160,-0.00000296,-0.00000287,-
 0.00000388,0.00001203,-0.00001247,0.00000830,0.00002739,0.00000917,0.0
 0001243,-0.00000425,-0.00000488,0.00000318,0.00000392,0.00000545,-0.00
 000752,-0.00000245,-0.00000125,0.00000409,0.00001304,0.00000088,-0.000
 00320,0.00000341,0.00000825,0.00000531,0.00000406,-0.00001461,-0.00001
 700,0.00001082,-0.00000546,-0.00000160,0.00000182,0.00000122,-0.000003
 64,0.00000411,0.00000353,0.00000352,0.00000375,-0.00001042,0.00000183,
 0.00000502,0.00001711,-0.00001159,0.00001750,0.00001295,-0.00003578,-0
 .00003823,0.00002072,0.00000470,0.00003947,-0.00001104,-0.00000534,0.0
 0002054,-0.00000210,0.00000161,0.00000809,-0.00001590,0.00000982,-0.00
 002105,-0.00002578,-0.00000751,-0.00003350,0.00000355,0.00000059,0.000
 00960,-0.00002639,-0.00028310,-0.00012301,-0.00006005,0.00012540,-0.00
 008467,-0.00008818,-0.00109744,0.00052978,-0.11694987,-0.03157147,0.30
 342292,-0.30755481,0.08433547,0.04418181,-0.00882673,0.00379272,0.0011
 0969,0.00160013,0.00086155,0.00275503,0.00042996,-0.00029608,-0.000262
 15,0.00109753,0.00304079,-0.00245482,-0.01150851,0.00440645,0.00481769
 ,-0.00108648,-0.00033767,-0.00120060,-0.00023185,0.00020781,-0.0003865
 4,0.00027428,-0.00004339,-0.00022576,-0.00029599,0.00036610,-0.0001697
 7,-0.00019711,-0.00021859,0.00014456,-0.00000399,-0.00001147,0.0000125
 1,-0.00008839,0.00002360,-0.00007885,0.00041747,0.00013030,0.00000191,
 0.00001531,-0.00016484,0.00057017,-0.00024244,-0.00032294,0.00025828,-
 0.00007035,-0.00009289,-0.00004859,0.00001055,-0.00004079,0.00006037,0
 .00003737,0.00006163,-0.00005577,0.00025586,0.00011021,-0.00008246,-0.
 00011261,-0.00001565,-0.00000254,0.00014548,0.00007742,-0.00006275,0.0
 0001870,0.00001454,0.00001741,0.00000858,0.00000708,0.00000242,-0.0001
 2795,-0.00026289,-0.00035821,0.00039050,0.00042362,-0.00004202,-0.0000
 1424,0.00002263,0.00006257,-0.00006936,-0.00002637,0.00000535,-0.00000
 795,-0.00004701,-0.00000709,-0.00004365,0.00004172,0.00004830,-0.00003
 143,0.00000996,-0.00010505,-0.00001946,0.00001615,0.00000880,0.0000080
 3,-0.00001294,-0.00000939,0.00000833,-0.00000044,-0.00000449,0.0000054
 3,0.00000004,-0.00000926,0.00000047,0.00000725,-0.00001159,0.00000482,
 0.00000392,-0.00000149,0.00001376,-0.00000196,-0.00000676,-0.00000855,
 0.00000660,-0.00000033,0.00000782,-0.00000228,0.00000449,-0.00000780,0
 .00000451,-0.00000513,-0.00001977,0.00000086,-0.00001406,-0.00024852,0
 .00005388,-0.00006351,-0.00001207,0.00000475,-0.00001199,0.00001628,-0
 .00001081,-0.00002849,-0.00000043,0.00001650,-0.00000775,0.00002511,-0
 .00000238,0.00003459,0.00002035,-0.00001201,0.00001443,-0.00008089,-0.
 00001348,-0.00010983,-0.00038073,0.00049851,-0.00000850,-0.00020480,-0
 .00035677,-0.00009668,-0.00069676,0.00011687,0.00028171,0.00043805,-0.
 00152211,-0.00055788,0.32657232,0.08486423,-0.06347395,-0.00791721,-0.
 00382856,0.00365880,-0.00093358,0.00139942,0.00478627,0.00185482,-0.00
 032522,-0.00027152,0.00005855,0.00256145,0.00567554,0.00389177,0.01207
 236,-0.00037779,-0.00256688,-0.00012461,-0.00300185,-0.00041364,-0.000
 53302,-0.00042817,0.00089215,0.00011069,-0.00000239,-0.00003688,-0.000
 18420,0.00059240,-0.00029160,-0.00045671,-0.00041765,0.00024087,0.0000
 1014,-0.00001439,0.00000281,-0.00012054,0.00007865,-0.00012613,0.00063
 448,0.00005733,0.00000910,-0.00008222,-0.00016961,0.00043169,-0.000171
 82,0.00003031,0.00005454,-0.00006520,-0.00007367,-0.00004896,-0.000046
 87,-0.00002111,-0.00001380,0.00012510,0.00018120,0.00000662,0.00017726
 ,0.00006330,-0.00004728,-0.00009543,-0.00003951,0.00001627,0.00012046,
 0.00007111,-0.00002860,0.00001061,0.00000390,0.00000802,0.00001023,0.0
 0000517,0.00000027,-0.00001571,-0.00025943,-0.00031906,0.00023171,0.00
 056462,0.00012102,-0.00006017,-0.00007295,0.00005314,-0.00009135,-0.00
 000701,-0.00000958,-0.00002672,0.00001117,-0.00000371,0.00008452,0.000
 01767,-0.00002559,0.00007100,0.00004586,-0.00002546,-0.00003162,0.0000
 2363,0.00001675,0.00000959,-0.00000862,-0.00000520,0.00000937,-0.00000
 195,0.00000047,0.00000289,-0.00000170,-0.00000555,-0.00000060,0.000008
 72,-0.00000595,0.00000001,0.00000149,-0.00000180,0.00000656,-0.0000035
 8,-0.00000251,-0.00000587,0.00000242,-0.00000379,0.00000769,0.00000337
 ,0.00000433,-0.00001582,0.00001519,-0.00001309,-0.00002180,0.00000502,
 -0.00001808,-0.00029813,-0.00016138,0.00001376,0.00000388,0.00000294,-
 0.00000014,0.00000946,-0.00001796,-0.00001972,0.00000657,0.00001589,0.
 00000110,-0.00000598,0.00001380,0.00001203,-0.00000872,-0.00001768,-0.
 00005443,-0.00002285,-0.00002596,-0.00002033,0.00001306,0.00064291,0.0
 0029008,-0.00036161,-0.00103900,-0.00031948,0.00054036,-0.00011578,-0.
 00015282,-0.00164942,-0.00328474,-0.00109783,-0.09527372,0.05677565,0.
 04495255,-0.00785433,-0.06639392,0.02742186,-0.00951219,0.00050967,0.0
 0152266,0.00235601,-0.00503783,-0.00011888,0.00017315,-0.00095992,-0.0
 0148111,0.00352626,-0.00324785,-0.02446760,0.00744804,0.00815778,-0.00
 016577,-0.00120042,0.00128238,0.00075134,-0.00011653,-0.00102090,-0.00
 047369,-0.00007648,0.00021783,0.00014377,-0.00007781,-0.00023990,-0.00
 011662,0.00010869,0.00009627,-0.00002987,0.00003168,-0.00000110,0.0000
 5414,-0.00001046,-0.00011344,-0.00008031,0.00001851,0.00009970,-0.0000
 1033,0.00013859,0.00032093,0.00009132,0.00006375,-0.00004525,-0.000027
 84,-0.00000662,0.00005674,0.00002318,-0.00004051,0.00011234,-0.0000052
 1,-0.00005412,-0.00014457,-0.00008026,-0.00001902,-0.00002198,0.000037
 18,0.00002078,0.00004014,-0.00000471,0.00000539,-0.00004210,0.00000406
 ,-0.00001399,0.00000432,0.00000178,-0.00000749,-0.00000554,0.00000532,
 -0.00037257,-0.00014825,-0.00006465,0.00055628,-0.00001749,0.00000618,
 0.00007043,0.00025327,0.00000439,-0.00002711,0.00002472,0.00001521,-0.
 00000709,-0.00007172,0.00007251,-0.00001904,-0.00009557,-0.00006394,-0
 .00004920,-0.00004954,0.00000267,-0.00000057,-0.00000794,-0.00000168,0
 .,-0.00000611,0.00000509,-0.00000550,-0.00002090,-0.00000554,0.0000011
 2,-0.00000012,-0.00000785,-0.00000126,-0.00000147,0.00001365,0.0000147
 5,-0.00000918,-0.00000288,0.00000008,-0.00000028,-0.00000177,0.0000024
 3,-0.00000329,-0.00000382,0.00000093,-0.00000118,0.00000712,-0.0000066
 3,-0.00000631,-0.00001140,0.00001282,-0.00001755,-0.00008084,-0.000050
 27,0.00001539,-0.00002339,-0.00000632,-0.00003397,0.00000984,0.0000031
 3,-0.00002460,0.00000087,0.00000136,-0.00001245,0.00001271,0.00000405,
 -0.00001752,-0.00001059,0.00002547,-0.00007015,0.00009107,-0.00001026,
 0.00015521,0.00158343,-0.00035124,-0.00006609,-0.00009336,-0.00034003,
 0.00012246,-0.00126092,0.00037398,0.00025406,-0.00011061,-0.00124797,0
 .00069409,-0.04684850,0.00497570,0.06633655,-0.00055676,-0.00000179,0.
 00041064,0.00021954,-0.00183350,0.00000288,-0.00023857,0.00000684,-0.0
 0004710,0.00014785,-0.00011529,0.00001586,0.00016332,-0.00004223,-0.00
 005569,0.00008476,-0.00014485,-0.00043235,-0.01058665,0.00370885,0.026
 58106,-0.11580622,0.02522373,0.11371121,0.01195914,-0.00027369,-0.0173
 1342,-0.00139853,0.00077809,0.00058956,0.00001712,-0.00034986,0.000072
 82,0.00033640,0.00022729,-0.00012181,-0.00038522,-0.00029426,-0.000047
 94,0.00087931,0.00125004,0.00046551,0.00001377,-0.00080851,0.00015497,
 -0.00021470,-0.00026253,0.00014030,-0.00000442,-0.00004147,-0.00007516
 ,0.00006634,-0.00001919,0.00003330,-0.00006056,0.00001528,-0.00006125,
 0.00011613,0.00011331,-0.00004181,-0.00004451,-0.00004686,-0.00001927,
 0.00005257,0.00007566,0.00000562,0.00000639,0.00001248,0.00000773,0.00
 000298,0.00000767,0.00000242,0.00012572,0.00026371,-0.00043542,-0.0033
 9788,-0.00135925,0.00340707,-0.00073513,0.00082522,0.00103754,-0.00033
 345,-0.00018256,0.00003652,0.00005207,-0.00018531,-0.00023634,0.000119
 68,-0.00014966,-0.00019479,-0.00163566,-0.00027255,0.00049090,-0.00005
 528,0.00005719,0.00003619,0.00004585,-0.00009428,-0.00006201,0.0000168
 5,0.00000798,-0.00000844,0.00000448,-0.00000052,-0.00000128,0.00000298
 ,0.00000528,-0.00000760,-0.00000564,0.00000320,0.00000007,0.00000015,-
 0.00000250,0.00000073,-0.00000168,-0.00000155,-0.00000524,0.00000548,0
 .00000326,0.00000219,-0.00007199,-0.00004675,0.00000793,-0.00003159,-0
 .00002958,0.00000060,-0.00016582,0.00009641,-0.00025143,-0.00000539,0.
 00000636,0.00000061,-0.00000036,-0.00000641,-0.00000750,-0.00000698,0.
 00001045,-0.00000650,0.00072232,0.00003652,0.00052173,0.00014733,-0.00
 052005,0.00101322,-0.00220356,0.00043532,-0.00351021,0.00018674,0.0000
 2509,-0.00007350,0.00000934,0.00000074,0.00000237,0.00008182,0.0000412
 6,0.00000284,-0.00001667,0.00002148,0.00000739,0.00030398,0.00093150,-
 0.00111395,0.12433655,0.00085967,-0.00046612,-0.00004157,-0.00228519,-
 0.00304204,-0.00003046,-0.00018086,0.00011599,-0.00033003,-0.00003304,
 -0.00003689,0.00028653,0.00011528,-0.00002744,-0.00025101,-0.00062953,
 -0.00003022,0.00007492,0.00858583,0.00205490,-0.01622147,0.02702232,-0
 .04516043,-0.03605695,-0.00091647,0.00321189,0.00299517,0.00043414,0.0
 0071731,-0.00063085,-0.00160607,-0.00291186,0.00078586,-0.00008166,-0.
 00053979,0.00019538,-0.00037763,0.00043193,-0.00023590,0.00262979,-0.0
 0066310,-0.00072940,-0.00061625,0.00026419,0.00014457,-0.00014660,-0.0
 0013026,-0.00006705,-0.00016339,0.00000970,-0.00001166,-0.00036098,0.0
 0004830,-0.00021392,0.00074413,0.00060052,0.00011543,0.00023524,-0.000
 04936,-0.00005803,-0.00011145,0.00005882,0.00003370,0.00016294,-0.0000
 5742,-0.00007267,0.00001336,0.00000108,-0.00000864,0.00001211,-0.00000
 169,0.00000097,0.00094807,0.00050321,-0.00062954,-0.00705613,-0.003767
 30,0.00723988,0.00015102,0.00000839,-0.00001555,-0.00034192,-0.0000906
 3,-0.00005346,-0.00007813,-0.00010720,0.00002389,-0.00004416,0.0000350
 1,0.00009733,0.00006106,0.00031901,-0.00027091,-0.00010316,0.00009098,
 0.00008437,0.00002802,-0.00005157,-0.00003260,0.00001183,0.00000522,0.
 00003319,0.00001773,-0.00000262,-0.00000813,0.00000235,0.00000167,0.00
 000040,-0.00002024,-0.00000586,0.00001860,0.00001759,-0.00000277,-0.00
 000686,-0.00000706,0.00000785,0.00000612,0.00000410,-0.00000303,0.0000
 0405,-0.00003089,0.00006561,-0.00003262,-0.00003165,-0.00009329,0.0000
 6872,-0.00012558,0.00008835,-0.00012265,0.00004077,-0.00001871,-0.0000
 0082,0.00000050,-0.00004910,-0.00003493,0.00005020,0.00000859,0.000030
 75,-0.00081756,0.00055793,0.00000892,0.00006742,0.00010961,0.00078309,
 0.00028542,0.00103700,0.00160927,-0.00012141,0.00011196,0.00006919,-0.
 00003287,0.00001440,-0.00000915,-0.00000722,0.00011723,0.00002563,0.00
 003990,0.00000449,-0.00000096,0.00046834,-0.00002274,0.00163030,-0.031
 91441,0.04195169,-0.00089325,0.00051256,-0.00038590,0.00006236,0.00035
 652,-0.00072290,0.00008497,-0.00002808,-0.00002799,0.00010472,-0.00003
 112,-0.00002254,-0.00002170,0.00002720,-0.00013132,-0.00027740,-0.0001
 3521,0.00009128,0.00044770,-0.00091956,0.00462052,0.11697261,-0.035760
 31,-0.28012369,0.01160442,-0.00167868,-0.01816299,0.00056873,-0.001340
 26,-0.00205433,-0.00054656,-0.00025038,0.00056258,0.00009586,0.0003187
 9,-0.00008282,0.00010139,-0.00034261,-0.00021235,0.00065402,-0.0001187
 6,0.00037088,0.00043422,0.00046457,0.00064457,0.00002314,0.00000137,0.
 00003861,-0.00002993,0.00000181,0.00001872,-0.00004859,-0.00001365,0.0
 0000898,0.00016248,0.00014101,-0.00010977,-0.00000815,-0.00001648,-0.0
 0002965,0.00002867,0.00003640,0.00001879,0.00001081,-0.00001278,-0.000
 03191,0.00000445,-0.00000964,0.00001026,-0.00000011,-0.00000333,-0.000
 00273,-0.00008524,-0.00017201,-0.00001035,-0.00056706,-0.00049478,0.00
 014777,0.00067927,0.00018186,-0.00007767,-0.00011331,-0.00004538,-0.00
 002288,0.00003177,-0.00008434,-0.00012449,0.00007915,-0.00004818,-0.00
 018123,0.00051679,-0.00047756,-0.00023569,-0.00001072,0.00003462,0.000
 03050,0.00000567,-0.00002472,-0.00001123,0.00000797,-0.00000048,-0.000
 00909,-0.00000462,0.00000262,-0.00000321,-0.00000637,-0.00000184,-0.00
 000262,0.00001384,0.00001190,-0.00001003,0.00000193,0.00000095,-0.0000
 0051,-0.00000087,0.00000171,0.00000043,-0.00000244,-0.00000221,-0.0000
 0133,-0.00001004,-0.00002915,-0.00001096,-0.00005483,0.00004310,-0.000
 09342,-0.00003463,-0.00000807,-0.00000413,-0.00000244,-0.00000526,-0.0
 0001238,0.00000595,-0.00000665,-0.00001644,0.00000633,0.00000191,-0.00
 000135,0.00027225,-0.00001891,0.00097429,-0.00025596,-0.00049239,-0.00
 000028,-0.00316353,-0.00021915,-0.00262470,0.00004257,-0.00003622,0.00
 001776,-0.00000121,-0.00001091,0.00000998,-0.00000041,0.00004017,-0.00
 000276,0.00000366,0.00002399,-0.00001043,-0.00116658,0.00168608,-0.000
 90171,-0.12450500,0.03845928,0.29791280,-0.00181224,0.00238081,-0.0020
 6100,0.00921270,-0.00074773,-0.01374918,0.00055832,-0.00035235,-0.0022
 6276,0.00001629,-0.00026973,0.00035123,-0.00002568,0.00002760,-0.00005
 167,0.00080023,-0.00004969,-0.00047836,-0.11135820,0.02203558,0.109636
 03,-0.01212484,0.00454619,0.02890554,0.00088075,-0.00264315,0.00168394
 ,0.00000298,0.00057699,0.00018968,-0.00027679,-0.00040382,0.00014107,-
 0.00007723,-0.00008358,0.00005305,-0.00001370,0.00015473,-0.00012124,0
 .00026145,-0.00016928,0.00002777,0.00043633,0.00048147,0.00060492,0.00
 004486,-0.00007518,-0.00001379,-0.00003661,0.00001322,-0.00000420,-0.0
 0004612,-0.00000251,-0.00000544,0.00011177,0.00008944,-0.00000011,0.00
 000520,0.00004534,0.00001422,-0.00000900,-0.00003260,0.00000400,0.0000
 0028,0.00001480,-0.00000982,0.00001135,-0.00000372,0.00000178,0.000007
 44,-0.00000097,-0.00000565,-0.00044395,-0.00003664,0.00017965,0.001017
 35,-0.00134425,-0.00189874,-0.00005305,-0.00011610,-0.00011501,-0.0000
 2465,0.00002465,-0.00003079,-0.00003229,0.00004540,0.00005047,0.000001
 13,0.00001185,0.00001034,0.00006900,0.00009522,0.00007635,-0.00001529,
 0.00000831,0.00001028,-0.00000162,0.00001151,0.00000807,0.00000197,-0.
 00000527,-0.00000391,-0.00000879,-0.00000204,-0.00000009,-0.00000275,0
 .00000439,0.00000035,0.00000748,0.00000338,-0.00000390,-0.00000506,-0.
 00000094,-0.00000008,-0.00000154,0.00000052,-0.00000175,0.00000057,0.0
 0000347,0.00000199,0.00000824,0.00001371,-0.00001335,-0.00000453,0.000
 02376,-0.00000928,-0.00000989,0.00004176,-0.00001296,0.00000223,-0.000
 00819,-0.00000967,-0.00000132,-0.00000610,-0.00000888,0.00000510,0.000
 00277,0.00000149,0.00042741,-0.00003777,-0.00020800,-0.00043728,0.0000
 6602,-0.00031780,-0.00017680,0.00037034,-0.00083133,-0.00041669,0.0003
 7189,0.00027420,0.00001000,-0.00000142,0.00001782,0.00000428,0.0000445
 4,0.00004054,-0.00014890,0.00001400,-0.00019811,0.00006714,-0.00010011
 ,-0.00006599,-0.00226377,0.00523239,-0.00121677,0.11585678,0.00252494,
 0.00221642,0.00104657,-0.00177480,0.00444483,0.01262576,-0.00167558,-0
 .00133157,0.00058788,0.00003116,0.00009454,0.00007828,-0.00021158,0.00
 024583,0.00012048,0.00014378,-0.00058455,0.00052478,0.01457365,-0.0435
 5465,-0.02605396,0.01106626,-0.00092691,-0.01223952,-0.00110290,-0.002
 90749,-0.00050959,-0.00009234,-0.00009736,0.00009145,0.00002814,0.0000
 9097,-0.00006629,-0.00000658,0.00002780,-0.00003112,-0.00000707,-0.000
 04690,0.00000340,0.00005857,0.00015122,0.00002255,0.00079450,0.0009498
 0,0.00140759,0.00012871,-0.00004365,-0.00002810,-0.00000038,0.00001450
 ,0.00000199,0.00003330,-0.00000875,0.00003989,-0.00005982,-0.00003015,
 -0.00001914,-0.00005311,0.00008987,0.00007969,0.00001777,-0.00006554,-
 0.00002412,-0.00005901,0.00003790,0.00001563,0.00000784,-0.00000551,0.
 00001425,0.00000287,0.00000114,0.00000075,-0.00104645,-0.00112729,0.00
 031874,0.00240990,0.00062550,-0.00330944,0.00004751,0.00007301,0.00009
 459,-0.00003339,-0.00002539,0.00000551,0.00001567,-0.00003746,-0.00003
 584,0.00000438,-0.00001148,-0.00001722,-0.00003819,-0.00006661,-0.0000
 7230,-0.00000315,0.00000660,0.00000182,0.00000233,-0.00001047,-0.00000
 523,0.00000213,0.00000262,-0.00000100,-0.00002780,0.00000037,-0.000002
 23,-0.00000393,0.00000718,0.00000348,0.00003069,0.00000111,-0.00002360
 ,-0.00001010,0.00000102,0.00000025,0.00000064,-0.00000269,-0.00000187,
 0.00000101,0.00000436,0.00000054,-0.00000042,-0.00000735,0.00000412,-0
 .00002166,0.00000748,-0.00000822,0.00002258,0.00001052,-0.00001261,-0.
 00000852,-0.00000800,-0.00001279,-0.00000345,0.00000178,0.00000012,-0.
 00000539,0.00000079,-0.00000445,0.00004511,-0.00011420,0.00009118,-0.0
 0059197,0.00000616,-0.00036286,-0.00002517,0.00007231,0.00079843,0.000
 37551,0.00023835,-0.00013732,0.00001719,-0.00002358,0.00000109,0.00001
 755,0.00000522,-0.00000503,-0.00004493,-0.00036770,0.00004848,-0.00004
 228,-0.00002226,-0.00007870,0.00480921,0.00477857,0.00049069,-0.030262
 93,0.03721975,-0.00378698,0.00169656,-0.00164627,0.01241649,-0.0022054
 8,-0.02020809,0.00206020,-0.00069008,0.00079914,-0.00030000,0.00026420
 ,0.00023112,-0.00011419,-0.00003439,0.00023897,0.00128494,-0.00008480,
 -0.00065908,0.10846514,-0.02559545,-0.27653940,0.00130912,0.00000793,0
 .00119897,-0.00139567,-0.00034784,0.00128745,-0.00004253,-0.00007126,0
 .00008138,0.00010822,0.00010285,-0.00005523,0.00002692,0.00000833,0.00
 000632,-0.00002706,-0.00001307,0.00004135,0.00000111,0.00004460,-0.000
 03543,-0.00019712,-0.00000679,0.00007221,0.00013381,0.00005480,-0.0001
 0586,0.00001664,0.00002347,-0.00000251,-0.00000425,0.00001495,-0.00002
 849,-0.00004056,0.00002295,0.00006991,-0.00001965,0.00004932,0.0001121
 6,-0.00001611,-0.00006104,-0.00004193,-0.00005354,0.00000069,0.0000475
 4,0.00000639,-0.00000049,-0.00000277,0.00000656,0.00000454,-0.00000288
 ,-0.00017794,-0.00048439,0.00002511,0.00014578,0.00135273,0.00015985,-
 0.00000274,0.00001080,0.00001946,-0.00000444,-0.00000716,0.00000342,0.
 00000428,-0.00001356,-0.00000306,-0.00000848,0.00000180,0.00001365,-0.
 00000892,-0.00000336,-0.00002182,-0.00000011,0.00000042,0.00000020,0.0
 0000278,-0.00000515,-0.00000272,-0.00000064,0.00000214,0.00000475,-0.0
 0001552,-0.00000284,0.00000255,0.00000200,0.00000606,0.00000736,0.0000
 0677,-0.00001181,-0.00000109,-0.00000589,0.00000233,-0.00000328,-0.000
 00055,0.00000038,0.00000883,0.00000225,0.00000036,0.00000387,-0.000004
 22,-0.00000162,0.00000300,0.00000695,-0.00000536,0.00000697,0.00001704
 ,0.00004604,0.00003285,0.00000456,-0.00000106,0.00001496,-0.00000522,-
 0.00000137,0.00001037,-0.00000018,-0.00000060,0.00000241,-0.00005031,0
 .00000327,0.00005743,-0.00006166,-0.00005548,-0.00001562,0.00050953,0.
 00000432,0.00051491,-0.00125807,0.00006702,0.00047699,-0.00003554,0.00
 000315,-0.00001785,-0.00008193,-0.00002306,0.00003853,-0.00022859,0.00
 014984,-0.00029085,0.00011310,-0.00011323,0.00010383,-0.00012680,0.001
 35228,0.00099107,-0.11857516,0.02454258,0.29299532\\-0.00000006,-0.000
 00067,-0.00000105,-0.00000044,-0.00000033,0.00000046,0.00000019,0.0000
 0113,0.00000041,0.00000070,0.00000030,0.00000026,0.00000022,0.00000026
 ,0.00000026,-0.00000004,0.00000024,-0.00000001,0.00000147,0.00000258,-
 0.00000111,-0.00000091,-0.00000003,-0.00000088,0.00000196,-0.00000018,
 -0.00000060,-0.00000218,-0.00000018,-0.00000040,-0.00000051,-0.0000010
 7,0.00000183,-0.00000067,-0.00000036,0.00000017,0.00000085,-0.00000206
 ,-0.00000074,0.00000019,0.00000085,0.00000011,-0.00000283,-0.00000079,
 0.00000145,0.00000212,0.00000072,-0.00000005,-0.00000034,0.00000052,-0
 .00000025,-0.00000038,-0.00000036,-0.00000016,-0.00000040,0.00000016,0
 .00000026,0.00000075,0.00000013,-0.00000035,-0.00000060,0.00000037,0.0
 0000056,-0.00000047,0.00000013,-0.00000003,-0.00000025,0.00000007,0.00
 000073,-0.00000047,0.00000048,0.00000030,0.00000178,0.00000216,-0.0000
 0205,-0.00000012,-0.00000181,0.00000080,-0.00000019,-0.00000016,0.0000
 0005,-0.00000058,-0.00000037,-0.00000059,-0.00000009,-0.00000085,-0.00
 000017,0.00000028,-0.00000080,-0.00000057,-0.00000124,-0.00000027,-0.0
 0000120,-0.00000026,-0.00000046,-0.00000050,-0.00000003,-0.00000079,-0
 .00000018,-0.00000051,-0.00000056,-0.00000025,-0.00000009,0.00000055,0
 .00000047,-0.00000036,0.00000054,0.00000015,-0.00000024,0.00000046,0.0
 0000023,-0.00000018,0.00000039,0.00000046,-0.00000015,0.00000037,0.000
 00047,-0.00000039,0.00000063,0.00000055,-0.00000006,-0.00000026,-0.000
 00038,0.00000034,-0.00000026,-0.00000012,0.00000030,0.00000030,0.00000
 089,-0.00000063,-0.00000026,0.00000013,0.00000002,0.00000016,0.0000004
 7,-0.00000055,0.00000016,-0.00000040,0.00000063,-0.00000060,0.,-0.0000
 0016,0.00000009,0.00000023,0.00000048,-0.00000047,-0.00000019,0.000000
 74,-0.00000007,0.00000002,0.00000053,0.00000052,0.00000027,0.00000030,
 0.00000015,0.00000019,0.00000015,-0.00000004,-0.00000005,0.00000115,0.
 00000048,0.00000039,0.00000020,0.00000012,-0.00000078,0.00000103,-0.00
 000097,0.00000053\\\@
 The archive entry for this job was punched.


       THE DEATH-KNELL OF THE ATOM

 SO THE ATOMS IN TURN, WE NOW CLEARLY DISCERN,
 FLY TO BITS WITH THE UTMOST FACILITY;
 THEY WEND ON THEIR WAY, AND, IN SPLITTING, DISPLAY
 AN ABSOLUTE LACK OF STABILITY.

          SIR WM. RAMSAY, 1905
 Job cpu time:       0 days  2 hours 27 minutes  2.5 seconds.
 Elapsed time:       0 days  0 hours  9 minutes 27.7 seconds.
 File lengths (MBytes):  RWF=   1484 Int=      0 D2E=      0 Chk=     17 Scr=      1
 Normal termination of Gaussian 16 at Sun Sep 27 15:03:40 2026.
