# Frequency-only re-run at the converged geometry from hat_gs.out
# (regenerates hat_gs_freq.hess for Kinisot)
! m062x d3zero 6-31+g** autoaux Freq SMD(dichloromethane)
!pal16

%scf
  Flipspin 10
  FinalMs 0.0
end

*xyz 0 3
  C        3.274549      -1.305944      -0.586568
  N        4.104598      -0.510517       0.114595
  C        3.568179       0.619984       0.611005
  C        2.247806       0.999416       0.447224
  C        1.371077       0.157342      -0.289067
  C        0.017557       0.484445      -0.493614
  C       -1.045390      -0.279206      -1.210276
  O       -0.464570       1.631194       0.022890
  C       -1.860983       1.764866      -0.319103
  C       -2.351125       0.345207      -0.629868
  C       -2.852250      -0.407129       0.566320
  C       -3.758907      -1.570834       0.319713
  C       -2.002600      -0.427847       1.796759
  C        1.937990      -1.033692      -0.816960
  H        3.711851      -2.217584      -0.987868
  H        4.242542       1.259052       1.176935
  H        1.888286       1.928042       0.877199
  H       -0.971191      -1.358653      -1.044945
  H       -0.990905      -0.098286      -2.292267
  H       -3.127520       0.376092      -1.399478
  H       -3.192023      -2.461669      -0.002789
  H       -4.298771      -1.856497       1.229037
  H       -4.490747      -1.355758      -0.466420
  H       -1.670871       0.573601       2.093958
  H       -2.533742      -0.881017       2.639341
  H       -1.085168      -1.023774       1.633933
  H        1.338920      -1.725491      -1.400691
  H       -2.362655       2.236583       0.528289
  H       -1.931250       2.414497      -1.197194
*
