# Frequency-only re-run at the converged geometry from hat_ts.out
# (regenerates hat_ts_freq.hess for Kinisot)
! m062x d3zero 6-31+g** autoaux Freq SMD(dichloromethane)
!pal16

%scf
  Flipspin 10
  FinalMs 0.0
end

*xyz 0 3
  C        3.234111      -1.399210      -0.232791
  N        4.049359      -0.511696       0.364092
  C        3.498601       0.665536       0.697374
  C        2.171769       1.004138       0.472165
  C        1.315913       0.066881      -0.149490
  C       -0.069348       0.348753      -0.369051
  C       -1.025730      -0.316046      -1.276716
  O       -0.505729       1.632004      -0.121410
  C       -1.882344       1.746776      -0.524962
  C       -2.389531       0.310956      -0.752628
  C       -2.753476      -0.429951       0.470422
  C       -3.735480      -1.553659       0.374560
  C       -1.834608      -0.278807       1.545303
  C        1.897573      -1.170176      -0.512838
  H        3.683501      -2.350606      -0.509450
  H        4.162037       1.385514       1.172385
  H        1.799518       1.978100       0.770236
  H       -0.987412      -1.407872      -1.236626
  H       -0.917558       0.018809      -2.314740
  H       -3.158716       0.263607      -1.526106
  H       -4.751290      -1.171950       0.205948
  H       -3.510240      -2.215196      -0.474081
  H       -3.747783      -2.153677       1.288175
  H       -1.633160       0.750580       1.875070
  H       -1.938436      -0.968311       2.383555
  H       -0.744720      -0.384158       0.966822
  H        1.313539      -1.939771      -1.008086
  H       -2.421783       2.284921       0.259552
  H       -1.928378       2.316612      -1.458086
*
