 Entering Gaussian System, Link 0=g16
 Input=/bigdata/rhome/djo04747/Documents/Gaussian/biphenyl_dimethyl_mislow/dihydrodimethylphenanthrene_gs.gjf
 Output=/bigdata/rhome/djo04747/Documents/Gaussian/biphenyl_dimethyl_mislow/dihydrodimethylphenanthrene_gs.log
 Initial command:
 /opt/linux/rocky/8/software/gaussian/16c01_avx2/g16/l1.exe "/scratch/djo04747/19745/Gau-34696.inp" -scrdir="/scratch/djo04747/19745/"
 Entering Link 1 = /opt/linux/rocky/8/software/gaussian/16c01_avx2/g16/l1.exe PID=     34698.
  
 Copyright (c) 1988-2019, Gaussian, Inc.  All Rights Reserved.
  
 This is part of the Gaussian(R) 16 program.  It is based on
 the Gaussian(R) 09 system (copyright 2009, Gaussian, Inc.),
 the Gaussian(R) 03 system (copyright 2003, Gaussian, Inc.),
 the Gaussian(R) 98 system (copyright 1998, Gaussian, Inc.),
 the Gaussian(R) 94 system (copyright 1995, Gaussian, Inc.),
 the Gaussian 92(TM) system (copyright 1992, Gaussian, Inc.),
 the Gaussian 90(TM) system (copyright 1990, Gaussian, Inc.),
 the Gaussian 88(TM) system (copyright 1988, Gaussian, Inc.),
 the Gaussian 86(TM) system (copyright 1986, Carnegie Mellon
 University), and the Gaussian 82(TM) system (copyright 1983,
 Carnegie Mellon University). Gaussian is a federally registered
 trademark of Gaussian, Inc.
  
 This software contains proprietary and confidential information,
 including trade secrets, belonging to Gaussian, Inc.
  
 This software is provided under written license and may be
 used, copied, transmitted, or stored only in accord with that
 written license.
  
 The following legend is applicable only to US Government
 contracts under FAR:
  
                    RESTRICTED RIGHTS LEGEND
  
 Use, reproduction and disclosure by the US Government is
 subject to restrictions as set forth in subparagraphs (a)
 and (c) of the Commercial Computer Software - Restricted
 Rights clause in FAR 52.227-19.
  
 Gaussian, Inc.
 340 Quinnipiac St., Bldg. 40, Wallingford CT 06492
  
  
 ---------------------------------------------------------------
 Warning -- This program may not be used in any manner that
 competes with the business of Gaussian, Inc. or will provide
 assistance to any competitor of Gaussian, Inc.  The licensee
 of this program is prohibited from giving any competitor of
 Gaussian, Inc. access to this program.  By using this program,
 the user acknowledges that Gaussian, Inc. is engaged in the
 business of creating and licensing software in the field of
 computational chemistry and represents and warrants to the
 licensee that it is not a competitor of Gaussian, Inc. and that
 it will not use this program in any manner prohibited above.
 ---------------------------------------------------------------
  

 Cite this work as:
 Gaussian 16, Revision C.01,
 M. J. Frisch, G. W. Trucks, H. B. Schlegel, G. E. Scuseria, 
 M. A. Robb, J. R. Cheeseman, G. Scalmani, V. Barone, 
 G. A. Petersson, H. Nakatsuji, X. Li, M. Caricato, A. V. Marenich, 
 J. Bloino, B. G. Janesko, R. Gomperts, B. Mennucci, H. P. Hratchian, 
 J. V. Ortiz, A. F. Izmaylov, J. L. Sonnenberg, D. Williams-Young, 
 F. Ding, F. Lipparini, F. Egidi, J. Goings, B. Peng, A. Petrone, 
 T. Henderson, D. Ranasinghe, V. G. Zakrzewski, J. Gao, N. Rega, 
 G. Zheng, W. Liang, M. Hada, M. Ehara, K. Toyota, R. Fukuda, 
 J. Hasegawa, M. Ishida, T. Nakajima, Y. Honda, O. Kitao, H. Nakai, 
 T. Vreven, K. Throssell, J. A. Montgomery, Jr., J. E. Peralta, 
 F. Ogliaro, M. J. Bearpark, J. J. Heyd, E. N. Brothers, K. N. Kudin, 
 V. N. Staroverov, T. A. Keith, R. Kobayashi, J. Normand, 
 K. Raghavachari, A. P. Rendell, J. C. Burant, S. S. Iyengar, 
 J. Tomasi, M. Cossi, J. M. Millam, M. Klene, C. Adamo, R. Cammi, 
 J. W. Ochterski, R. L. Martin, K. Morokuma, O. Farkas, 
 J. B. Foresman, and D. J. Fox, Gaussian, Inc., Wallingford CT, 2019.
 
 ******************************************
 Gaussian 16:  ES64L-G16RevC.01  3-Jul-2019
                20-May-2025 
 ******************************************
 %chk=dihydrodimethylphenanthrene_gs.chk
 %nprocshared=32
 Will use up to   32 processors via shared memory.
 ----------------------------------------------------------------------
 #P opt=vtight freq rb3lyp/6-31g(d,p) integral=grid=ultrafine scf=conve
 r=10
 ----------------------------------------------------------------------
 1/7=1,18=20,19=15,26=4,38=1/1,3;
 2/9=110,12=2,17=6,18=5,40=1/2;
 3/5=1,6=6,7=101,11=2,25=1,30=1,71=1,74=-5,75=-5,116=1/1,2,3;
 4//1;
 5/5=2,6=10,38=5/2;
 6/7=2,8=2,9=2,10=2,28=1/1;
 7//1,2,3,16;
 1/7=1,18=20,19=15,26=4/3(2);
 2/9=110/2;
 99//99;
 2/9=110/2;
 3/5=1,6=6,7=101,11=2,25=1,30=1,71=1,74=-5,75=-5,116=1/1,2,3;
 4/5=5,16=3,69=1/1;
 5/5=2,6=10,38=5/2;
 7//1,2,3,16;
 1/7=1,18=20,19=15,26=4/3(-5);
 2/9=110/2;
 6/7=2,8=2,9=2,10=2,19=2,28=1/1;
 99/9=1/99;
 Leave Link    1 at Tue May 20 08:10:31 2025, MaxMem=           0 cpu:               3.2 elap:               0.1
 (Enter /opt/linux/rocky/8/software/gaussian/16c01_avx2/g16/l101.exe)
 -------------------
 Title Card Required
 -------------------
 Symbolic Z-matrix:
 Charge =  0 Multiplicity = 1
 C                     2.77195   1.21545  -0.51414 
 C                     1.38622   1.15544  -0.39483 
 C                     0.74709  -0.0496   -0.00154 
 C                     1.54926  -1.12831   0.44135 
 C                     2.94367  -1.03577   0.30621 
 C                     3.55505   0.1044   -0.19998 
 H                     3.24049   2.14413  -0.82982 
 H                     3.55497  -1.87237   0.63627 
 H                     4.63597   0.14908  -0.29743 
 C                    -0.74709  -0.0496    0.00154 
 C                    -1.54926  -1.12831  -0.44135 
 C                    -1.38622   1.15544   0.39483 
 C                    -2.94367  -1.03577  -0.30621 
 C                    -2.77195   1.21545   0.51414 
 C                    -3.55505   0.1044    0.19998 
 H                    -3.55497  -1.87237  -0.63627 
 H                    -3.24049   2.14413   0.82981 
 H                    -4.63597   0.14908   0.29743 
 C                     0.53039   2.39175  -0.55719 
 H                     0.02233   2.40322  -1.53194 
 H                     1.15646   3.28842  -0.50749 
 C                    -0.53039   2.39175   0.55719 
 H                    -0.02233   2.40322   1.53194 
 H                    -1.15646   3.28842   0.50749 
 C                     1.00067  -2.34149   1.16277 
 H                     1.61793  -2.55241   2.04214 
 H                     0.02502  -2.18948  -1.5024 
 H                     1.01819  -3.24186   0.53918 
 C                    -1.00067  -2.34149  -1.16277 
 H                    -1.61793  -2.55241  -2.04214 
 H                    -0.02502  -2.18948   1.5024 
 H                    -1.01819  -3.24186  -0.53918 
 
 ITRead=  0  0  0  0  0  0  0  0  0  0  0  0  0  0  0  0  0  0  0  0
 ITRead=  0  0  0  0  0  0  0  0  0  0  0  0
 MicOpt= -1 -1 -1 -1 -1 -1 -1 -1 -1 -1 -1 -1 -1 -1 -1 -1 -1 -1 -1 -1
 MicOpt= -1 -1 -1 -1 -1 -1 -1 -1 -1 -1 -1 -1
 NAtoms=     32 NQM=       32 NQMF=       0 NMMI=      0 NMMIF=      0
                NMic=       0 NMicF=      0.
                    Isotopes and Nuclear Properties:
 (Nuclear quadrupole moments (NQMom) in fm**2, nuclear magnetic moments (NMagM)
  in nuclear magnetons)

  Atom         1           2           3           4           5           6           7           8           9          10
 IAtWgt=          12          12          12          12          12          12           1           1           1          12
 AtmWgt=  12.0000000  12.0000000  12.0000000  12.0000000  12.0000000  12.0000000   1.0078250   1.0078250   1.0078250  12.0000000
 NucSpn=           0           0           0           0           0           0           1           1           1           0
 AtZEff=  -0.0000000  -0.0000000  -0.0000000  -0.0000000  -0.0000000  -0.0000000  -0.0000000  -0.0000000  -0.0000000  -0.0000000
 NQMom=    0.0000000   0.0000000   0.0000000   0.0000000   0.0000000   0.0000000   0.0000000   0.0000000   0.0000000   0.0000000
 NMagM=    0.0000000   0.0000000   0.0000000   0.0000000   0.0000000   0.0000000   2.7928460   2.7928460   2.7928460   0.0000000
 AtZNuc=   6.0000000   6.0000000   6.0000000   6.0000000   6.0000000   6.0000000   1.0000000   1.0000000   1.0000000   6.0000000

  Atom        11          12          13          14          15          16          17          18          19          20
 IAtWgt=          12          12          12          12          12           1           1           1          12           1
 AtmWgt=  12.0000000  12.0000000  12.0000000  12.0000000  12.0000000   1.0078250   1.0078250   1.0078250  12.0000000   1.0078250
 NucSpn=           0           0           0           0           0           1           1           1           0           1
 AtZEff=  -0.0000000  -0.0000000  -0.0000000  -0.0000000  -0.0000000  -0.0000000  -0.0000000  -0.0000000  -0.0000000  -0.0000000
 NQMom=    0.0000000   0.0000000   0.0000000   0.0000000   0.0000000   0.0000000   0.0000000   0.0000000   0.0000000   0.0000000
 NMagM=    0.0000000   0.0000000   0.0000000   0.0000000   0.0000000   2.7928460   2.7928460   2.7928460   0.0000000   2.7928460
 AtZNuc=   6.0000000   6.0000000   6.0000000   6.0000000   6.0000000   1.0000000   1.0000000   1.0000000   6.0000000   1.0000000

  Atom        21          22          23          24          25          26          27          28          29          30
 IAtWgt=           1          12           1           1          12           1           1           1          12           1
 AtmWgt=   1.0078250  12.0000000   1.0078250   1.0078250  12.0000000   1.0078250   1.0078250   1.0078250  12.0000000   1.0078250
 NucSpn=           1           0           1           1           0           1           1           1           0           1
 AtZEff=  -0.0000000  -0.0000000  -0.0000000  -0.0000000  -0.0000000  -0.0000000  -0.0000000  -0.0000000  -0.0000000  -0.0000000
 NQMom=    0.0000000   0.0000000   0.0000000   0.0000000   0.0000000   0.0000000   0.0000000   0.0000000   0.0000000   0.0000000
 NMagM=    2.7928460   0.0000000   2.7928460   2.7928460   0.0000000   2.7928460   2.7928460   2.7928460   0.0000000   2.7928460
 AtZNuc=   1.0000000   6.0000000   1.0000000   1.0000000   6.0000000   1.0000000   1.0000000   1.0000000   6.0000000   1.0000000

  Atom        31          32
 IAtWgt=           1           1
 AtmWgt=   1.0078250   1.0078250
 NucSpn=           1           1
 AtZEff=  -0.0000000  -0.0000000
 NQMom=    0.0000000   0.0000000
 NMagM=    2.7928460   2.7928460
 AtZNuc=   1.0000000   1.0000000
 Leave Link  101 at Tue May 20 08:10:31 2025, MaxMem=   104857600 cpu:               1.2 elap:               0.1
 (Enter /opt/linux/rocky/8/software/gaussian/16c01_avx2/g16/l103.exe)

 GradGradGradGradGradGradGradGradGradGradGradGradGradGradGradGradGradGrad
 Berny optimization.
 Initialization pass.
                           ----------------------------
                           !    Initial Parameters    !
                           ! (Angstroms and Degrees)  !
 --------------------------                            --------------------------
 ! Name  Definition              Value          Derivative Info.                !
 --------------------------------------------------------------------------------
 ! R1    R(1,2)                  1.3921         estimate D2E/DX2                !
 ! R2    R(1,6)                  1.3951         estimate D2E/DX2                !
 ! R3    R(1,7)                  1.087          estimate D2E/DX2                !
 ! R4    R(2,3)                  1.4196         estimate D2E/DX2                !
 ! R5    R(2,19)                 1.5124         estimate D2E/DX2                !
 ! R6    R(3,4)                  1.4154         estimate D2E/DX2                !
 ! R7    R(3,10)                 1.4942         estimate D2E/DX2                !
 ! R8    R(4,5)                  1.404          estimate D2E/DX2                !
 ! R9    R(4,25)                 1.5143         estimate D2E/DX2                !
 ! R10   R(5,6)                  1.3892         estimate D2E/DX2                !
 ! R11   R(5,8)                  1.0874         estimate D2E/DX2                !
 ! R12   R(6,9)                  1.0862         estimate D2E/DX2                !
 ! R13   R(10,11)                1.4154         estimate D2E/DX2                !
 ! R14   R(10,12)                1.4196         estimate D2E/DX2                !
 ! R15   R(11,13)                1.404          estimate D2E/DX2                !
 ! R16   R(11,29)                1.5143         estimate D2E/DX2                !
 ! R17   R(12,14)                1.3921         estimate D2E/DX2                !
 ! R18   R(12,22)                1.5124         estimate D2E/DX2                !
 ! R19   R(13,15)                1.3892         estimate D2E/DX2                !
 ! R20   R(13,16)                1.0874         estimate D2E/DX2                !
 ! R21   R(14,15)                1.3951         estimate D2E/DX2                !
 ! R22   R(14,17)                1.087          estimate D2E/DX2                !
 ! R23   R(15,18)                1.0862         estimate D2E/DX2                !
 ! R24   R(19,20)                1.0993         estimate D2E/DX2                !
 ! R25   R(19,21)                1.0947         estimate D2E/DX2                !
 ! R26   R(19,22)                1.5385         estimate D2E/DX2                !
 ! R27   R(22,23)                1.0993         estimate D2E/DX2                !
 ! R28   R(22,24)                1.0947         estimate D2E/DX2                !
 ! R29   R(25,26)                1.0949         estimate D2E/DX2                !
 ! R30   R(25,28)                1.0954         estimate D2E/DX2                !
 ! R31   R(25,31)                1.0911         estimate D2E/DX2                !
 ! R32   R(27,29)                1.0911         estimate D2E/DX2                !
 ! R33   R(29,30)                1.0949         estimate D2E/DX2                !
 ! R34   R(29,32)                1.0954         estimate D2E/DX2                !
 ! A1    A(2,1,6)              120.3374         estimate D2E/DX2                !
 ! A2    A(2,1,7)              119.3902         estimate D2E/DX2                !
 ! A3    A(6,1,7)              120.2537         estimate D2E/DX2                !
 ! A4    A(1,2,3)              120.5628         estimate D2E/DX2                !
 ! A5    A(1,2,19)             121.2539         estimate D2E/DX2                !
 ! A6    A(3,2,19)             117.9613         estimate D2E/DX2                !
 ! A7    A(2,3,4)              118.5854         estimate D2E/DX2                !
 ! A8    A(2,3,10)             116.7944         estimate D2E/DX2                !
 ! A9    A(4,3,10)             124.4801         estimate D2E/DX2                !
 ! A10   A(3,4,5)              118.8517         estimate D2E/DX2                !
 ! A11   A(3,4,25)             123.6642         estimate D2E/DX2                !
 ! A12   A(5,4,25)             117.2872         estimate D2E/DX2                !
 ! A13   A(4,5,6)              121.7519         estimate D2E/DX2                !
 ! A14   A(4,5,8)              118.5806         estimate D2E/DX2                !
 ! A15   A(6,5,8)              119.6427         estimate D2E/DX2                !
 ! A16   A(1,6,5)              119.25           estimate D2E/DX2                !
 ! A17   A(1,6,9)              120.3716         estimate D2E/DX2                !
 ! A18   A(5,6,9)              120.2908         estimate D2E/DX2                !
 ! A19   A(3,10,11)            124.4801         estimate D2E/DX2                !
 ! A20   A(3,10,12)            116.7944         estimate D2E/DX2                !
 ! A21   A(11,10,12)           118.5854         estimate D2E/DX2                !
 ! A22   A(10,11,13)           118.8517         estimate D2E/DX2                !
 ! A23   A(10,11,29)           123.6642         estimate D2E/DX2                !
 ! A24   A(13,11,29)           117.2873         estimate D2E/DX2                !
 ! A25   A(10,12,14)           120.5627         estimate D2E/DX2                !
 ! A26   A(10,12,22)           117.9613         estimate D2E/DX2                !
 ! A27   A(14,12,22)           121.254          estimate D2E/DX2                !
 ! A28   A(11,13,15)           121.7519         estimate D2E/DX2                !
 ! A29   A(11,13,16)           118.5806         estimate D2E/DX2                !
 ! A30   A(15,13,16)           119.6427         estimate D2E/DX2                !
 ! A31   A(12,14,15)           120.3374         estimate D2E/DX2                !
 ! A32   A(12,14,17)           119.3901         estimate D2E/DX2                !
 ! A33   A(15,14,17)           120.2538         estimate D2E/DX2                !
 ! A34   A(13,15,14)           119.2501         estimate D2E/DX2                !
 ! A35   A(13,15,18)           120.2908         estimate D2E/DX2                !
 ! A36   A(14,15,18)           120.3715         estimate D2E/DX2                !
 ! A37   A(2,19,20)            111.4235         estimate D2E/DX2                !
 ! A38   A(2,19,21)            109.9419         estimate D2E/DX2                !
 ! A39   A(2,19,22)            108.2043         estimate D2E/DX2                !
 ! A40   A(20,19,21)           107.2195         estimate D2E/DX2                !
 ! A41   A(20,19,22)           108.8809         estimate D2E/DX2                !
 ! A42   A(21,19,22)           111.1875         estimate D2E/DX2                !
 ! A43   A(12,22,19)           108.2043         estimate D2E/DX2                !
 ! A44   A(12,22,23)           111.4235         estimate D2E/DX2                !
 ! A45   A(12,22,24)           109.9419         estimate D2E/DX2                !
 ! A46   A(19,22,23)           108.8809         estimate D2E/DX2                !
 ! A47   A(19,22,24)           111.1875         estimate D2E/DX2                !
 ! A48   A(23,22,24)           107.2194         estimate D2E/DX2                !
 ! A49   A(4,25,26)            109.4338         estimate D2E/DX2                !
 ! A50   A(4,25,28)            112.427          estimate D2E/DX2                !
 ! A51   A(4,25,31)            112.1622         estimate D2E/DX2                !
 ! A52   A(26,25,28)           106.8498         estimate D2E/DX2                !
 ! A53   A(26,25,31)           107.867          estimate D2E/DX2                !
 ! A54   A(28,25,31)           107.864          estimate D2E/DX2                !
 ! A55   A(11,29,27)           112.1623         estimate D2E/DX2                !
 ! A56   A(11,29,30)           109.4337         estimate D2E/DX2                !
 ! A57   A(11,29,32)           112.427          estimate D2E/DX2                !
 ! A58   A(27,29,30)           107.867          estimate D2E/DX2                !
 ! A59   A(27,29,32)           107.864          estimate D2E/DX2                !
 ! A60   A(30,29,32)           106.8498         estimate D2E/DX2                !
 ! D1    D(6,1,2,3)             -2.401          estimate D2E/DX2                !
 ! D2    D(6,1,2,19)           172.0751         estimate D2E/DX2                !
 ! D3    D(7,1,2,3)            179.1677         estimate D2E/DX2                !
 ! D4    D(7,1,2,19)            -6.3561         estimate D2E/DX2                !
 ! D5    D(2,1,6,5)             -3.6892         estimate D2E/DX2                !
 ! D6    D(2,1,6,9)            179.705          estimate D2E/DX2                !
 ! D7    D(7,1,6,5)            174.7284         estimate D2E/DX2                !
 ! D8    D(7,1,6,9)             -1.8773         estimate D2E/DX2                !
 ! D9    D(1,2,3,4)              8.5192         estimate D2E/DX2                !
 ! D10   D(1,2,3,10)          -175.5897         estimate D2E/DX2                !
 ! D11   D(19,2,3,4)          -166.135          estimate D2E/DX2                !
 ! D12   D(19,2,3,10)            9.7561         estimate D2E/DX2                !
 ! D13   D(1,2,19,20)          104.1169         estimate D2E/DX2                !
 ! D14   D(1,2,19,21)          -14.6109         estimate D2E/DX2                !
 ! D15   D(1,2,19,22)         -136.2152         estimate D2E/DX2                !
 ! D16   D(3,2,19,20)          -81.2678         estimate D2E/DX2                !
 ! D17   D(3,2,19,21)          160.0045         estimate D2E/DX2                !
 ! D18   D(3,2,19,22)           38.4001         estimate D2E/DX2                !
 ! D19   D(2,3,4,5)             -8.5087         estimate D2E/DX2                !
 ! D20   D(2,3,4,25)           166.2479         estimate D2E/DX2                !
 ! D21   D(10,3,4,5)           175.9413         estimate D2E/DX2                !
 ! D22   D(10,3,4,25)           -9.302          estimate D2E/DX2                !
 ! D23   D(2,3,10,11)          139.5847         estimate D2E/DX2                !
 ! D24   D(2,3,10,12)          -36.0378         estimate D2E/DX2                !
 ! D25   D(4,3,10,11)          -44.7928         estimate D2E/DX2                !
 ! D26   D(4,3,10,12)          139.5847         estimate D2E/DX2                !
 ! D27   D(3,4,5,6)              2.5876         estimate D2E/DX2                !
 ! D28   D(3,4,5,8)           -179.2307         estimate D2E/DX2                !
 ! D29   D(25,4,5,6)          -172.5027         estimate D2E/DX2                !
 ! D30   D(25,4,5,8)             5.679          estimate D2E/DX2                !
 ! D31   D(3,4,25,26)         -132.7947         estimate D2E/DX2                !
 ! D32   D(3,4,25,28)          108.6411         estimate D2E/DX2                !
 ! D33   D(3,4,25,31)          -13.1244         estimate D2E/DX2                !
 ! D34   D(5,4,25,26)           42.0379         estimate D2E/DX2                !
 ! D35   D(5,4,25,28)          -76.5262         estimate D2E/DX2                !
 ! D36   D(5,4,25,31)          161.7083         estimate D2E/DX2                !
 ! D37   D(4,5,6,1)              3.5996         estimate D2E/DX2                !
 ! D38   D(4,5,6,9)           -179.7918         estimate D2E/DX2                !
 ! D39   D(8,5,6,1)           -174.5632         estimate D2E/DX2                !
 ! D40   D(8,5,6,9)              2.0454         estimate D2E/DX2                !
 ! D41   D(3,10,11,13)         175.9413         estimate D2E/DX2                !
 ! D42   D(3,10,11,29)          -9.302          estimate D2E/DX2                !
 ! D43   D(12,10,11,13)         -8.5087         estimate D2E/DX2                !
 ! D44   D(12,10,11,29)        166.2479         estimate D2E/DX2                !
 ! D45   D(3,10,12,14)        -175.5897         estimate D2E/DX2                !
 ! D46   D(3,10,12,22)           9.7561         estimate D2E/DX2                !
 ! D47   D(11,10,12,14)          8.5192         estimate D2E/DX2                !
 ! D48   D(11,10,12,22)       -166.135          estimate D2E/DX2                !
 ! D49   D(10,11,13,15)          2.5877         estimate D2E/DX2                !
 ! D50   D(10,11,13,16)       -179.2307         estimate D2E/DX2                !
 ! D51   D(29,11,13,15)       -172.5027         estimate D2E/DX2                !
 ! D52   D(29,11,13,16)          5.679          estimate D2E/DX2                !
 ! D53   D(10,11,29,27)        -13.1244         estimate D2E/DX2                !
 ! D54   D(10,11,29,30)       -132.7948         estimate D2E/DX2                !
 ! D55   D(10,11,29,32)        108.6411         estimate D2E/DX2                !
 ! D56   D(13,11,29,27)        161.7083         estimate D2E/DX2                !
 ! D57   D(13,11,29,30)         42.0378         estimate D2E/DX2                !
 ! D58   D(13,11,29,32)        -76.5262         estimate D2E/DX2                !
 ! D59   D(10,12,14,15)         -2.4011         estimate D2E/DX2                !
 ! D60   D(10,12,14,17)        179.1678         estimate D2E/DX2                !
 ! D61   D(22,12,14,15)        172.0751         estimate D2E/DX2                !
 ! D62   D(22,12,14,17)         -6.3561         estimate D2E/DX2                !
 ! D63   D(10,12,22,19)         38.4001         estimate D2E/DX2                !
 ! D64   D(10,12,22,23)        -81.2678         estimate D2E/DX2                !
 ! D65   D(10,12,22,24)        160.0045         estimate D2E/DX2                !
 ! D66   D(14,12,22,19)       -136.2152         estimate D2E/DX2                !
 ! D67   D(14,12,22,23)        104.1169         estimate D2E/DX2                !
 ! D68   D(14,12,22,24)        -14.6108         estimate D2E/DX2                !
 ! D69   D(11,13,15,14)          3.5995         estimate D2E/DX2                !
 ! D70   D(11,13,15,18)       -179.7918         estimate D2E/DX2                !
 ! D71   D(16,13,15,14)       -174.5632         estimate D2E/DX2                !
 ! D72   D(16,13,15,18)          2.0454         estimate D2E/DX2                !
 ! D73   D(12,14,15,13)         -3.6891         estimate D2E/DX2                !
 ! D74   D(12,14,15,18)        179.7051         estimate D2E/DX2                !
 ! D75   D(17,14,15,13)        174.7284         estimate D2E/DX2                !
 ! D76   D(17,14,15,18)         -1.8775         estimate D2E/DX2                !
 ! D77   D(2,19,22,12)         -61.2461         estimate D2E/DX2                !
 ! D78   D(2,19,22,23)          60.0085         estimate D2E/DX2                !
 ! D79   D(2,19,22,24)         177.9206         estimate D2E/DX2                !
 ! D80   D(20,19,22,12)         60.0085         estimate D2E/DX2                !
 ! D81   D(20,19,22,23)       -178.737          estimate D2E/DX2                !
 ! D82   D(20,19,22,24)        -60.8249         estimate D2E/DX2                !
 ! D83   D(21,19,22,12)        177.9206         estimate D2E/DX2                !
 ! D84   D(21,19,22,23)        -60.8248         estimate D2E/DX2                !
 ! D85   D(21,19,22,24)         57.0873         estimate D2E/DX2                !
 --------------------------------------------------------------------------------
 Trust Radius=3.00D-01 FncErr=1.00D-07 GrdErr=1.00D-06 EigMax=2.50D+02 EigMin=1.00D-04
 Number of steps in this run=    189 maximum allowed number of steps=    192.
 GradGradGradGradGradGradGradGradGradGradGradGradGradGradGradGradGradGrad

 Leave Link  103 at Tue May 20 08:10:31 2025, MaxMem=   104857600 cpu:               0.2 elap:               0.0
 (Enter /opt/linux/rocky/8/software/gaussian/16c01_avx2/g16/l202.exe)
                          Input orientation:                          
 ---------------------------------------------------------------------
 Center     Atomic      Atomic             Coordinates (Angstroms)
 Number     Number       Type             X           Y           Z
 ---------------------------------------------------------------------
      1          6           0        2.771950    1.215453   -0.514136
      2          6           0        1.386222    1.155436   -0.394829
      3          6           0        0.747086   -0.049596   -0.001536
      4          6           0        1.549264   -1.128308    0.441349
      5          6           0        2.943665   -1.035774    0.306211
      6          6           0        3.555052    0.104396   -0.199980
      7          1           0        3.240485    2.144135   -0.829815
      8          1           0        3.554970   -1.872366    0.636269
      9          1           0        4.635968    0.149082   -0.297431
     10          6           0       -0.747086   -0.049596    0.001536
     11          6           0       -1.549264   -1.128308   -0.441349
     12          6           0       -1.386222    1.155436    0.394829
     13          6           0       -2.943665   -1.035774   -0.306211
     14          6           0       -2.771951    1.215452    0.514136
     15          6           0       -3.555052    0.104396    0.199979
     16          1           0       -3.554970   -1.872366   -0.636269
     17          1           0       -3.240485    2.144135    0.829814
     18          1           0       -4.635968    0.149082    0.297430
     19          6           0        0.530392    2.391754   -0.557188
     20          1           0        0.022330    2.403218   -1.531942
     21          1           0        1.156460    3.288420   -0.507486
     22          6           0       -0.530392    2.391754    0.557188
     23          1           0       -0.022330    2.403218    1.531942
     24          1           0       -1.156460    3.288420    0.507487
     25          6           0        1.000667   -2.341485    1.162772
     26          1           0        1.617933   -2.552410    2.042144
     27          1           0        0.025023   -2.189476   -1.502401
     28          1           0        1.018189   -3.241858    0.539182
     29          6           0       -1.000666   -2.341485   -1.162772
     30          1           0       -1.617933   -2.552411   -2.042144
     31          1           0       -0.025023   -2.189476    1.502401
     32          1           0       -1.018188   -3.241858   -0.539182
 ---------------------------------------------------------------------
                    Distance matrix (angstroms):
                    1          2          3          4          5
     1  C    0.000000
     2  C    1.392149   0.000000
     3  C    2.441963   1.419604   0.000000
     4  C    2.810895   2.437471   1.415364   0.000000
     5  C    2.402182   2.778217   2.427388   1.403987   0.000000
     6  C    1.395131   2.417948   2.819178   2.440092   1.389248
     7  H    1.087027   2.145933   3.422797   3.896790   3.389761
     8  H    3.386913   3.864481   3.407858   2.148132   1.087437
     9  H    2.158396   3.403393   3.905180   3.421295   2.152245
    10  C    3.774901   2.481977   1.494175   2.574933   3.832364
    11  C    4.916442   3.719507   2.574933   3.221806   4.555636
    12  C    4.256784   2.882708   2.481977   3.719507   4.853574
    13  C    6.146504   4.853574   3.832364   4.555636   5.919098
    14  C    5.638456   4.256785   3.774902   4.916443   6.146504
    15  C    6.463386   5.086715   4.309607   5.256602   6.598833
    16  H    7.041268   5.800108   4.715195   5.269543   6.619699
    17  H    6.230411   4.887095   4.626480   5.813904   6.973499
    18  H    7.528150   6.144814   5.395009   6.317399   7.671688
    19  C    2.531821   1.512378   2.513144   3.798159   4.279871
    20  H    3.163404   2.170297   2.980555   4.324012   4.872337
    21  H    2.628126   2.148279   3.400871   4.534542   4.749196
    22  C    3.665635   2.471483   2.811461   4.090137   4.886718
    23  H    3.661314   2.693218   2.993301   4.016339   4.703850
    24  H    4.557775   3.439335   3.876202   5.180039   5.962398
    25  C    4.312919   3.847497   2.583151   1.514334   2.492753
    26  H    4.697139   4.443045   3.346503   2.143671   2.659175
    27  H    4.485066   3.777303   2.711652   2.688411   3.622234
    28  H    4.904363   4.510434   3.249063   2.181446   2.937438
    29  C    5.225435   4.302956   3.107388   3.247637   4.406874
    30  H    5.983534   5.048438   4.002684   4.269302   5.350059
    31  H    4.845928   4.096283   2.727098   2.174923   3.402206
    32  H    5.850931   5.013803   3.687247   3.467037   4.612784
                    6          7          8          9         10
     6  C    0.000000
     7  H    2.157818   0.000000
     8  H    2.146369   4.287258   0.000000
     9  H    1.086220   2.492196   2.475198   0.000000
    10  C    4.309607   4.626481   4.715195   5.395009   0.000000
    11  C    5.256602   5.813904   5.269543   6.317399   1.415364
    12  C    5.086715   4.887095   5.800108   6.144814   1.419604
    13  C    6.598833   6.973499   6.619699   7.671688   2.427388
    14  C    6.463387   6.230413   7.041269   7.528150   2.441963
    15  C    7.121344   7.169403   7.392587   8.206231   2.819178
    16  H    7.392587   7.896072   7.222922   8.443490   3.407858
    17  H    7.169403   6.690093   7.896072   8.203013   3.422797
    18  H    8.206231   8.203013   8.443490   9.290999   3.905180
    19  C    3.808959   2.735004   5.362381   4.685382   2.811461
    20  H    4.420275   3.304032   5.954939   5.281174   2.993301
    21  H    3.998226   2.399259   5.804717   4.691113   3.876202
    22  C    4.743012   4.025494   5.905858   5.696598   2.513144
    23  H    4.591492   4.036209   5.646231   5.488850   2.980555
    24  H    5.730346   4.736126   6.989125   6.637436   3.400871
    25  C    3.790028   5.395181   2.649857   4.642255   3.107389
    26  H    3.979720   5.739195   2.488183   4.677628   4.002683
    27  H    4.406728   5.437992   4.139444   5.308636   2.727098
    28  H    4.263737   5.985121   2.884474   5.028590   3.687248
    29  C    5.259645   6.182152   4.920411   6.222811   2.583151
    30  H    6.100161   6.865239   5.864749   7.032309   3.346503
    31  H    4.580053   5.906180   3.696903   5.516619   2.711652
    32  H    5.676883   6.872386   4.916398   6.597454   3.249063
                   11         12         13         14         15
    11  C    0.000000
    12  C    2.437471   0.000000
    13  C    1.403987   2.778217   0.000000
    14  C    2.810894   1.392150   2.402181   0.000000
    15  C    2.440091   2.417949   1.389248   1.395130   0.000000
    16  H    2.148132   3.864481   1.087437   3.386912   2.146369
    17  H    3.896789   2.145933   3.389760   1.087028   2.157818
    18  H    3.421295   3.403393   2.152244   2.158394   1.086220
    19  C    4.090137   2.471483   4.886718   3.665636   4.743012
    20  H    4.016339   2.693218   4.703850   3.661315   4.591492
    21  H    5.180039   3.439335   5.962398   4.557776   5.730346
    22  C    3.798159   1.512378   4.279871   2.531823   3.808960
    23  H    4.324012   2.170297   4.872337   3.163405   4.420275
    24  H    4.534542   2.148279   4.749196   2.628127   3.998226
    25  C    3.247638   4.302956   4.406875   5.225435   5.259646
    26  H    4.269302   5.048437   5.350059   5.983534   6.100161
    27  H    2.174923   4.096283   3.402206   4.845928   4.580053
    28  H    3.467038   5.013803   4.612785   5.850932   5.676884
    29  C    1.514335   3.847497   2.492754   4.312919   3.790028
    30  H    2.143672   4.443046   2.659176   4.697139   3.979720
    31  H    2.688411   3.777303   3.622234   4.485066   4.406729
    32  H    2.181446   4.510435   2.937438   4.904363   4.263737
                   16         17         18         19         20
    16  H    0.000000
    17  H    4.287258   0.000000
    18  H    2.475197   2.492196   0.000000
    19  C    5.905858   4.025494   5.696598   0.000000
    20  H    5.646231   4.036208   5.488850   1.099274   0.000000
    21  H    6.989125   4.736126   6.637436   1.094733   1.766166
    22  C    5.362381   2.735004   4.685382   1.538537   2.161041
    23  H    5.954939   3.304032   5.281175   2.161041   3.064209
    24  H    5.804717   2.399259   4.691113   2.187010   2.516426
    25  C    4.920412   6.182153   6.222812   5.057961   5.543540
    26  H    5.864749   6.865239   7.032309   5.690697   6.314926
    27  H    3.696903   5.906179   5.516619   4.704944   4.592790
    28  H    4.916399   6.872386   6.597455   5.759996   6.094930
    29  C    2.649858   5.395181   4.642255   5.011429   4.867752
    30  H    2.488184   5.739195   4.677628   5.591526   5.244905
    31  H    4.139444   5.437992   5.308637   5.053520   5.504754
    32  H    2.884475   5.985121   5.028591   5.842603   5.825387
                   21         22         23         24         25
    21  H    0.000000
    22  C    2.187009   0.000000
    23  H    2.516425   1.099274   0.000000
    24  H    2.525820   1.094733   1.766166   0.000000
    25  C    5.874510   5.011429   4.867753   6.064522   0.000000
    26  H    6.389747   5.591525   5.244904   6.645880   1.094898
    27  H    5.681316   5.053520   5.504754   5.953394   2.842206
    28  H    6.615071   5.842603   5.825387   6.882923   1.095373
    29  C    6.064522   5.057961   5.543540   5.874510   3.068141
    30  H    6.645881   5.690698   6.314927   6.389748   4.144037
    31  H    5.953393   4.704944   4.592790   5.681316   1.091098
    32  H    6.882923   5.759996   6.094930   6.615071   2.789820
                   26         27         28         29         30
    26  H    0.000000
    27  H    3.902933   0.000000
    28  H    1.758956   2.502388   0.000000
    29  C    4.144036   1.091097   2.789820   0.000000
    30  H    5.210781   1.767017   3.753361   1.094899   0.000000
    31  H    1.767017   3.005219   1.767368   2.842206   3.902933
    32  H    3.753361   1.767368   2.304279   1.095373   1.758956
                   31         32
    31  H    0.000000
    32  H    2.502388   0.000000
 Stoichiometry    C16H16
 Framework group  C1[X(C16H16)]
 Deg. of freedom    90
 Full point group                 C1      NOp   1
 Largest Abelian subgroup         C1      NOp   1
 Largest concise Abelian subgroup C1      NOp   1
                         Standard orientation:                         
 ---------------------------------------------------------------------
 Center     Atomic      Atomic             Coordinates (Angstroms)
 Number     Number       Type             X           Y           Z
 ---------------------------------------------------------------------
      1          6           0        2.771950    1.215453   -0.514136
      2          6           0        1.386222    1.155436   -0.394829
      3          6           0        0.747086   -0.049596   -0.001536
      4          6           0        1.549264   -1.128308    0.441349
      5          6           0        2.943665   -1.035774    0.306211
      6          6           0        3.555052    0.104396   -0.199980
      7          1           0        3.240485    2.144135   -0.829815
      8          1           0        3.554970   -1.872366    0.636269
      9          1           0        4.635968    0.149082   -0.297431
     10          6           0       -0.747086   -0.049596    0.001536
     11          6           0       -1.549264   -1.128308   -0.441349
     12          6           0       -1.386222    1.155436    0.394829
     13          6           0       -2.943665   -1.035774   -0.306211
     14          6           0       -2.771951    1.215452    0.514136
     15          6           0       -3.555052    0.104396    0.199979
     16          1           0       -3.554970   -1.872366   -0.636269
     17          1           0       -3.240485    2.144135    0.829814
     18          1           0       -4.635968    0.149082    0.297430
     19          6           0        0.530392    2.391754   -0.557188
     20          1           0        0.022330    2.403218   -1.531942
     21          1           0        1.156460    3.288420   -0.507486
     22          6           0       -0.530392    2.391754    0.557188
     23          1           0       -0.022330    2.403218    1.531942
     24          1           0       -1.156460    3.288420    0.507487
     25          6           0        1.000667   -2.341485    1.162772
     26          1           0        1.617933   -2.552410    2.042144
     27          1           0        0.025023   -2.189476   -1.502401
     28          1           0        1.018189   -3.241858    0.539182
     29          6           0       -1.000666   -2.341485   -1.162772
     30          1           0       -1.617933   -2.552411   -2.042144
     31          1           0       -0.025023   -2.189476    1.502401
     32          1           0       -1.018188   -3.241858   -0.539182
 ---------------------------------------------------------------------
 Rotational constants (GHZ):           0.8932832           0.4941783           0.3533256
 Leave Link  202 at Tue May 20 08:10:31 2025, MaxMem=   104857600 cpu:               0.1 elap:               0.0
 (Enter /opt/linux/rocky/8/software/gaussian/16c01_avx2/g16/l301.exe)
 Standard basis: 6-31G(d,p) (6D, 7F)
 Ernie: Thresh=  0.10000D-02 Tol=  0.10000D-05 Strict=F.
 There are   320 symmetry adapted cartesian basis functions of A   symmetry.
 There are   320 symmetry adapted basis functions of A   symmetry.
   320 basis functions,   560 primitive gaussians,   320 cartesian basis functions
    56 alpha electrons       56 beta electrons
       nuclear repulsion energy      1047.2378468928 Hartrees.
 IExCor=  402 DFT=T Ex+Corr=B3LYP ExCW=0 ScaHFX=  0.200000
 ScaDFX=  0.800000  0.720000  1.000000  0.810000 ScalE2=  1.000000  1.000000
 IRadAn=      5 IRanWt=     -1 IRanGd=            0 ICorTp=0 IEmpDi=  4
 NAtoms=   32 NActive=   32 NUniq=   32 SFac= 1.00D+00 NAtFMM=   60 NAOKFM=F Big=F
 Integral buffers will be    131072 words long.
 Raffenetti 2 integral format.
 Two-electron integral symmetry is turned on.
 Leave Link  301 at Tue May 20 08:10:31 2025, MaxMem=   104857600 cpu:               1.0 elap:               0.0
 (Enter /opt/linux/rocky/8/software/gaussian/16c01_avx2/g16/l302.exe)
 NPDir=0 NMtPBC=     1 NCelOv=     1 NCel=       1 NClECP=     1 NCelD=      1
         NCelK=      1 NCelE2=     1 NClLst=     1 CellRange=     0.0.
 One-electron integrals computed using PRISM.
 One-electron integral symmetry used in STVInt
 PrsmSu:  requested number of processors reduced to:  28 ShMem   1 Linda.
 NBasis=   320 RedAO= T EigKep=  3.16D-04  NBF=   320
 NBsUse=   320 1.00D-06 EigRej= -1.00D+00 NBFU=   320
 Precomputing XC quadrature grid using
 IXCGrd= 4 IRadAn=           5 IRanWt=          -1 IRanGd=           0 AccXCQ= 0.00D+00.
 Generated NRdTot=       0 NPtTot=           0 NUsed=           0 NTot=          32
 NSgBfM=   319   319   319   319   319 MxSgAt=    32 MxSgA2=    32.
 Leave Link  302 at Tue May 20 08:10:32 2025, MaxMem=   104857600 cpu:               6.5 elap:               0.2
 (Enter /opt/linux/rocky/8/software/gaussian/16c01_avx2/g16/l303.exe)
 DipDrv:  MaxL=1.
 Leave Link  303 at Tue May 20 08:10:32 2025, MaxMem=   104857600 cpu:               0.5 elap:               0.0
 (Enter /opt/linux/rocky/8/software/gaussian/16c01_avx2/g16/l401.exe)
 ExpMin= 1.61D-01 ExpMax= 3.05D+03 ExpMxC= 4.57D+02 IAcc=3 IRadAn=         5 AccDes= 0.00D+00
 Harris functional with IExCor=  402 and IRadAn=       5 diagonalized for initial guess.
 HarFok:  IExCor=  402 AccDes= 0.00D+00 IRadAn=         5 IDoV= 1 UseB2=F ITyADJ=14
 ICtDFT=  3500011 ScaDFX=  1.000000  1.000000  1.000000  1.000000
 FoFCou: FMM=F IPFlag=           0 FMFlag=      100000 FMFlg1=           0
         NFxFlg=           0 DoJE=T BraDBF=F KetDBF=T FulRan=T
         wScrn=  0.000000 ICntrl=       500 IOpCl=  0 I1Cent=   200000004 NGrid=           0
         NMat0=    1 NMatS0=      1 NMatT0=    0 NMatD0=    1 NMtDS0=    0 NMtDT0=    0
 Petite list used in FoFCou.
 Harris En= -619.436241598590    
 JPrj=0 DoOrth=F DoCkMO=F.
 Leave Link  401 at Tue May 20 08:10:32 2025, MaxMem=   104857600 cpu:              12.3 elap:               0.4
 (Enter /opt/linux/rocky/8/software/gaussian/16c01_avx2/g16/l502.exe)
 Integral symmetry usage will be decided dynamically.
 Closed shell SCF:
 Using DIIS extrapolation, IDIIS=  1040.
 NGot=   104857600 LenX=   104638314 LenY=   104535473
 Requested convergence on RMS density matrix=1.00D-10 within 128 cycles.
 Requested convergence on MAX density matrix=1.00D-08.
 Requested convergence on             energy=1.00D-08.
 No special actions if energy rises.
 Fock matrices will be formed incrementally for  20 cycles.
 Integral accuracy reduced to 1.0D-05 until final iterations.

 Cycle   1  Pass 0  IDiag  1:
 FoFJK:  IHMeth= 1 ICntrl=       0 DoSepK=F KAlg= 0 I1Cent=           0 FoldK=F
 IRaf= 870000000 NMat=       1 IRICut=       1 DoRegI=T DoRafI=F ISym2E= 0 IDoP0=0 IntGTp=1.
 FoFCou: FMM=F IPFlag=           0 FMFlag=      100000 FMFlg1=           0
         NFxFlg=           0 DoJE=F BraDBF=F KetDBF=F FulRan=T
         wScrn=  0.000000 ICntrl=         0 IOpCl=  0 I1Cent=           0 NGrid=           0
         NMat0=    1 NMatS0=      1 NMatT0=    0 NMatD0=    1 NMtDS0=    0 NMtDT0=    0
 Symmetry not used in FoFCou.
 E= -618.984017025981    
 DIIS: error= 2.65D-02 at cycle   1 NSaved=   1.
 NSaved= 1 IEnMin= 1 EnMin= -618.984017025981     IErMin= 1 ErrMin= 2.65D-02
 ErrMax= 2.65D-02  0.00D+00 EMaxC= 1.00D-01 BMatC= 3.58D-01 BMatP= 3.58D-01
 IDIUse=3 WtCom= 7.35D-01 WtEn= 2.65D-01
 Coeff-Com:  0.100D+01
 Coeff-En:   0.100D+01
 Coeff:      0.100D+01
 Gap=     0.193 Goal=   None    Shift=    0.000
 GapD=    0.193 DampG=1.000 DampE=0.500 DampFc=0.5000 IDamp=-1.
 Damping current iteration by 5.00D-01
 RMSDP=4.37D-03 MaxDP=1.23D-01              OVMax= 1.49D-01

 Cycle   2  Pass 0  IDiag  1:
 RMSU=  2.13D-03    CP:  9.71D-01
 E= -619.178982767450     Delta-E=       -0.194965741468 Rises=F Damp=T
 DIIS: error= 6.29D-03 at cycle   2 NSaved=   2.
 NSaved= 2 IEnMin= 2 EnMin= -619.178982767450     IErMin= 2 ErrMin= 6.29D-03
 ErrMax= 6.29D-03  0.00D+00 EMaxC= 1.00D-01 BMatC= 1.72D-02 BMatP= 3.58D-01
 IDIUse=3 WtCom= 9.37D-01 WtEn= 6.29D-02
 Coeff-Com: -0.165D-01 0.102D+01
 Coeff-En:   0.000D+00 0.100D+01
 Coeff:     -0.154D-01 0.102D+01
 Gap=     0.193 Goal=   None    Shift=    0.000
 RMSDP=1.17D-03 MaxDP=2.19D-02 DE=-1.95D-01 OVMax= 8.22D-02

 Cycle   3  Pass 0  IDiag  1:
 RMSU=  1.14D-03    CP:  9.55D-01  9.71D-01
 E= -619.380425013765     Delta-E=       -0.201442246315 Rises=F Damp=F
 DIIS: error= 2.08D-03 at cycle   3 NSaved=   3.
 NSaved= 3 IEnMin= 3 EnMin= -619.380425013765     IErMin= 3 ErrMin= 2.08D-03
 ErrMax= 2.08D-03  0.00D+00 EMaxC= 1.00D-01 BMatC= 2.95D-03 BMatP= 1.72D-02
 IDIUse=3 WtCom= 9.79D-01 WtEn= 2.08D-02
 Coeff-Com: -0.418D-01 0.256D+00 0.786D+00
 Coeff-En:   0.000D+00 0.000D+00 0.100D+01
 Coeff:     -0.409D-01 0.251D+00 0.790D+00
 Gap=     0.191 Goal=   None    Shift=    0.000
 RMSDP=2.95D-04 MaxDP=1.42D-02 DE=-2.01D-01 OVMax= 2.60D-02

 Cycle   4  Pass 0  IDiag  1:
 RMSU=  2.45D-04    CP:  9.55D-01  1.01D+00  8.73D-01
 E= -619.381533431050     Delta-E=       -0.001108417285 Rises=F Damp=F
 DIIS: error= 3.12D-03 at cycle   4 NSaved=   4.
 NSaved= 4 IEnMin= 4 EnMin= -619.381533431050     IErMin= 3 ErrMin= 2.08D-03
 ErrMax= 3.12D-03  0.00D+00 EMaxC= 1.00D-01 BMatC= 1.68D-03 BMatP= 2.95D-03
 IDIUse=3 WtCom= 9.69D-01 WtEn= 3.12D-02
 Coeff-Com: -0.232D-01 0.101D+00 0.481D+00 0.442D+00
 Coeff-En:   0.000D+00 0.000D+00 0.379D+00 0.621D+00
 Coeff:     -0.225D-01 0.979D-01 0.477D+00 0.447D+00
 Gap=     0.190 Goal=   None    Shift=    0.000
 RMSDP=1.98D-04 MaxDP=8.95D-03 DE=-1.11D-03 OVMax= 1.95D-02

 Cycle   5  Pass 0  IDiag  1:
 RMSU=  1.31D-04    CP:  9.55D-01  1.01D+00  8.53D-01  4.01D-01
 E= -619.383114226897     Delta-E=       -0.001580795847 Rises=F Damp=F
 DIIS: error= 1.26D-03 at cycle   5 NSaved=   5.
 NSaved= 5 IEnMin= 5 EnMin= -619.383114226897     IErMin= 5 ErrMin= 1.26D-03
 ErrMax= 1.26D-03  0.00D+00 EMaxC= 1.00D-01 BMatC= 2.17D-04 BMatP= 1.68D-03
 IDIUse=3 WtCom= 9.87D-01 WtEn= 1.26D-02
 Coeff-Com: -0.639D-02 0.164D-01 0.151D+00 0.286D+00 0.554D+00
 Coeff-En:   0.000D+00 0.000D+00 0.000D+00 0.141D+00 0.859D+00
 Coeff:     -0.631D-02 0.162D-01 0.149D+00 0.284D+00 0.557D+00
 Gap=     0.191 Goal=   None    Shift=    0.000
 RMSDP=7.40D-05 MaxDP=1.44D-03 DE=-1.58D-03 OVMax= 5.14D-03

 Cycle   6  Pass 0  IDiag  1:
 RMSU=  2.63D-05    CP:  9.55D-01  1.01D+00  8.78D-01  5.26D-01  5.79D-01
 E= -619.383341514319     Delta-E=       -0.000227287423 Rises=F Damp=F
 DIIS: error= 1.63D-04 at cycle   6 NSaved=   6.
 NSaved= 6 IEnMin= 6 EnMin= -619.383341514319     IErMin= 6 ErrMin= 1.63D-04
 ErrMax= 1.63D-04  0.00D+00 EMaxC= 1.00D-01 BMatC= 1.85D-05 BMatP= 2.17D-04
 IDIUse=3 WtCom= 9.98D-01 WtEn= 1.63D-03
 Coeff-Com: -0.270D-02 0.476D-02 0.687D-01 0.154D+00 0.348D+00 0.427D+00
 Coeff-En:   0.000D+00 0.000D+00 0.000D+00 0.000D+00 0.000D+00 0.100D+01
 Coeff:     -0.270D-02 0.476D-02 0.686D-01 0.154D+00 0.348D+00 0.428D+00
 Gap=     0.191 Goal=   None    Shift=    0.000
 RMSDP=1.49D-05 MaxDP=6.35D-04 DE=-2.27D-04 OVMax= 1.44D-03

 Cycle   7  Pass 0  IDiag  1:
 RMSU=  5.71D-06    CP:  9.55D-01  1.01D+00  8.77D-01  5.25D-01  6.15D-01
                    CP:  5.10D-01
 E= -619.383360575706     Delta-E=       -0.000019061386 Rises=F Damp=F
 DIIS: error= 1.67D-05 at cycle   7 NSaved=   7.
 NSaved= 7 IEnMin= 7 EnMin= -619.383360575706     IErMin= 7 ErrMin= 1.67D-05
 ErrMax= 1.67D-05  0.00D+00 EMaxC= 1.00D-01 BMatC= 1.51D-07 BMatP= 1.85D-05
 IDIUse=1 WtCom= 1.00D+00 WtEn= 0.00D+00
 Coeff-Com: -0.431D-03 0.436D-03 0.125D-01 0.307D-01 0.750D-01 0.134D+00
 Coeff-Com:  0.748D+00
 Coeff:     -0.431D-03 0.436D-03 0.125D-01 0.307D-01 0.750D-01 0.134D+00
 Coeff:      0.748D+00
 Gap=     0.191 Goal=   None    Shift=    0.000
 RMSDP=2.39D-06 MaxDP=9.19D-05 DE=-1.91D-05 OVMax= 2.06D-04

 Initial convergence to 1.0D-05 achieved.  Increase integral accuracy.
 Cycle   8  Pass 1  IDiag  1:
 E= -619.383370404751     Delta-E=       -0.000009829045 Rises=F Damp=F
 DIIS: error= 9.70D-05 at cycle   1 NSaved=   1.
 NSaved= 1 IEnMin= 1 EnMin= -619.383370404751     IErMin= 1 ErrMin= 9.70D-05
 ErrMax= 9.70D-05  0.00D+00 EMaxC= 1.00D-01 BMatC= 4.45D-07 BMatP= 4.45D-07
 IDIUse=1 WtCom= 1.00D+00 WtEn= 0.00D+00
 Coeff-Com:  0.100D+01
 Coeff:      0.100D+01
 Gap=     0.191 Goal=   None    Shift=    0.000
 RMSDP=2.39D-06 MaxDP=9.19D-05 DE=-9.83D-06 OVMax= 2.82D-04

 Cycle   9  Pass 1  IDiag  1:
 RMSU=  3.65D-05    CP:  1.00D+00
 E= -619.383370466987     Delta-E=       -0.000000062236 Rises=F Damp=F
 DIIS: error= 2.65D-05 at cycle   2 NSaved=   2.
 NSaved= 2 IEnMin= 2 EnMin= -619.383370466987     IErMin= 2 ErrMin= 2.65D-05
 ErrMax= 2.65D-05  0.00D+00 EMaxC= 1.00D-01 BMatC= 2.67D-07 BMatP= 4.45D-07
 IDIUse=1 WtCom= 1.00D+00 WtEn= 0.00D+00
 Coeff-Com:  0.408D+00 0.592D+00
 Coeff:      0.408D+00 0.592D+00
 Gap=     0.191 Goal=   None    Shift=    0.000
 RMSDP=3.54D-06 MaxDP=1.13D-04 DE=-6.22D-08 OVMax= 3.54D-04

 Cycle  10  Pass 1  IDiag  1:
 RMSU=  3.54D-06    CP:  1.00D+00  1.00D+00
 E= -619.383370553728     Delta-E=       -0.000000086741 Rises=F Damp=F
 DIIS: error= 2.22D-05 at cycle   3 NSaved=   3.
 NSaved= 3 IEnMin= 3 EnMin= -619.383370553728     IErMin= 3 ErrMin= 2.22D-05
 ErrMax= 2.22D-05  0.00D+00 EMaxC= 1.00D-01 BMatC= 1.89D-07 BMatP= 2.67D-07
 IDIUse=1 WtCom= 1.00D+00 WtEn= 0.00D+00
 Coeff-Com:  0.543D-02 0.456D+00 0.539D+00
 Coeff:      0.543D-02 0.456D+00 0.539D+00
 Gap=     0.191 Goal=   None    Shift=    0.000
 RMSDP=1.68D-06 MaxDP=5.19D-05 DE=-8.67D-08 OVMax= 1.69D-04

 Cycle  11  Pass 1  IDiag  1:
 RMSU=  3.43D-07    CP:  1.00D+00  1.01D+00  5.42D-01
 E= -619.383370766958     Delta-E=       -0.000000213230 Rises=F Damp=F
 DIIS: error= 2.63D-06 at cycle   4 NSaved=   4.
 NSaved= 4 IEnMin= 4 EnMin= -619.383370766958     IErMin= 4 ErrMin= 2.63D-06
 ErrMax= 2.63D-06  0.00D+00 EMaxC= 1.00D-01 BMatC= 3.12D-09 BMatP= 1.89D-07
 IDIUse=1 WtCom= 1.00D+00 WtEn= 0.00D+00
 Coeff-Com: -0.347D-02 0.258D+00 0.316D+00 0.430D+00
 Coeff:     -0.347D-02 0.258D+00 0.316D+00 0.430D+00
 Gap=     0.191 Goal=   None    Shift=    0.000
 RMSDP=2.02D-07 MaxDP=6.27D-06 DE=-2.13D-07 OVMax= 1.23D-05

 Cycle  12  Pass 1  IDiag  1:
 RMSU=  8.05D-08    CP:  1.00D+00  1.01D+00  5.54D-01  4.75D-01
 E= -619.383370770020     Delta-E=       -0.000000003062 Rises=F Damp=F
 DIIS: error= 6.04D-07 at cycle   5 NSaved=   5.
 NSaved= 5 IEnMin= 5 EnMin= -619.383370770020     IErMin= 5 ErrMin= 6.04D-07
 ErrMax= 6.04D-07  0.00D+00 EMaxC= 1.00D-01 BMatC= 5.95D-11 BMatP= 3.12D-09
 IDIUse=1 WtCom= 1.00D+00 WtEn= 0.00D+00
 Coeff-Com: -0.222D-02 0.154D+00 0.188D+00 0.268D+00 0.392D+00
 Coeff:     -0.222D-02 0.154D+00 0.188D+00 0.268D+00 0.392D+00
 Gap=     0.191 Goal=   None    Shift=    0.000
 RMSDP=3.69D-08 MaxDP=1.07D-06 DE=-3.06D-09 OVMax= 2.88D-06

 Cycle  13  Pass 1  IDiag  1:
 RMSU=  2.72D-08    CP:  1.00D+00  1.01D+00  5.54D-01  4.78D-01  6.92D-01
 E= -619.383370770088     Delta-E=       -0.000000000068 Rises=F Damp=F
 DIIS: error= 1.36D-07 at cycle   6 NSaved=   6.
 NSaved= 6 IEnMin= 6 EnMin= -619.383370770088     IErMin= 6 ErrMin= 1.36D-07
 ErrMax= 1.36D-07  0.00D+00 EMaxC= 1.00D-01 BMatC= 4.17D-12 BMatP= 5.95D-11
 IDIUse=1 WtCom= 1.00D+00 WtEn= 0.00D+00
 Coeff-Com: -0.491D-03 0.306D-01 0.366D-01 0.586D-01 0.216D+00 0.659D+00
 Coeff:     -0.491D-03 0.306D-01 0.366D-01 0.586D-01 0.216D+00 0.659D+00
 Gap=     0.191 Goal=   None    Shift=    0.000
 RMSDP=8.56D-09 MaxDP=3.10D-07 DE=-6.80D-11 OVMax= 8.92D-07

 Cycle  14  Pass 1  IDiag  1:
 RMSU=  5.04D-09    CP:  1.00D+00  1.01D+00  5.53D-01  4.80D-01  7.48D-01
                    CP:  8.37D-01
 E= -619.383370770099     Delta-E=       -0.000000000010 Rises=F Damp=F
 DIIS: error= 3.61D-08 at cycle   7 NSaved=   7.
 NSaved= 7 IEnMin= 7 EnMin= -619.383370770099     IErMin= 7 ErrMin= 3.61D-08
 ErrMax= 3.61D-08  0.00D+00 EMaxC= 1.00D-01 BMatC= 3.55D-13 BMatP= 4.17D-12
 IDIUse=1 WtCom= 1.00D+00 WtEn= 0.00D+00
 Coeff-Com: -0.666D-04 0.296D-02 0.326D-02 0.791D-02 0.734D-01 0.328D+00
 Coeff-Com:  0.584D+00
 Coeff:     -0.666D-04 0.296D-02 0.326D-02 0.791D-02 0.734D-01 0.328D+00
 Coeff:      0.584D+00
 Gap=     0.191 Goal=   None    Shift=    0.000
 RMSDP=2.15D-09 MaxDP=1.30D-07 DE=-1.02D-11 OVMax= 2.44D-07

 Cycle  15  Pass 1  IDiag  1:
 RMSU=  1.46D-09    CP:  1.00D+00  1.01D+00  5.53D-01  4.81D-01  7.47D-01
                    CP:  8.54D-01  7.22D-01
 E= -619.383370770089     Delta-E=        0.000000000009 Rises=F Damp=F
 DIIS: error= 8.46D-09 at cycle   8 NSaved=   8.
 NSaved= 8 IEnMin= 7 EnMin= -619.383370770099     IErMin= 8 ErrMin= 8.46D-09
 ErrMax= 8.46D-09  0.00D+00 EMaxC= 1.00D-01 BMatC= 2.85D-14 BMatP= 3.55D-13
 IDIUse=1 WtCom= 1.00D+00 WtEn= 0.00D+00
 Coeff-Com:  0.195D-04-0.180D-02-0.227D-02-0.234D-02 0.127D-01 0.926D-01
 Coeff-Com:  0.285D+00 0.616D+00
 Coeff:      0.195D-04-0.180D-02-0.227D-02-0.234D-02 0.127D-01 0.926D-01
 Coeff:      0.285D+00 0.616D+00
 Gap=     0.191 Goal=   None    Shift=    0.000
 RMSDP=6.18D-10 MaxDP=2.65D-08 DE= 9.32D-12 OVMax= 4.89D-08

 Cycle  16  Pass 1  IDiag  1:
 RMSU=  3.68D-10    CP:  1.00D+00  1.01D+00  5.53D-01  4.81D-01  7.49D-01
                    CP:  8.56D-01  7.32D-01  6.86D-01
 E= -619.383370770101     Delta-E=       -0.000000000012 Rises=F Damp=F
 DIIS: error= 8.72D-10 at cycle   9 NSaved=   9.
 NSaved= 9 IEnMin= 9 EnMin= -619.383370770101     IErMin= 9 ErrMin= 8.72D-10
 ErrMax= 8.72D-10  0.00D+00 EMaxC= 1.00D-01 BMatC= 5.25D-16 BMatP= 2.85D-14
 IDIUse=1 WtCom= 1.00D+00 WtEn= 0.00D+00
 Coeff-Com:  0.883D-05-0.730D-03-0.904D-03-0.106D-02 0.218D-02 0.238D-01
 Coeff-Com:  0.860D-01 0.222D+00 0.669D+00
 Coeff:      0.883D-05-0.730D-03-0.904D-03-0.106D-02 0.218D-02 0.238D-01
 Coeff:      0.860D-01 0.222D+00 0.669D+00
 Gap=     0.191 Goal=   None    Shift=    0.000
 RMSDP=1.13D-10 MaxDP=3.15D-09 DE=-1.16D-11 OVMax= 4.32D-09

 Cycle  17  Pass 1  IDiag  1:
 RMSU=  8.85D-11    CP:  1.00D+00  1.01D+00  5.53D-01  4.81D-01  7.49D-01
                    CP:  8.57D-01  7.37D-01  6.88D-01  8.69D-01
 E= -619.383370770093     Delta-E=        0.000000000008 Rises=F Damp=F
 DIIS: error= 3.05D-10 at cycle  10 NSaved=  10.
 NSaved=10 IEnMin= 9 EnMin= -619.383370770101     IErMin=10 ErrMin= 3.05D-10
 ErrMax= 3.05D-10  0.00D+00 EMaxC= 1.00D-01 BMatC= 4.16D-17 BMatP= 5.25D-16
 IDIUse=1 WtCom= 1.00D+00 WtEn= 0.00D+00
 Coeff-Com:  0.187D-05-0.144D-03-0.175D-03-0.222D-03-0.153D-03 0.251D-02
 Coeff-Com:  0.119D-01 0.366D-01 0.249D+00 0.701D+00
 Coeff:      0.187D-05-0.144D-03-0.175D-03-0.222D-03-0.153D-03 0.251D-02
 Coeff:      0.119D-01 0.366D-01 0.249D+00 0.701D+00
 Gap=     0.191 Goal=   None    Shift=    0.000
 RMSDP=3.01D-11 MaxDP=9.86D-10 DE= 7.73D-12 OVMax= 1.20D-09

 SCF Done:  E(RB3LYP) =  -619.383370770     A.U. after   17 cycles
            NFock= 17  Conv=0.30D-10     -V/T= 2.0099
 KE= 6.132945204299D+02 PE=-3.527774836931D+03 EE= 1.247859098839D+03
 Leave Link  502 at Tue May 20 08:10:42 2025, MaxMem=   104857600 cpu:             314.0 elap:               9.9
 (Enter /opt/linux/rocky/8/software/gaussian/16c01_avx2/g16/l601.exe)
 Copying SCF densities to generalized density rwf, IOpCl= 0 IROHF=0.

 **********************************************************************

            Population analysis using the SCF Density.

 **********************************************************************

 Orbital symmetries:
       Occupied  (A) (A) (A) (A) (A) (A) (A) (A) (A) (A) (A) (A)
                 (A) (A) (A) (A) (A) (A) (A) (A) (A) (A) (A) (A)
                 (A) (A) (A) (A) (A) (A) (A) (A) (A) (A) (A) (A)
                 (A) (A) (A) (A) (A) (A) (A) (A) (A) (A) (A) (A)
                 (A) (A) (A) (A) (A) (A) (A) (A)
       Virtual   (A) (A) (A) (A) (A) (A) (A) (A) (A) (A) (A) (A)
                 (A) (A) (A) (A) (A) (A) (A) (A) (A) (A) (A) (A)
                 (A) (A) (A) (A) (A) (A) (A) (A) (A) (A) (A) (A)
                 (A) (A) (A) (A) (A) (A) (A) (A) (A) (A) (A) (A)
                 (A) (A) (A) (A) (A) (A) (A) (A) (A) (A) (A) (A)
                 (A) (A) (A) (A) (A) (A) (A) (A) (A) (A) (A) (A)
                 (A) (A) (A) (A) (A) (A) (A) (A) (A) (A) (A) (A)
                 (A) (A) (A) (A) (A) (A) (A) (A) (A) (A) (A) (A)
                 (A) (A) (A) (A) (A) (A) (A) (A) (A) (A) (A) (A)
                 (A) (A) (A) (A) (A) (A) (A) (A) (A) (A) (A) (A)
                 (A) (A) (A) (A) (A) (A) (A) (A) (A) (A) (A) (A)
                 (A) (A) (A) (A) (A) (A) (A) (A) (A) (A) (A) (A)
                 (A) (A) (A) (A) (A) (A) (A) (A) (A) (A) (A) (A)
                 (A) (A) (A) (A) (A) (A) (A) (A) (A) (A) (A) (A)
                 (A) (A) (A) (A) (A) (A) (A) (A) (A) (A) (A) (A)
                 (A) (A) (A) (A) (A) (A) (A) (A) (A) (A) (A) (A)
                 (A) (A) (A) (A) (A) (A) (A) (A) (A) (A) (A) (A)
                 (A) (A) (A) (A) (A) (A) (A) (A) (A) (A) (A) (A)
                 (A) (A) (A) (A) (A) (A) (A) (A) (A) (A) (A) (A)
                 (A) (A) (A) (A) (A) (A) (A) (A) (A) (A) (A) (A)
                 (A) (A) (A) (A) (A) (A) (A) (A) (A) (A) (A) (A)
                 (A) (A) (A) (A) (A) (A) (A) (A) (A) (A) (A) (A)
 The electronic state is 1-A.
 Alpha  occ. eigenvalues --  -10.19400 -10.19400 -10.19131 -10.19104 -10.18923
 Alpha  occ. eigenvalues --  -10.18922 -10.18557 -10.18536 -10.18277 -10.18277
 Alpha  occ. eigenvalues --  -10.17919 -10.17919 -10.17850 -10.17850 -10.17652
 Alpha  occ. eigenvalues --  -10.17651  -0.87172  -0.84061  -0.80229  -0.77216
 Alpha  occ. eigenvalues --   -0.76269  -0.72476  -0.72390  -0.68198  -0.66869
 Alpha  occ. eigenvalues --   -0.62860  -0.60796  -0.58151  -0.55801  -0.54493
 Alpha  occ. eigenvalues --   -0.50407  -0.47731  -0.47643  -0.45829  -0.44709
 Alpha  occ. eigenvalues --   -0.43394  -0.42406  -0.41319  -0.40897  -0.40660
 Alpha  occ. eigenvalues --   -0.39778  -0.38827  -0.38049  -0.37586  -0.37565
 Alpha  occ. eigenvalues --   -0.36257  -0.35095  -0.34113  -0.33544  -0.33089
 Alpha  occ. eigenvalues --   -0.31618  -0.30707  -0.26306  -0.23057  -0.22991
 Alpha  occ. eigenvalues --   -0.21231
 Alpha virt. eigenvalues --   -0.02168   0.00498   0.00574   0.03350   0.10362
 Alpha virt. eigenvalues --    0.10751   0.11142   0.12196   0.12597   0.13607
 Alpha virt. eigenvalues --    0.14879   0.15523   0.15873   0.16518   0.16989
 Alpha virt. eigenvalues --    0.17609   0.18614   0.18888   0.19612   0.19907
 Alpha virt. eigenvalues --    0.21101   0.22048   0.22131   0.23792   0.24969
 Alpha virt. eigenvalues --    0.26133   0.26667   0.29094   0.31010   0.32447
 Alpha virt. eigenvalues --    0.33639   0.34187   0.37013   0.38117   0.39336
 Alpha virt. eigenvalues --    0.41071   0.45434   0.49071   0.51460   0.51811
 Alpha virt. eigenvalues --    0.52122   0.53410   0.54046   0.54395   0.54550
 Alpha virt. eigenvalues --    0.55442   0.56300   0.56470   0.57887   0.58218
 Alpha virt. eigenvalues --    0.58629   0.59657   0.60789   0.61234   0.61879
 Alpha virt. eigenvalues --    0.62317   0.62448   0.62950   0.64908   0.65057
 Alpha virt. eigenvalues --    0.66726   0.68185   0.68516   0.69587   0.72055
 Alpha virt. eigenvalues --    0.72481   0.72791   0.74207   0.74784   0.76754
 Alpha virt. eigenvalues --    0.78195   0.80101   0.81041   0.81261   0.81402
 Alpha virt. eigenvalues --    0.82150   0.83123   0.83933   0.84684   0.85328
 Alpha virt. eigenvalues --    0.87485   0.87873   0.87970   0.89083   0.89316
 Alpha virt. eigenvalues --    0.90324   0.90573   0.92282   0.92556   0.95103
 Alpha virt. eigenvalues --    0.95940   0.96926   0.97937   0.99275   1.02438
 Alpha virt. eigenvalues --    1.02825   1.06187   1.07302   1.08496   1.09129
 Alpha virt. eigenvalues --    1.12275   1.13059   1.13868   1.15206   1.17556
 Alpha virt. eigenvalues --    1.19209   1.20777   1.22594   1.24913   1.27153
 Alpha virt. eigenvalues --    1.29793   1.30085   1.32866   1.35254   1.35939
 Alpha virt. eigenvalues --    1.37113   1.38867   1.38951   1.40505   1.42309
 Alpha virt. eigenvalues --    1.44289   1.46225   1.49279   1.51845   1.53124
 Alpha virt. eigenvalues --    1.56322   1.61324   1.65737   1.66571   1.68552
 Alpha virt. eigenvalues --    1.72373   1.73118   1.73586   1.76724   1.76987
 Alpha virt. eigenvalues --    1.78110   1.79236   1.80179   1.82050   1.83255
 Alpha virt. eigenvalues --    1.84005   1.84364   1.85288   1.86460   1.87931
 Alpha virt. eigenvalues --    1.88656   1.90044   1.91582   1.91587   1.93487
 Alpha virt. eigenvalues --    1.95640   1.97020   2.00160   2.01171   2.01772
 Alpha virt. eigenvalues --    2.03221   2.03807   2.05565   2.06062   2.06118
 Alpha virt. eigenvalues --    2.07789   2.09926   2.10359   2.11399   2.11952
 Alpha virt. eigenvalues --    2.15003   2.15700   2.18615   2.19188   2.19397
 Alpha virt. eigenvalues --    2.20214   2.21062   2.23002   2.26401   2.26443
 Alpha virt. eigenvalues --    2.29005   2.30109   2.31016   2.31071   2.33735
 Alpha virt. eigenvalues --    2.35944   2.36680   2.37440   2.39888   2.39974
 Alpha virt. eigenvalues --    2.41507   2.43080   2.43902   2.44629   2.46348
 Alpha virt. eigenvalues --    2.46781   2.46919   2.50030   2.52805   2.54488
 Alpha virt. eigenvalues --    2.54607   2.55226   2.56813   2.57650   2.60319
 Alpha virt. eigenvalues --    2.61268   2.62117   2.62673   2.65029   2.66482
 Alpha virt. eigenvalues --    2.66654   2.69441   2.71346   2.72796   2.73137
 Alpha virt. eigenvalues --    2.74109   2.74788   2.76275   2.76377   2.78885
 Alpha virt. eigenvalues --    2.82791   2.84744   2.86084   2.86403   2.88925
 Alpha virt. eigenvalues --    2.89338   2.90641   2.90994   3.02320   3.04030
 Alpha virt. eigenvalues --    3.07441   3.07812   3.13124   3.18775   3.21133
 Alpha virt. eigenvalues --    3.21310   3.23092   3.25556   3.27316   3.27401
 Alpha virt. eigenvalues --    3.29260   3.33348   3.35286   3.39087   3.41288
 Alpha virt. eigenvalues --    3.44654   3.46123   3.46613   3.48623   3.49875
 Alpha virt. eigenvalues --    3.54041   3.79000   3.82117   4.13119   4.14812
 Alpha virt. eigenvalues --    4.16113   4.17516   4.18468   4.22118   4.35725
 Alpha virt. eigenvalues --    4.37445   4.42817   4.46298   4.47370   4.57897
 Alpha virt. eigenvalues --    4.58925   4.65772   4.79575   4.90783
          Condensed to atoms (all electrons):
               1          2          3          4          5          6
     1  C    4.945020   0.528704  -0.019329  -0.052711  -0.031277   0.502301
     2  C    0.528704   4.818911   0.493131  -0.032979  -0.050913  -0.020757
     3  C   -0.019329   0.493131   5.016223   0.494548  -0.005291  -0.047335
     4  C   -0.052711  -0.032979   0.494548   4.843113   0.500022  -0.019583
     5  C   -0.031277  -0.050913  -0.005291   0.500022   4.928798   0.521960
     6  C    0.502301  -0.020757  -0.047335  -0.019583   0.521960   4.849621
     7  H    0.361782  -0.037803   0.004793   0.000880   0.004433  -0.044045
     8  H    0.004577   0.000969   0.004227  -0.045036   0.366009  -0.041740
     9  H   -0.036880   0.003310   0.001324   0.003556  -0.036909   0.361203
    10  C    0.008028  -0.051894   0.322470  -0.065667   0.008367  -0.000270
    11  C   -0.000190   0.004103  -0.065667  -0.008579   0.000275   0.000024
    12  C    0.001039  -0.030745  -0.051894   0.004103  -0.000173   0.000004
    13  C    0.000001  -0.000173   0.008367   0.000275   0.000004   0.000000
    14  C    0.000013   0.001039   0.008028  -0.000190   0.000001  -0.000000
    15  C   -0.000000   0.000004  -0.000270   0.000024   0.000000   0.000000
    16  H   -0.000000   0.000001  -0.000171  -0.000002  -0.000000  -0.000000
    17  H   -0.000000  -0.000017  -0.000182   0.000002  -0.000000   0.000000
    18  H    0.000000   0.000000   0.000012  -0.000000   0.000000  -0.000000
    19  C   -0.058945   0.355242  -0.061608   0.008859   0.000101   0.007231
    20  H    0.001231  -0.027179  -0.004583  -0.000306   0.000024  -0.000228
    21  H   -0.007238  -0.033407   0.003963  -0.000112  -0.000007   0.000275
    22  C    0.000242  -0.032486  -0.021802  -0.000107   0.000062  -0.000232
    23  H    0.001257  -0.000727   0.003001  -0.000063  -0.000058  -0.000056
    24  H   -0.000155   0.003749   0.000967   0.000017  -0.000001   0.000003
    25  C    0.000246   0.007369  -0.053823   0.358856  -0.071640   0.006797
    26  H    0.000024  -0.000163   0.002090  -0.029584  -0.006057   0.000182
    27  H   -0.000058  -0.000035   0.007163   0.007162   0.000364  -0.000019
    28  H    0.000019  -0.000209   0.000142  -0.025637  -0.002285  -0.000126
    29  C    0.000028   0.000148  -0.014471  -0.005548  -0.000494   0.000001
    30  H   -0.000001   0.000009   0.000040   0.000242   0.000008  -0.000001
    31  H    0.000017   0.000040  -0.007092  -0.025060   0.003860  -0.000219
    32  H   -0.000000  -0.000005   0.001004  -0.001382  -0.000053   0.000001
               7          8          9         10         11         12
     1  C    0.361782   0.004577  -0.036880   0.008028  -0.000190   0.001039
     2  C   -0.037803   0.000969   0.003310  -0.051894   0.004103  -0.030745
     3  C    0.004793   0.004227   0.001324   0.322470  -0.065667  -0.051894
     4  C    0.000880  -0.045036   0.003556  -0.065667  -0.008579   0.004103
     5  C    0.004433   0.366009  -0.036909   0.008367   0.000275  -0.000173
     6  C   -0.044045  -0.041740   0.361203  -0.000270   0.000024   0.000004
     7  H    0.644092  -0.000216  -0.005404  -0.000182   0.000002  -0.000017
     8  H   -0.000216   0.646350  -0.005919  -0.000171  -0.000002   0.000001
     9  H   -0.005404  -0.005919   0.635255   0.000012  -0.000000   0.000000
    10  C   -0.000182  -0.000171   0.000012   5.016223   0.494548   0.493131
    11  C    0.000002  -0.000002  -0.000000   0.494548   4.843113  -0.032979
    12  C   -0.000017   0.000001   0.000000   0.493131  -0.032979   4.818911
    13  C   -0.000000  -0.000000   0.000000  -0.005291   0.500022  -0.050913
    14  C   -0.000000  -0.000000   0.000000  -0.019329  -0.052711   0.528704
    15  C    0.000000  -0.000000  -0.000000  -0.047335  -0.019583  -0.020757
    16  H    0.000000   0.000000  -0.000000   0.004227  -0.045036   0.000969
    17  H   -0.000000   0.000000  -0.000000   0.004793   0.000880  -0.037803
    18  H   -0.000000  -0.000000  -0.000000   0.001324   0.003556   0.003310
    19  C   -0.010622   0.000011  -0.000195  -0.021802  -0.000107  -0.032486
    20  H    0.000298  -0.000000   0.000003   0.003001  -0.000063  -0.000727
    21  H    0.005885  -0.000000  -0.000009   0.000967   0.000017   0.003749
    22  C    0.000251  -0.000000   0.000002  -0.061608   0.008859   0.355242
    23  H   -0.000016  -0.000000   0.000001  -0.004583  -0.000306  -0.027179
    24  H   -0.000005   0.000000  -0.000000   0.003963  -0.000112  -0.033407
    25  C    0.000012  -0.008795  -0.000210  -0.014471  -0.005548   0.000148
    26  H   -0.000000   0.003659  -0.000009   0.000040   0.000242   0.000009
    27  H   -0.000000  -0.000015  -0.000000  -0.007092  -0.025060   0.000040
    28  H   -0.000000   0.001431   0.000002   0.001004  -0.001382  -0.000005
    29  C    0.000000  -0.000004   0.000000  -0.053823   0.358856   0.007369
    30  H    0.000000  -0.000000  -0.000000   0.002090  -0.029584  -0.000163
    31  H   -0.000000   0.000112   0.000003   0.007163   0.007162  -0.000035
    32  H   -0.000000   0.000001   0.000000   0.000142  -0.025638  -0.000209
              13         14         15         16         17         18
     1  C    0.000001   0.000013  -0.000000  -0.000000  -0.000000   0.000000
     2  C   -0.000173   0.001039   0.000004   0.000001  -0.000017   0.000000
     3  C    0.008367   0.008028  -0.000270  -0.000171  -0.000182   0.000012
     4  C    0.000275  -0.000190   0.000024  -0.000002   0.000002  -0.000000
     5  C    0.000004   0.000001   0.000000  -0.000000  -0.000000   0.000000
     6  C    0.000000  -0.000000   0.000000  -0.000000   0.000000  -0.000000
     7  H   -0.000000  -0.000000   0.000000   0.000000  -0.000000  -0.000000
     8  H   -0.000000  -0.000000  -0.000000   0.000000   0.000000  -0.000000
     9  H    0.000000   0.000000  -0.000000  -0.000000  -0.000000  -0.000000
    10  C   -0.005291  -0.019329  -0.047335   0.004227   0.004793   0.001324
    11  C    0.500022  -0.052711  -0.019583  -0.045036   0.000880   0.003556
    12  C   -0.050913   0.528704  -0.020757   0.000969  -0.037803   0.003310
    13  C    4.928798  -0.031277   0.521960   0.366009   0.004433  -0.036909
    14  C   -0.031277   4.945019   0.502302   0.004577   0.361782  -0.036880
    15  C    0.521960   0.502302   4.849620  -0.041740  -0.044045   0.361203
    16  H    0.366009   0.004577  -0.041740   0.646350  -0.000216  -0.005919
    17  H    0.004433   0.361782  -0.044045  -0.000216   0.644092  -0.005404
    18  H   -0.036909  -0.036880   0.361203  -0.005919  -0.005404   0.635255
    19  C    0.000062   0.000242  -0.000232  -0.000000   0.000251   0.000002
    20  H   -0.000058   0.001257  -0.000056  -0.000000  -0.000016   0.000001
    21  H   -0.000001  -0.000155   0.000003   0.000000  -0.000005  -0.000000
    22  C    0.000101  -0.058945   0.007231   0.000011  -0.010622  -0.000195
    23  H    0.000024   0.001231  -0.000228  -0.000000   0.000298   0.000003
    24  H   -0.000007  -0.007238   0.000275  -0.000000   0.005885  -0.000009
    25  C   -0.000494   0.000028   0.000001  -0.000004   0.000000   0.000000
    26  H    0.000008  -0.000001  -0.000001  -0.000000   0.000000  -0.000000
    27  H    0.003860   0.000017  -0.000219   0.000112  -0.000000   0.000003
    28  H   -0.000053  -0.000000   0.000001   0.000001  -0.000000   0.000000
    29  C   -0.071640   0.000246   0.006797  -0.008795   0.000012  -0.000210
    30  H   -0.006057   0.000024   0.000182   0.003659  -0.000000  -0.000009
    31  H    0.000364  -0.000058  -0.000019  -0.000015  -0.000000  -0.000000
    32  H   -0.002285   0.000019  -0.000126   0.001431  -0.000000   0.000002
              19         20         21         22         23         24
     1  C   -0.058945   0.001231  -0.007238   0.000242   0.001257  -0.000155
     2  C    0.355242  -0.027179  -0.033407  -0.032486  -0.000727   0.003749
     3  C   -0.061608  -0.004583   0.003963  -0.021802   0.003001   0.000967
     4  C    0.008859  -0.000306  -0.000112  -0.000107  -0.000063   0.000017
     5  C    0.000101   0.000024  -0.000007   0.000062  -0.000058  -0.000001
     6  C    0.007231  -0.000228   0.000275  -0.000232  -0.000056   0.000003
     7  H   -0.010622   0.000298   0.005885   0.000251  -0.000016  -0.000005
     8  H    0.000011  -0.000000  -0.000000  -0.000000  -0.000000   0.000000
     9  H   -0.000195   0.000003  -0.000009   0.000002   0.000001  -0.000000
    10  C   -0.021802   0.003001   0.000967  -0.061608  -0.004583   0.003963
    11  C   -0.000107  -0.000063   0.000017   0.008859  -0.000306  -0.000112
    12  C   -0.032486  -0.000727   0.003749   0.355242  -0.027179  -0.033407
    13  C    0.000062  -0.000058  -0.000001   0.000101   0.000024  -0.000007
    14  C    0.000242   0.001257  -0.000155  -0.058945   0.001231  -0.007238
    15  C   -0.000232  -0.000056   0.000003   0.007231  -0.000228   0.000275
    16  H   -0.000000  -0.000000   0.000000   0.000011  -0.000000  -0.000000
    17  H    0.000251  -0.000016  -0.000005  -0.010622   0.000298   0.005885
    18  H    0.000002   0.000001  -0.000000  -0.000195   0.000003  -0.000009
    19  C    5.054086   0.358284   0.367445   0.346502  -0.041467  -0.029042
    20  H    0.358284   0.628164  -0.034372  -0.041467   0.006736  -0.003826
    21  H    0.367445  -0.034372   0.630630  -0.029042  -0.003826  -0.001906
    22  C    0.346502  -0.041467  -0.029042   5.054086   0.358284   0.367445
    23  H   -0.041467   0.006736  -0.003826   0.358284   0.628164  -0.034372
    24  H   -0.029042  -0.003826  -0.001906   0.367445  -0.034372   0.630630
    25  C   -0.000154  -0.000000   0.000002  -0.000019   0.000001  -0.000000
    26  H    0.000004  -0.000000  -0.000000   0.000000  -0.000001   0.000000
    27  H    0.000005   0.000003   0.000000  -0.000005   0.000000  -0.000000
    28  H    0.000000  -0.000000  -0.000000   0.000001  -0.000000   0.000000
    29  C   -0.000019   0.000001  -0.000000  -0.000154  -0.000000   0.000002
    30  H    0.000000  -0.000001   0.000000   0.000004  -0.000000  -0.000000
    31  H   -0.000005   0.000000  -0.000000   0.000005   0.000003   0.000000
    32  H    0.000001  -0.000000   0.000000   0.000000  -0.000000  -0.000000
              25         26         27         28         29         30
     1  C    0.000246   0.000024  -0.000058   0.000019   0.000028  -0.000001
     2  C    0.007369  -0.000163  -0.000035  -0.000209   0.000148   0.000009
     3  C   -0.053823   0.002090   0.007163   0.000142  -0.014471   0.000040
     4  C    0.358856  -0.029584   0.007162  -0.025637  -0.005548   0.000242
     5  C   -0.071640  -0.006057   0.000364  -0.002285  -0.000494   0.000008
     6  C    0.006797   0.000182  -0.000019  -0.000126   0.000001  -0.000001
     7  H    0.000012  -0.000000  -0.000000  -0.000000   0.000000   0.000000
     8  H   -0.008795   0.003659  -0.000015   0.001431  -0.000004  -0.000000
     9  H   -0.000210  -0.000009  -0.000000   0.000002   0.000000  -0.000000
    10  C   -0.014471   0.000040  -0.007092   0.001004  -0.053823   0.002090
    11  C   -0.005548   0.000242  -0.025060  -0.001382   0.358856  -0.029584
    12  C    0.000148   0.000009   0.000040  -0.000005   0.007369  -0.000163
    13  C   -0.000494   0.000008   0.003860  -0.000053  -0.071640  -0.006057
    14  C    0.000028  -0.000001   0.000017  -0.000000   0.000246   0.000024
    15  C    0.000001  -0.000001  -0.000219   0.000001   0.006797   0.000182
    16  H   -0.000004  -0.000000   0.000112   0.000001  -0.008795   0.003659
    17  H    0.000000   0.000000  -0.000000  -0.000000   0.000012  -0.000000
    18  H    0.000000  -0.000000   0.000003   0.000000  -0.000210  -0.000009
    19  C   -0.000154   0.000004   0.000005   0.000000  -0.000019   0.000000
    20  H   -0.000000  -0.000000   0.000003  -0.000000   0.000001  -0.000001
    21  H    0.000002  -0.000000   0.000000  -0.000000  -0.000000   0.000000
    22  C   -0.000019   0.000000  -0.000005   0.000001  -0.000154   0.000004
    23  H    0.000001  -0.000001   0.000000  -0.000000  -0.000000  -0.000000
    24  H   -0.000000   0.000000  -0.000000   0.000000   0.000002  -0.000000
    25  C    5.048199   0.374846  -0.002506   0.367356  -0.003217   0.000223
    26  H    0.374846   0.600998   0.000206  -0.032224   0.000223  -0.000008
    27  H   -0.002506   0.000206   0.581833  -0.001494   0.373443  -0.027249
    28  H    0.367356  -0.032224  -0.001494   0.604307   0.001114  -0.000006
    29  C   -0.003217   0.000223   0.373443   0.001114   5.048198   0.374846
    30  H    0.000223  -0.000008  -0.027249  -0.000006   0.374846   0.600999
    31  H    0.373443  -0.027250  -0.000068  -0.033128  -0.002506   0.000206
    32  H    0.001114  -0.000006  -0.033128   0.003411   0.367356  -0.032224
              31         32
     1  C    0.000017  -0.000000
     2  C    0.000040  -0.000005
     3  C   -0.007092   0.001004
     4  C   -0.025060  -0.001382
     5  C    0.003860  -0.000053
     6  C   -0.000219   0.000001
     7  H   -0.000000  -0.000000
     8  H    0.000112   0.000001
     9  H    0.000003   0.000000
    10  C    0.007163   0.000142
    11  C    0.007162  -0.025638
    12  C   -0.000035  -0.000209
    13  C    0.000364  -0.002285
    14  C   -0.000058   0.000019
    15  C   -0.000019  -0.000126
    16  H   -0.000015   0.001431
    17  H   -0.000000  -0.000000
    18  H   -0.000000   0.000002
    19  C   -0.000005   0.000001
    20  H    0.000000  -0.000000
    21  H   -0.000000   0.000000
    22  C    0.000005   0.000000
    23  H    0.000003  -0.000000
    24  H    0.000000  -0.000000
    25  C    0.373443   0.001114
    26  H   -0.027250  -0.000006
    27  H   -0.000068  -0.033128
    28  H   -0.033128   0.003411
    29  C   -0.002506   0.367356
    30  H    0.000206  -0.032224
    31  H    0.581833  -0.001494
    32  H   -0.001494   0.604307
 Mulliken charges:
               1
     1  C   -0.147745
     2  C    0.102761
     3  C   -0.017974
     4  C    0.090888
     5  C   -0.129130
     6  C   -0.074990
     7  H    0.075883
     8  H    0.074550
     9  H    0.080866
    10  C   -0.017974
    11  C    0.090888
    12  C    0.102761
    13  C   -0.129130
    14  C   -0.147745
    15  C   -0.074989
    16  H    0.074550
    17  H    0.075883
    18  H    0.080866
    19  C   -0.241643
    20  H    0.113880
    21  H    0.097144
    22  C   -0.241643
    23  H    0.113880
    24  H    0.097144
    25  C   -0.377760
    26  H    0.112772
    27  H    0.122738
    28  H    0.117760
    29  C   -0.377760
    30  H    0.112772
    31  H    0.122738
    32  H    0.117760
 Sum of Mulliken charges =  -0.00000
 Mulliken charges with hydrogens summed into heavy atoms:
               1
     1  C   -0.071862
     2  C    0.102761
     3  C   -0.017974
     4  C    0.090888
     5  C   -0.054580
     6  C    0.005876
    10  C   -0.017974
    11  C    0.090888
    12  C    0.102761
    13  C   -0.054580
    14  C   -0.071862
    15  C    0.005877
    19  C   -0.030619
    22  C   -0.030619
    25  C   -0.024491
    29  C   -0.024491
 Electronic spatial extent (au):  <R**2>=           3275.5775
 Charge=             -0.0000 electrons
 Dipole moment (field-independent basis, Debye):
    X=              0.0000    Y=              0.0265    Z=              0.0000  Tot=              0.0265
 Quadrupole moment (field-independent basis, Debye-Ang):
   XX=            -88.9579   YY=            -86.7564   ZZ=            -96.6436
   XY=             -0.0000   XZ=              0.4209   YZ=             -0.0000
 Traceless Quadrupole moment (field-independent basis, Debye-Ang):
   XX=              1.8281   YY=              4.0296   ZZ=             -5.8577
   XY=             -0.0000   XZ=              0.4209   YZ=             -0.0000
 Octapole moment (field-independent basis, Debye-Ang**2):
  XXX=              0.0000  YYY=              2.9322  ZZZ=              0.0000  XYY=              0.0000
  XXY=             -0.7319  XXZ=             -0.0000  XZZ=              0.0000  YZZ=             -1.3583
  YYZ=              0.0000  XYZ=             -9.6043
 Hexadecapole moment (field-independent basis, Debye-Ang**3):
 XXXX=          -2480.2634 YYYY=          -1474.1662 ZZZZ=           -343.5418 XXXY=              0.0000
 XXXZ=            -13.1880 YYYX=             -0.0000 YYYZ=              0.0000 ZZZX=             10.5410
 ZZZY=             -0.0000 XXYY=           -664.7490 XXZZ=           -532.2297 YYZZ=           -307.2426
 XXYZ=             -0.0000 YYXZ=              2.2475 ZZXY=             -0.0000
 N-N= 1.047237846893D+03 E-N=-3.527774837102D+03  KE= 6.132945204299D+02
 No NMR shielding tensors so no spin-rotation constants.
 Leave Link  601 at Tue May 20 08:10:44 2025, MaxMem=   104857600 cpu:              32.4 elap:               1.7
 (Enter /opt/linux/rocky/8/software/gaussian/16c01_avx2/g16/l701.exe)
 ... and contract with generalized density number  0.
 Compute integral first derivatives.
 PrsmSu:  requested number of processors reduced to:  29 ShMem   1 Linda.
 Leave Link  701 at Tue May 20 08:10:46 2025, MaxMem=   104857600 cpu:              27.3 elap:               1.6
 (Enter /opt/linux/rocky/8/software/gaussian/16c01_avx2/g16/l702.exe)
 L702 exits ... SP integral derivatives will be done elsewhere.
 Leave Link  702 at Tue May 20 08:10:46 2025, MaxMem=   104857600 cpu:               0.2 elap:               0.0
 (Enter /opt/linux/rocky/8/software/gaussian/16c01_avx2/g16/l703.exe)
 Integral derivatives from FoFJK, PRISM(SPDF).
 Compute integral first derivatives, UseDBF=F ICtDFT=           0.
 Calling FoFJK, ICntrl=      2127 FMM=F ISym2X=0 I1Cent= 0 IOpClX= 0 NMat=1 NMatS=1 NMatT=0.
 FoFJK:  IHMeth= 1 ICntrl=    2127 DoSepK=F KAlg= 0 I1Cent=           0 FoldK=F
 IRaf=         0 NMat=       1 IRICut=       1 DoRegI=T DoRafI=F ISym2E= 0 IDoP0=0 IntGTp=1.
 FoFCou: FMM=F IPFlag=           0 FMFlag=      100000 FMFlg1=         800
         NFxFlg=           0 DoJE=F BraDBF=F KetDBF=F FulRan=T
         wScrn=  0.000000 ICntrl=      2127 IOpCl=  0 I1Cent=           0 NGrid=           0
         NMat0=    1 NMatS0=      1 NMatT0=    0 NMatD0=    1 NMtDS0=    0 NMtDT0=    0
 Symmetry not used in FoFCou.
 Leave Link  703 at Tue May 20 08:10:48 2025, MaxMem=   104857600 cpu:              57.9 elap:               1.9
 (Enter /opt/linux/rocky/8/software/gaussian/16c01_avx2/g16/l716.exe)
 Dipole        = 5.67697564D-07 1.04225437D-02 2.50526717D-08
 ***** Axes restored to original set *****
 -------------------------------------------------------------------
 Center     Atomic                   Forces (Hartrees/Bohr)
 Number     Number              X              Y              Z
 -------------------------------------------------------------------
      1        6           0.000000787   -0.000000492    0.000000062
      2        6          -0.000000022    0.000000230   -0.000000101
      3        6          -0.000000017   -0.000000492    0.000000239
      4        6          -0.000000374    0.000000552   -0.000000285
      5        6           0.000000817   -0.000000047    0.000000058
      6        6          -0.000000631    0.000000190    0.000000173
      7        1          -0.000000107    0.000000002    0.000000119
      8        1          -0.000000248    0.000000269   -0.000000044
      9        1           0.000000013   -0.000000028    0.000000098
     10        6           0.000000022   -0.000000333   -0.000000191
     11        6           0.000000453    0.000000386    0.000000222
     12        6          -0.000000578   -0.000000000    0.000000136
     13        6          -0.000000570   -0.000000449   -0.000000331
     14        6           0.000000528    0.000000533   -0.000000063
     15        6          -0.000000011   -0.000000107   -0.000000005
     16        1           0.000000259    0.000000263    0.000000032
     17        1           0.000000003   -0.000000150   -0.000000092
     18        1          -0.000000035   -0.000000062   -0.000000133
     19        6          -0.000000001    0.000000106    0.000000492
     20        1          -0.000000011    0.000000066   -0.000000020
     21        1          -0.000000073   -0.000000110   -0.000000083
     22        6          -0.000000106    0.000000042   -0.000000394
     23        1           0.000000040    0.000000021    0.000000022
     24        1           0.000000054   -0.000000077   -0.000000009
     25        6          -0.000000571    0.000000128    0.000000463
     26        1           0.000000049   -0.000000079    0.000000095
     27        1           0.000000299    0.000000114   -0.000000060
     28        1           0.000000043   -0.000000258   -0.000000151
     29        6          -0.000000505   -0.000000019   -0.000000548
     30        1           0.000000260    0.000000055    0.000000238
     31        1           0.000000243   -0.000000008   -0.000000128
     32        1          -0.000000010   -0.000000245    0.000000190
 -------------------------------------------------------------------
 Cartesian Forces:  Max     0.000000817 RMS     0.000000279
 Leave Link  716 at Tue May 20 08:10:48 2025, MaxMem=   104857600 cpu:               0.2 elap:               0.0
 (Enter /opt/linux/rocky/8/software/gaussian/16c01_avx2/g16/l103.exe)

 GradGradGradGradGradGradGradGradGradGradGradGradGradGradGradGradGradGrad
 Berny optimization.
 FormGI is forming the generalized inverse of G from B-inverse, IUseBI=4.
 Internal  Forces:  Max     0.000000524 RMS     0.000000118
 Search for a local minimum.
 Step number   1 out of a maximum of  189
 All quantities printed in internal units (Hartrees-Bohrs-Radians)
 RMS Force = .11781D-06 SwitMx=.10000D-02 MixMth= 2
 Mixed Optimization -- En-DIIS/RFO-DIIS
 Second derivative matrix not updated -- first step.
 ITU=  0
     Eigenvalues ---    0.00576   0.00576   0.00764   0.01069   0.01289
     Eigenvalues ---    0.01409   0.01426   0.01551   0.01622   0.01761
     Eigenvalues ---    0.01876   0.02027   0.02027   0.02129   0.02130
     Eigenvalues ---    0.02173   0.02173   0.02184   0.02184   0.02202
     Eigenvalues ---    0.02202   0.03848   0.04853   0.05594   0.06378
     Eigenvalues ---    0.06858   0.06858   0.07248   0.07248   0.08189
     Eigenvalues ---    0.08662   0.08718   0.11180   0.15970   0.15970
     Eigenvalues ---    0.15993   0.15993   0.15995   0.15995   0.16000
     Eigenvalues ---    0.16000   0.16000   0.16000   0.16000   0.16000
     Eigenvalues ---    0.19304   0.21570   0.22089   0.22092   0.23368
     Eigenvalues ---    0.23470   0.24452   0.24682   0.24750   0.24910
     Eigenvalues ---    0.24916   0.27044   0.29928   0.29988   0.30919
     Eigenvalues ---    0.30919   0.32288   0.33763   0.33763   0.34199
     Eigenvalues ---    0.34199   0.34253   0.34253   0.34271   0.34271
     Eigenvalues ---    0.34686   0.34686   0.35111   0.35111   0.35158
     Eigenvalues ---    0.35158   0.35253   0.35253   0.38112   0.39156
     Eigenvalues ---    0.40948   0.40950   0.43466   0.43514   0.45420
     Eigenvalues ---    0.45441   0.46084   0.46095   0.47037   0.47037
 RFO step:  Lambda= 0.00000000D+00 EMin= 5.76327973D-03
 Linear search not attempted -- first point.
 Iteration  1 RMS(Cart)=  0.00000077 RMS(Int)=  0.00000000
 ITry= 1 IFail=0 DXMaxC= 3.13D-06 DCOld= 1.00D+10 DXMaxT= 3.00D-01 DXLimC= 3.00D+00 Rises=F
 Variable       Old X    -DE/DX   Delta X   Delta X   Delta X     New X
                                 (Linear)    (Quad)   (Total)
    R1        2.63078   0.00000   0.00000   0.00000   0.00000   2.63078
    R2        2.63642  -0.00000   0.00000  -0.00000  -0.00000   2.63641
    R3        2.05418  -0.00000   0.00000  -0.00000  -0.00000   2.05418
    R4        2.68266   0.00000   0.00000   0.00000   0.00000   2.68266
    R5        2.85798   0.00000   0.00000   0.00000   0.00000   2.85798
    R6        2.67465  -0.00000   0.00000  -0.00000  -0.00000   2.67465
    R7        2.82358  -0.00000   0.00000  -0.00000  -0.00000   2.82358
    R8        2.65315   0.00000   0.00000   0.00000   0.00000   2.65315
    R9        2.86168   0.00000   0.00000   0.00000   0.00000   2.86168
   R10        2.62530  -0.00000   0.00000  -0.00000  -0.00000   2.62530
   R11        2.05496  -0.00000   0.00000  -0.00000  -0.00000   2.05496
   R12        2.05266   0.00000   0.00000   0.00000   0.00000   2.05266
   R13        2.67465  -0.00000   0.00000  -0.00000  -0.00000   2.67465
   R14        2.68266   0.00000   0.00000   0.00000   0.00000   2.68266
   R15        2.65315   0.00000   0.00000   0.00000   0.00000   2.65315
   R16        2.86168   0.00000   0.00000   0.00000   0.00000   2.86168
   R17        2.63078  -0.00000   0.00000  -0.00000  -0.00000   2.63078
   R18        2.85798   0.00000   0.00000   0.00000   0.00000   2.85798
   R19        2.62530   0.00000   0.00000   0.00000   0.00000   2.62530
   R20        2.05496  -0.00000   0.00000  -0.00000  -0.00000   2.05496
   R21        2.63641   0.00000   0.00000   0.00000   0.00000   2.63641
   R22        2.05418  -0.00000   0.00000  -0.00000  -0.00000   2.05418
   R23        2.05266   0.00000   0.00000   0.00000   0.00000   2.05266
   R24        2.07733   0.00000   0.00000   0.00000   0.00000   2.07733
   R25        2.06875  -0.00000   0.00000  -0.00000  -0.00000   2.06875
   R26        2.90741  -0.00000   0.00000  -0.00000  -0.00000   2.90741
   R27        2.07733   0.00000   0.00000   0.00000   0.00000   2.07733
   R28        2.06875  -0.00000   0.00000  -0.00000  -0.00000   2.06875
   R29        2.06906   0.00000   0.00000   0.00000   0.00000   2.06906
   R30        2.06996   0.00000   0.00000   0.00000   0.00000   2.06996
   R31        2.06188  -0.00000   0.00000  -0.00000  -0.00000   2.06188
   R32        2.06187   0.00000   0.00000   0.00000   0.00000   2.06188
   R33        2.06906  -0.00000   0.00000  -0.00000  -0.00000   2.06906
   R34        2.06996   0.00000   0.00000   0.00000   0.00000   2.06996
    A1        2.10028   0.00000   0.00000   0.00000   0.00000   2.10028
    A2        2.08375  -0.00000   0.00000  -0.00000  -0.00000   2.08375
    A3        2.09882   0.00000   0.00000   0.00000   0.00000   2.09882
    A4        2.10422  -0.00000   0.00000  -0.00000  -0.00000   2.10422
    A5        2.11628   0.00000   0.00000   0.00000   0.00000   2.11628
    A6        2.05881  -0.00000   0.00000  -0.00000  -0.00000   2.05881
    A7        2.06971  -0.00000   0.00000  -0.00000  -0.00000   2.06971
    A8        2.03845   0.00000   0.00000   0.00000   0.00000   2.03845
    A9        2.17259   0.00000   0.00000   0.00000   0.00000   2.17259
   A10        2.07435   0.00000   0.00000   0.00000   0.00000   2.07435
   A11        2.15835  -0.00000   0.00000  -0.00000  -0.00000   2.15835
   A12        2.04705   0.00000   0.00000  -0.00000  -0.00000   2.04705
   A13        2.12497  -0.00000   0.00000  -0.00000  -0.00000   2.12497
   A14        2.06962  -0.00000   0.00000  -0.00000  -0.00000   2.06962
   A15        2.08816   0.00000   0.00000   0.00000   0.00000   2.08816
   A16        2.08131   0.00000   0.00000   0.00000   0.00000   2.08131
   A17        2.10088  -0.00000   0.00000  -0.00000  -0.00000   2.10088
   A18        2.09947  -0.00000   0.00000  -0.00000  -0.00000   2.09947
   A19        2.17259   0.00000   0.00000   0.00000   0.00000   2.17259
   A20        2.03845  -0.00000   0.00000   0.00000   0.00000   2.03845
   A21        2.06971  -0.00000   0.00000  -0.00000  -0.00000   2.06971
   A22        2.07435   0.00000   0.00000   0.00000   0.00000   2.07435
   A23        2.15835   0.00000   0.00000   0.00000   0.00000   2.15835
   A24        2.04705  -0.00000   0.00000  -0.00000  -0.00000   2.04705
   A25        2.10422   0.00000   0.00000   0.00000   0.00000   2.10422
   A26        2.05881  -0.00000   0.00000  -0.00000  -0.00000   2.05881
   A27        2.11628  -0.00000   0.00000  -0.00000  -0.00000   2.11628
   A28        2.12497  -0.00000   0.00000  -0.00000  -0.00000   2.12497
   A29        2.06962   0.00000   0.00000   0.00000   0.00000   2.06962
   A30        2.08816   0.00000   0.00000   0.00000   0.00000   2.08816
   A31        2.10028  -0.00000   0.00000  -0.00000  -0.00000   2.10028
   A32        2.08375   0.00000   0.00000   0.00000   0.00000   2.08375
   A33        2.09882  -0.00000   0.00000  -0.00000  -0.00000   2.09882
   A34        2.08131   0.00000   0.00000   0.00000   0.00000   2.08131
   A35        2.09947  -0.00000   0.00000  -0.00000  -0.00000   2.09947
   A36        2.10088   0.00000   0.00000   0.00000   0.00000   2.10088
   A37        1.94471   0.00000   0.00000   0.00000   0.00000   1.94471
   A38        1.91885  -0.00000   0.00000   0.00000   0.00000   1.91885
   A39        1.88852   0.00000   0.00000   0.00000   0.00000   1.88852
   A40        1.87133  -0.00000   0.00000  -0.00000  -0.00000   1.87133
   A41        1.90033  -0.00000   0.00000  -0.00000  -0.00000   1.90033
   A42        1.94059   0.00000   0.00000   0.00000   0.00000   1.94059
   A43        1.88852   0.00000   0.00000   0.00000   0.00000   1.88852
   A44        1.94471   0.00000   0.00000   0.00000   0.00000   1.94471
   A45        1.91885  -0.00000   0.00000   0.00000   0.00000   1.91885
   A46        1.90033  -0.00000   0.00000  -0.00000  -0.00000   1.90033
   A47        1.94059  -0.00000   0.00000   0.00000   0.00000   1.94059
   A48        1.87133   0.00000   0.00000  -0.00000  -0.00000   1.87133
   A49        1.90998   0.00000   0.00000   0.00000   0.00000   1.90998
   A50        1.96222  -0.00000   0.00000  -0.00000  -0.00000   1.96222
   A51        1.95760  -0.00000   0.00000  -0.00000  -0.00000   1.95760
   A52        1.86488  -0.00000   0.00000  -0.00000  -0.00000   1.86488
   A53        1.88263   0.00000   0.00000   0.00000   0.00000   1.88263
   A54        1.88258   0.00000   0.00000   0.00000   0.00000   1.88258
   A55        1.95760  -0.00000   0.00000  -0.00000  -0.00000   1.95760
   A56        1.90998   0.00000   0.00000   0.00000   0.00000   1.90998
   A57        1.96222  -0.00000   0.00000  -0.00000  -0.00000   1.96222
   A58        1.88263   0.00000   0.00000   0.00000   0.00000   1.88263
   A59        1.88258   0.00000   0.00000   0.00000   0.00000   1.88258
   A60        1.86488   0.00000   0.00000   0.00000   0.00000   1.86488
    D1       -0.04191  -0.00000   0.00000  -0.00000  -0.00000  -0.04191
    D2        3.00328  -0.00000   0.00000  -0.00000  -0.00000   3.00328
    D3        3.12707   0.00000   0.00000   0.00000   0.00000   3.12707
    D4       -0.11094  -0.00000   0.00000   0.00000   0.00000  -0.11094
    D5       -0.06439   0.00000   0.00000   0.00000   0.00000  -0.06439
    D6        3.13644   0.00000   0.00000   0.00000   0.00000   3.13644
    D7        3.04959  -0.00000   0.00000  -0.00000  -0.00000   3.04959
    D8       -0.03277  -0.00000   0.00000  -0.00000  -0.00000  -0.03277
    D9        0.14869   0.00000   0.00000   0.00000   0.00000   0.14869
   D10       -3.06462   0.00000   0.00000   0.00000   0.00000  -3.06462
   D11       -2.89960   0.00000   0.00000   0.00000   0.00000  -2.89960
   D12        0.17028   0.00000   0.00000   0.00000   0.00000   0.17028
   D13        1.81718   0.00000   0.00000   0.00000   0.00000   1.81718
   D14       -0.25501   0.00000   0.00000   0.00000   0.00000  -0.25501
   D15       -2.37740  -0.00000   0.00000  -0.00000  -0.00000  -2.37740
   D16       -1.41839  -0.00000   0.00000  -0.00000  -0.00000  -1.41839
   D17        2.79260   0.00000   0.00000   0.00000   0.00000   2.79260
   D18        0.67021  -0.00000   0.00000  -0.00000  -0.00000   0.67021
   D19       -0.14851  -0.00000   0.00000   0.00000   0.00000  -0.14851
   D20        2.90157  -0.00000   0.00000  -0.00000  -0.00000   2.90157
   D21        3.07075  -0.00000   0.00000   0.00000   0.00000   3.07076
   D22       -0.16235  -0.00000   0.00000  -0.00000  -0.00000  -0.16235
   D23        2.43621   0.00000   0.00000  -0.00000  -0.00000   2.43621
   D24       -0.62898   0.00000   0.00000  -0.00000  -0.00000  -0.62898
   D25       -0.78178   0.00000   0.00000  -0.00000  -0.00000  -0.78178
   D26        2.43621   0.00000   0.00000  -0.00000  -0.00000   2.43621
   D27        0.04516   0.00000   0.00000   0.00000   0.00000   0.04516
   D28       -3.12817   0.00000   0.00000   0.00000   0.00000  -3.12816
   D29       -3.01074   0.00000   0.00000   0.00000   0.00000  -3.01074
   D30        0.09912   0.00000   0.00000   0.00000   0.00000   0.09912
   D31       -2.31771  -0.00000   0.00000  -0.00000  -0.00000  -2.31771
   D32        1.89615   0.00000   0.00000   0.00000   0.00000   1.89615
   D33       -0.22906   0.00000   0.00000   0.00000   0.00000  -0.22906
   D34        0.73370  -0.00000   0.00000  -0.00000  -0.00000   0.73370
   D35       -1.33563   0.00000   0.00000  -0.00000  -0.00000  -1.33564
   D36        2.82234   0.00000   0.00000  -0.00000  -0.00000   2.82234
   D37        0.06283  -0.00000   0.00000  -0.00000  -0.00000   0.06283
   D38       -3.13796   0.00000   0.00000   0.00000   0.00000  -3.13796
   D39       -3.04670  -0.00000   0.00000  -0.00000  -0.00000  -3.04670
   D40        0.03570   0.00000   0.00000   0.00000   0.00000   0.03570
   D41        3.07075   0.00000   0.00000   0.00000   0.00000   3.07076
   D42       -0.16235  -0.00000   0.00000  -0.00000  -0.00000  -0.16235
   D43       -0.14851  -0.00000   0.00000   0.00000   0.00000  -0.14851
   D44        2.90157  -0.00000   0.00000  -0.00000  -0.00000   2.90157
   D45       -3.06462   0.00000   0.00000  -0.00000  -0.00000  -3.06462
   D46        0.17028   0.00000   0.00000   0.00000   0.00000   0.17028
   D47        0.14869   0.00000   0.00000  -0.00000  -0.00000   0.14869
   D48       -2.89960   0.00000   0.00000   0.00000   0.00000  -2.89960
   D49        0.04516  -0.00000   0.00000  -0.00000  -0.00000   0.04516
   D50       -3.12817   0.00000   0.00000   0.00000   0.00000  -3.12817
   D51       -3.01074  -0.00000   0.00000   0.00000   0.00000  -3.01074
   D52        0.09912   0.00000   0.00000   0.00000   0.00000   0.09912
   D53       -0.22906   0.00000   0.00000   0.00000   0.00000  -0.22906
   D54       -2.31771   0.00000   0.00000   0.00000   0.00000  -2.31771
   D55        1.89615  -0.00000   0.00000   0.00000   0.00000   1.89615
   D56        2.82234   0.00000   0.00000  -0.00000  -0.00000   2.82234
   D57        0.73370   0.00000   0.00000  -0.00000  -0.00000   0.73370
   D58       -1.33563  -0.00000   0.00000  -0.00000  -0.00000  -1.33563
   D59       -0.04191   0.00000   0.00000   0.00000   0.00000  -0.04191
   D60        3.12707  -0.00000   0.00000  -0.00000  -0.00000   3.12707
   D61        3.00328  -0.00000   0.00000  -0.00000  -0.00000   3.00328
   D62       -0.11093  -0.00000   0.00000  -0.00000  -0.00000  -0.11094
   D63        0.67021  -0.00000   0.00000  -0.00000  -0.00000   0.67021
   D64       -1.41839   0.00000   0.00000  -0.00000  -0.00000  -1.41839
   D65        2.79261   0.00000   0.00000  -0.00000  -0.00000   2.79261
   D66       -2.37740  -0.00000   0.00000  -0.00000  -0.00000  -2.37740
   D67        1.81718   0.00000   0.00000   0.00000   0.00000   1.81718
   D68       -0.25501   0.00000   0.00000   0.00000   0.00000  -0.25501
   D69        0.06282   0.00000   0.00000   0.00000   0.00000   0.06283
   D70       -3.13796   0.00000   0.00000   0.00000   0.00000  -3.13796
   D71       -3.04670   0.00000   0.00000   0.00000   0.00000  -3.04670
   D72        0.03570  -0.00000   0.00000  -0.00000  -0.00000   0.03570
   D73       -0.06439  -0.00000   0.00000  -0.00000  -0.00000  -0.06439
   D74        3.13644  -0.00000   0.00000  -0.00000  -0.00000   3.13644
   D75        3.04959  -0.00000   0.00000  -0.00000  -0.00000   3.04959
   D76       -0.03277   0.00000   0.00000   0.00000   0.00000  -0.03277
   D77       -1.06895   0.00000   0.00000   0.00000   0.00000  -1.06894
   D78        1.04735   0.00000   0.00000   0.00000   0.00000   1.04735
   D79        3.10530  -0.00000   0.00000   0.00000   0.00000   3.10530
   D80        1.04735   0.00000   0.00000   0.00000   0.00000   1.04735
   D81       -3.11955   0.00000   0.00000   0.00000   0.00000  -3.11955
   D82       -1.06159   0.00000   0.00000   0.00000   0.00000  -1.06159
   D83        3.10530  -0.00000   0.00000   0.00000   0.00000   3.10530
   D84       -1.06159  -0.00000   0.00000   0.00000   0.00000  -1.06159
   D85        0.99636  -0.00000   0.00000  -0.00000  -0.00000   0.99636
         Item               Value     Threshold  Converged?
 Maximum Force            0.000001     0.000002     YES
 RMS     Force            0.000000     0.000001     YES
 Maximum Displacement     0.000003     0.000006     YES
 RMS     Displacement     0.000001     0.000004     YES
 Predicted change in Energy=-3.960504D-12
 Optimization completed.
    -- Stationary point found.
                           ----------------------------
                           !   Optimized Parameters   !
                           ! (Angstroms and Degrees)  !
 --------------------------                            --------------------------
 ! Name  Definition              Value          Derivative Info.                !
 --------------------------------------------------------------------------------
 ! R1    R(1,2)                  1.3921         -DE/DX =    0.0                 !
 ! R2    R(1,6)                  1.3951         -DE/DX =    0.0                 !
 ! R3    R(1,7)                  1.087          -DE/DX =    0.0                 !
 ! R4    R(2,3)                  1.4196         -DE/DX =    0.0                 !
 ! R5    R(2,19)                 1.5124         -DE/DX =    0.0                 !
 ! R6    R(3,4)                  1.4154         -DE/DX =    0.0                 !
 ! R7    R(3,10)                 1.4942         -DE/DX =    0.0                 !
 ! R8    R(4,5)                  1.404          -DE/DX =    0.0                 !
 ! R9    R(4,25)                 1.5143         -DE/DX =    0.0                 !
 ! R10   R(5,6)                  1.3892         -DE/DX =    0.0                 !
 ! R11   R(5,8)                  1.0874         -DE/DX =    0.0                 !
 ! R12   R(6,9)                  1.0862         -DE/DX =    0.0                 !
 ! R13   R(10,11)                1.4154         -DE/DX =    0.0                 !
 ! R14   R(10,12)                1.4196         -DE/DX =    0.0                 !
 ! R15   R(11,13)                1.404          -DE/DX =    0.0                 !
 ! R16   R(11,29)                1.5143         -DE/DX =    0.0                 !
 ! R17   R(12,14)                1.3921         -DE/DX =    0.0                 !
 ! R18   R(12,22)                1.5124         -DE/DX =    0.0                 !
 ! R19   R(13,15)                1.3892         -DE/DX =    0.0                 !
 ! R20   R(13,16)                1.0874         -DE/DX =    0.0                 !
 ! R21   R(14,15)                1.3951         -DE/DX =    0.0                 !
 ! R22   R(14,17)                1.087          -DE/DX =    0.0                 !
 ! R23   R(15,18)                1.0862         -DE/DX =    0.0                 !
 ! R24   R(19,20)                1.0993         -DE/DX =    0.0                 !
 ! R25   R(19,21)                1.0947         -DE/DX =    0.0                 !
 ! R26   R(19,22)                1.5385         -DE/DX =    0.0                 !
 ! R27   R(22,23)                1.0993         -DE/DX =    0.0                 !
 ! R28   R(22,24)                1.0947         -DE/DX =    0.0                 !
 ! R29   R(25,26)                1.0949         -DE/DX =    0.0                 !
 ! R30   R(25,28)                1.0954         -DE/DX =    0.0                 !
 ! R31   R(25,31)                1.0911         -DE/DX =    0.0                 !
 ! R32   R(27,29)                1.0911         -DE/DX =    0.0                 !
 ! R33   R(29,30)                1.0949         -DE/DX =    0.0                 !
 ! R34   R(29,32)                1.0954         -DE/DX =    0.0                 !
 ! A1    A(2,1,6)              120.3374         -DE/DX =    0.0                 !
 ! A2    A(2,1,7)              119.3902         -DE/DX =    0.0                 !
 ! A3    A(6,1,7)              120.2537         -DE/DX =    0.0                 !
 ! A4    A(1,2,3)              120.5628         -DE/DX =    0.0                 !
 ! A5    A(1,2,19)             121.2539         -DE/DX =    0.0                 !
 ! A6    A(3,2,19)             117.9613         -DE/DX =    0.0                 !
 ! A7    A(2,3,4)              118.5854         -DE/DX =    0.0                 !
 ! A8    A(2,3,10)             116.7944         -DE/DX =    0.0                 !
 ! A9    A(4,3,10)             124.4801         -DE/DX =    0.0                 !
 ! A10   A(3,4,5)              118.8517         -DE/DX =    0.0                 !
 ! A11   A(3,4,25)             123.6642         -DE/DX =    0.0                 !
 ! A12   A(5,4,25)             117.2872         -DE/DX =    0.0                 !
 ! A13   A(4,5,6)              121.7519         -DE/DX =    0.0                 !
 ! A14   A(4,5,8)              118.5806         -DE/DX =    0.0                 !
 ! A15   A(6,5,8)              119.6427         -DE/DX =    0.0                 !
 ! A16   A(1,6,5)              119.25           -DE/DX =    0.0                 !
 ! A17   A(1,6,9)              120.3716         -DE/DX =    0.0                 !
 ! A18   A(5,6,9)              120.2908         -DE/DX =    0.0                 !
 ! A19   A(3,10,11)            124.4801         -DE/DX =    0.0                 !
 ! A20   A(3,10,12)            116.7944         -DE/DX =    0.0                 !
 ! A21   A(11,10,12)           118.5854         -DE/DX =    0.0                 !
 ! A22   A(10,11,13)           118.8517         -DE/DX =    0.0                 !
 ! A23   A(10,11,29)           123.6642         -DE/DX =    0.0                 !
 ! A24   A(13,11,29)           117.2873         -DE/DX =    0.0                 !
 ! A25   A(10,12,14)           120.5627         -DE/DX =    0.0                 !
 ! A26   A(10,12,22)           117.9613         -DE/DX =    0.0                 !
 ! A27   A(14,12,22)           121.254          -DE/DX =    0.0                 !
 ! A28   A(11,13,15)           121.7519         -DE/DX =    0.0                 !
 ! A29   A(11,13,16)           118.5806         -DE/DX =    0.0                 !
 ! A30   A(15,13,16)           119.6427         -DE/DX =    0.0                 !
 ! A31   A(12,14,15)           120.3374         -DE/DX =    0.0                 !
 ! A32   A(12,14,17)           119.3901         -DE/DX =    0.0                 !
 ! A33   A(15,14,17)           120.2538         -DE/DX =    0.0                 !
 ! A34   A(13,15,14)           119.2501         -DE/DX =    0.0                 !
 ! A35   A(13,15,18)           120.2908         -DE/DX =    0.0                 !
 ! A36   A(14,15,18)           120.3715         -DE/DX =    0.0                 !
 ! A37   A(2,19,20)            111.4235         -DE/DX =    0.0                 !
 ! A38   A(2,19,21)            109.9419         -DE/DX =    0.0                 !
 ! A39   A(2,19,22)            108.2043         -DE/DX =    0.0                 !
 ! A40   A(20,19,21)           107.2195         -DE/DX =    0.0                 !
 ! A41   A(20,19,22)           108.8809         -DE/DX =    0.0                 !
 ! A42   A(21,19,22)           111.1875         -DE/DX =    0.0                 !
 ! A43   A(12,22,19)           108.2043         -DE/DX =    0.0                 !
 ! A44   A(12,22,23)           111.4235         -DE/DX =    0.0                 !
 ! A45   A(12,22,24)           109.9419         -DE/DX =    0.0                 !
 ! A46   A(19,22,23)           108.8809         -DE/DX =    0.0                 !
 ! A47   A(19,22,24)           111.1875         -DE/DX =    0.0                 !
 ! A48   A(23,22,24)           107.2194         -DE/DX =    0.0                 !
 ! A49   A(4,25,26)            109.4338         -DE/DX =    0.0                 !
 ! A50   A(4,25,28)            112.427          -DE/DX =    0.0                 !
 ! A51   A(4,25,31)            112.1622         -DE/DX =    0.0                 !
 ! A52   A(26,25,28)           106.8498         -DE/DX =    0.0                 !
 ! A53   A(26,25,31)           107.867          -DE/DX =    0.0                 !
 ! A54   A(28,25,31)           107.864          -DE/DX =    0.0                 !
 ! A55   A(11,29,27)           112.1623         -DE/DX =    0.0                 !
 ! A56   A(11,29,30)           109.4337         -DE/DX =    0.0                 !
 ! A57   A(11,29,32)           112.427          -DE/DX =    0.0                 !
 ! A58   A(27,29,30)           107.867          -DE/DX =    0.0                 !
 ! A59   A(27,29,32)           107.864          -DE/DX =    0.0                 !
 ! A60   A(30,29,32)           106.8498         -DE/DX =    0.0                 !
 ! D1    D(6,1,2,3)             -2.401          -DE/DX =    0.0                 !
 ! D2    D(6,1,2,19)           172.0751         -DE/DX =    0.0                 !
 ! D3    D(7,1,2,3)            179.1677         -DE/DX =    0.0                 !
 ! D4    D(7,1,2,19)            -6.3561         -DE/DX =    0.0                 !
 ! D5    D(2,1,6,5)             -3.6892         -DE/DX =    0.0                 !
 ! D6    D(2,1,6,9)            179.705          -DE/DX =    0.0                 !
 ! D7    D(7,1,6,5)            174.7284         -DE/DX =    0.0                 !
 ! D8    D(7,1,6,9)             -1.8773         -DE/DX =    0.0                 !
 ! D9    D(1,2,3,4)              8.5192         -DE/DX =    0.0                 !
 ! D10   D(1,2,3,10)          -175.5897         -DE/DX =    0.0                 !
 ! D11   D(19,2,3,4)          -166.135          -DE/DX =    0.0                 !
 ! D12   D(19,2,3,10)            9.7561         -DE/DX =    0.0                 !
 ! D13   D(1,2,19,20)          104.1169         -DE/DX =    0.0                 !
 ! D14   D(1,2,19,21)          -14.6109         -DE/DX =    0.0                 !
 ! D15   D(1,2,19,22)         -136.2152         -DE/DX =    0.0                 !
 ! D16   D(3,2,19,20)          -81.2678         -DE/DX =    0.0                 !
 ! D17   D(3,2,19,21)          160.0045         -DE/DX =    0.0                 !
 ! D18   D(3,2,19,22)           38.4001         -DE/DX =    0.0                 !
 ! D19   D(2,3,4,5)             -8.5087         -DE/DX =    0.0                 !
 ! D20   D(2,3,4,25)           166.2479         -DE/DX =    0.0                 !
 ! D21   D(10,3,4,5)           175.9413         -DE/DX =    0.0                 !
 ! D22   D(10,3,4,25)           -9.302          -DE/DX =    0.0                 !
 ! D23   D(2,3,10,11)          139.5847         -DE/DX =    0.0                 !
 ! D24   D(2,3,10,12)          -36.0378         -DE/DX =    0.0                 !
 ! D25   D(4,3,10,11)          -44.7928         -DE/DX =    0.0                 !
 ! D26   D(4,3,10,12)          139.5847         -DE/DX =    0.0                 !
 ! D27   D(3,4,5,6)              2.5876         -DE/DX =    0.0                 !
 ! D28   D(3,4,5,8)           -179.2307         -DE/DX =    0.0                 !
 ! D29   D(25,4,5,6)          -172.5027         -DE/DX =    0.0                 !
 ! D30   D(25,4,5,8)             5.679          -DE/DX =    0.0                 !
 ! D31   D(3,4,25,26)         -132.7947         -DE/DX =    0.0                 !
 ! D32   D(3,4,25,28)          108.6411         -DE/DX =    0.0                 !
 ! D33   D(3,4,25,31)          -13.1244         -DE/DX =    0.0                 !
 ! D34   D(5,4,25,26)           42.0379         -DE/DX =    0.0                 !
 ! D35   D(5,4,25,28)          -76.5262         -DE/DX =    0.0                 !
 ! D36   D(5,4,25,31)          161.7083         -DE/DX =    0.0                 !
 ! D37   D(4,5,6,1)              3.5996         -DE/DX =    0.0                 !
 ! D38   D(4,5,6,9)           -179.7918         -DE/DX =    0.0                 !
 ! D39   D(8,5,6,1)           -174.5632         -DE/DX =    0.0                 !
 ! D40   D(8,5,6,9)              2.0454         -DE/DX =    0.0                 !
 ! D41   D(3,10,11,13)         175.9413         -DE/DX =    0.0                 !
 ! D42   D(3,10,11,29)          -9.302          -DE/DX =    0.0                 !
 ! D43   D(12,10,11,13)         -8.5087         -DE/DX =    0.0                 !
 ! D44   D(12,10,11,29)        166.2479         -DE/DX =    0.0                 !
 ! D45   D(3,10,12,14)        -175.5897         -DE/DX =    0.0                 !
 ! D46   D(3,10,12,22)           9.7561         -DE/DX =    0.0                 !
 ! D47   D(11,10,12,14)          8.5192         -DE/DX =    0.0                 !
 ! D48   D(11,10,12,22)       -166.135          -DE/DX =    0.0                 !
 ! D49   D(10,11,13,15)          2.5877         -DE/DX =    0.0                 !
 ! D50   D(10,11,13,16)       -179.2307         -DE/DX =    0.0                 !
 ! D51   D(29,11,13,15)       -172.5027         -DE/DX =    0.0                 !
 ! D52   D(29,11,13,16)          5.679          -DE/DX =    0.0                 !
 ! D53   D(10,11,29,27)        -13.1244         -DE/DX =    0.0                 !
 ! D54   D(10,11,29,30)       -132.7948         -DE/DX =    0.0                 !
 ! D55   D(10,11,29,32)        108.6411         -DE/DX =    0.0                 !
 ! D56   D(13,11,29,27)        161.7083         -DE/DX =    0.0                 !
 ! D57   D(13,11,29,30)         42.0378         -DE/DX =    0.0                 !
 ! D58   D(13,11,29,32)        -76.5262         -DE/DX =    0.0                 !
 ! D59   D(10,12,14,15)         -2.4011         -DE/DX =    0.0                 !
 ! D60   D(10,12,14,17)        179.1678         -DE/DX =    0.0                 !
 ! D61   D(22,12,14,15)        172.0751         -DE/DX =    0.0                 !
 ! D62   D(22,12,14,17)         -6.3561         -DE/DX =    0.0                 !
 ! D63   D(10,12,22,19)         38.4001         -DE/DX =    0.0                 !
 ! D64   D(10,12,22,23)        -81.2678         -DE/DX =    0.0                 !
 ! D65   D(10,12,22,24)        160.0045         -DE/DX =    0.0                 !
 ! D66   D(14,12,22,19)       -136.2152         -DE/DX =    0.0                 !
 ! D67   D(14,12,22,23)        104.1169         -DE/DX =    0.0                 !
 ! D68   D(14,12,22,24)        -14.6108         -DE/DX =    0.0                 !
 ! D69   D(11,13,15,14)          3.5995         -DE/DX =    0.0                 !
 ! D70   D(11,13,15,18)       -179.7918         -DE/DX =    0.0                 !
 ! D71   D(16,13,15,14)       -174.5632         -DE/DX =    0.0                 !
 ! D72   D(16,13,15,18)          2.0454         -DE/DX =    0.0                 !
 ! D73   D(12,14,15,13)         -3.6891         -DE/DX =    0.0                 !
 ! D74   D(12,14,15,18)        179.7051         -DE/DX =    0.0                 !
 ! D75   D(17,14,15,13)        174.7284         -DE/DX =    0.0                 !
 ! D76   D(17,14,15,18)         -1.8775         -DE/DX =    0.0                 !
 ! D77   D(2,19,22,12)         -61.2461         -DE/DX =    0.0                 !
 ! D78   D(2,19,22,23)          60.0085         -DE/DX =    0.0                 !
 ! D79   D(2,19,22,24)         177.9206         -DE/DX =    0.0                 !
 ! D80   D(20,19,22,12)         60.0085         -DE/DX =    0.0                 !
 ! D81   D(20,19,22,23)       -178.737          -DE/DX =    0.0                 !
 ! D82   D(20,19,22,24)        -60.8249         -DE/DX =    0.0                 !
 ! D83   D(21,19,22,12)        177.9206         -DE/DX =    0.0                 !
 ! D84   D(21,19,22,23)        -60.8248         -DE/DX =    0.0                 !
 ! D85   D(21,19,22,24)         57.0873         -DE/DX =    0.0                 !
 --------------------------------------------------------------------------------
 Lowest energy point so far.  Saving SCF results.
 Largest change from initial coordinates is atom   17       0.000 Angstoms.
 GradGradGradGradGradGradGradGradGradGradGradGradGradGradGradGradGradGrad

 Leave Link  103 at Tue May 20 08:10:48 2025, MaxMem=   104857600 cpu:               4.5 elap:               0.2
 (Enter /opt/linux/rocky/8/software/gaussian/16c01_avx2/g16/l202.exe)
                          Input orientation:                          
 ---------------------------------------------------------------------
 Center     Atomic      Atomic             Coordinates (Angstroms)
 Number     Number       Type             X           Y           Z
 ---------------------------------------------------------------------
      1          6           0        2.771950    1.215453   -0.514136
      2          6           0        1.386222    1.155436   -0.394829
      3          6           0        0.747086   -0.049596   -0.001536
      4          6           0        1.549264   -1.128308    0.441349
      5          6           0        2.943665   -1.035774    0.306211
      6          6           0        3.555052    0.104396   -0.199980
      7          1           0        3.240485    2.144135   -0.829815
      8          1           0        3.554970   -1.872366    0.636269
      9          1           0        4.635968    0.149082   -0.297431
     10          6           0       -0.747086   -0.049596    0.001536
     11          6           0       -1.549264   -1.128308   -0.441349
     12          6           0       -1.386222    1.155436    0.394829
     13          6           0       -2.943665   -1.035774   -0.306211
     14          6           0       -2.771951    1.215452    0.514136
     15          6           0       -3.555052    0.104396    0.199979
     16          1           0       -3.554970   -1.872366   -0.636269
     17          1           0       -3.240485    2.144135    0.829814
     18          1           0       -4.635968    0.149082    0.297430
     19          6           0        0.530392    2.391754   -0.557188
     20          1           0        0.022330    2.403218   -1.531942
     21          1           0        1.156460    3.288420   -0.507486
     22          6           0       -0.530392    2.391754    0.557188
     23          1           0       -0.022330    2.403218    1.531942
     24          1           0       -1.156460    3.288420    0.507487
     25          6           0        1.000667   -2.341485    1.162772
     26          1           0        1.617933   -2.552410    2.042144
     27          1           0        0.025023   -2.189476   -1.502401
     28          1           0        1.018189   -3.241858    0.539182
     29          6           0       -1.000666   -2.341485   -1.162772
     30          1           0       -1.617933   -2.552411   -2.042144
     31          1           0       -0.025023   -2.189476    1.502401
     32          1           0       -1.018188   -3.241858   -0.539182
 ---------------------------------------------------------------------
                    Distance matrix (angstroms):
                    1          2          3          4          5
     1  C    0.000000
     2  C    1.392149   0.000000
     3  C    2.441963   1.419604   0.000000
     4  C    2.810895   2.437471   1.415364   0.000000
     5  C    2.402182   2.778217   2.427388   1.403987   0.000000
     6  C    1.395131   2.417948   2.819178   2.440092   1.389248
     7  H    1.087027   2.145933   3.422797   3.896790   3.389761
     8  H    3.386913   3.864481   3.407858   2.148132   1.087437
     9  H    2.158396   3.403393   3.905180   3.421295   2.152245
    10  C    3.774901   2.481977   1.494175   2.574933   3.832364
    11  C    4.916442   3.719507   2.574933   3.221806   4.555636
    12  C    4.256784   2.882708   2.481977   3.719507   4.853574
    13  C    6.146504   4.853574   3.832364   4.555636   5.919098
    14  C    5.638456   4.256785   3.774902   4.916443   6.146504
    15  C    6.463386   5.086715   4.309607   5.256602   6.598833
    16  H    7.041268   5.800108   4.715195   5.269543   6.619699
    17  H    6.230411   4.887095   4.626480   5.813904   6.973499
    18  H    7.528150   6.144814   5.395009   6.317399   7.671688
    19  C    2.531821   1.512378   2.513144   3.798159   4.279871
    20  H    3.163404   2.170297   2.980555   4.324012   4.872337
    21  H    2.628126   2.148279   3.400871   4.534542   4.749196
    22  C    3.665635   2.471483   2.811461   4.090137   4.886718
    23  H    3.661314   2.693218   2.993301   4.016339   4.703850
    24  H    4.557775   3.439335   3.876202   5.180039   5.962398
    25  C    4.312919   3.847497   2.583151   1.514334   2.492753
    26  H    4.697139   4.443045   3.346503   2.143671   2.659175
    27  H    4.485066   3.777303   2.711652   2.688411   3.622234
    28  H    4.904363   4.510434   3.249063   2.181446   2.937438
    29  C    5.225435   4.302956   3.107388   3.247637   4.406874
    30  H    5.983534   5.048438   4.002684   4.269302   5.350059
    31  H    4.845928   4.096283   2.727098   2.174923   3.402206
    32  H    5.850931   5.013803   3.687247   3.467037   4.612784
                    6          7          8          9         10
     6  C    0.000000
     7  H    2.157818   0.000000
     8  H    2.146369   4.287258   0.000000
     9  H    1.086220   2.492196   2.475198   0.000000
    10  C    4.309607   4.626481   4.715195   5.395009   0.000000
    11  C    5.256602   5.813904   5.269543   6.317399   1.415364
    12  C    5.086715   4.887095   5.800108   6.144814   1.419604
    13  C    6.598833   6.973499   6.619699   7.671688   2.427388
    14  C    6.463387   6.230413   7.041269   7.528150   2.441963
    15  C    7.121344   7.169403   7.392587   8.206231   2.819178
    16  H    7.392587   7.896072   7.222922   8.443490   3.407858
    17  H    7.169403   6.690093   7.896072   8.203013   3.422797
    18  H    8.206231   8.203013   8.443490   9.290999   3.905180
    19  C    3.808959   2.735004   5.362381   4.685382   2.811461
    20  H    4.420275   3.304032   5.954939   5.281174   2.993301
    21  H    3.998226   2.399259   5.804717   4.691113   3.876202
    22  C    4.743012   4.025494   5.905858   5.696598   2.513144
    23  H    4.591492   4.036209   5.646231   5.488850   2.980555
    24  H    5.730346   4.736126   6.989125   6.637436   3.400871
    25  C    3.790028   5.395181   2.649857   4.642255   3.107389
    26  H    3.979720   5.739195   2.488183   4.677628   4.002683
    27  H    4.406728   5.437992   4.139444   5.308636   2.727098
    28  H    4.263737   5.985121   2.884474   5.028590   3.687248
    29  C    5.259645   6.182152   4.920411   6.222811   2.583151
    30  H    6.100161   6.865239   5.864749   7.032309   3.346503
    31  H    4.580053   5.906180   3.696903   5.516619   2.711652
    32  H    5.676883   6.872386   4.916398   6.597454   3.249063
                   11         12         13         14         15
    11  C    0.000000
    12  C    2.437471   0.000000
    13  C    1.403987   2.778217   0.000000
    14  C    2.810894   1.392150   2.402181   0.000000
    15  C    2.440091   2.417949   1.389248   1.395130   0.000000
    16  H    2.148132   3.864481   1.087437   3.386912   2.146369
    17  H    3.896789   2.145933   3.389760   1.087028   2.157818
    18  H    3.421295   3.403393   2.152244   2.158394   1.086220
    19  C    4.090137   2.471483   4.886718   3.665636   4.743012
    20  H    4.016339   2.693218   4.703850   3.661315   4.591492
    21  H    5.180039   3.439335   5.962398   4.557776   5.730346
    22  C    3.798159   1.512378   4.279871   2.531823   3.808960
    23  H    4.324012   2.170297   4.872337   3.163405   4.420275
    24  H    4.534542   2.148279   4.749196   2.628127   3.998226
    25  C    3.247638   4.302956   4.406875   5.225435   5.259646
    26  H    4.269302   5.048437   5.350059   5.983534   6.100161
    27  H    2.174923   4.096283   3.402206   4.845928   4.580053
    28  H    3.467038   5.013803   4.612785   5.850932   5.676884
    29  C    1.514335   3.847497   2.492754   4.312919   3.790028
    30  H    2.143672   4.443046   2.659176   4.697139   3.979720
    31  H    2.688411   3.777303   3.622234   4.485066   4.406729
    32  H    2.181446   4.510435   2.937438   4.904363   4.263737
                   16         17         18         19         20
    16  H    0.000000
    17  H    4.287258   0.000000
    18  H    2.475197   2.492196   0.000000
    19  C    5.905858   4.025494   5.696598   0.000000
    20  H    5.646231   4.036208   5.488850   1.099274   0.000000
    21  H    6.989125   4.736126   6.637436   1.094733   1.766166
    22  C    5.362381   2.735004   4.685382   1.538537   2.161041
    23  H    5.954939   3.304032   5.281175   2.161041   3.064209
    24  H    5.804717   2.399259   4.691113   2.187010   2.516426
    25  C    4.920412   6.182153   6.222812   5.057961   5.543540
    26  H    5.864749   6.865239   7.032309   5.690697   6.314926
    27  H    3.696903   5.906179   5.516619   4.704944   4.592790
    28  H    4.916399   6.872386   6.597455   5.759996   6.094930
    29  C    2.649858   5.395181   4.642255   5.011429   4.867752
    30  H    2.488184   5.739195   4.677628   5.591526   5.244905
    31  H    4.139444   5.437992   5.308637   5.053520   5.504754
    32  H    2.884475   5.985121   5.028591   5.842603   5.825387
                   21         22         23         24         25
    21  H    0.000000
    22  C    2.187009   0.000000
    23  H    2.516425   1.099274   0.000000
    24  H    2.525820   1.094733   1.766166   0.000000
    25  C    5.874510   5.011429   4.867753   6.064522   0.000000
    26  H    6.389747   5.591525   5.244904   6.645880   1.094898
    27  H    5.681316   5.053520   5.504754   5.953394   2.842206
    28  H    6.615071   5.842603   5.825387   6.882923   1.095373
    29  C    6.064522   5.057961   5.543540   5.874510   3.068141
    30  H    6.645881   5.690698   6.314927   6.389748   4.144037
    31  H    5.953393   4.704944   4.592790   5.681316   1.091098
    32  H    6.882923   5.759996   6.094930   6.615071   2.789820
                   26         27         28         29         30
    26  H    0.000000
    27  H    3.902933   0.000000
    28  H    1.758956   2.502388   0.000000
    29  C    4.144036   1.091097   2.789820   0.000000
    30  H    5.210781   1.767017   3.753361   1.094899   0.000000
    31  H    1.767017   3.005219   1.767368   2.842206   3.902933
    32  H    3.753361   1.767368   2.304279   1.095373   1.758956
                   31         32
    31  H    0.000000
    32  H    2.502388   0.000000
 Stoichiometry    C16H16
 Framework group  C1[X(C16H16)]
 Deg. of freedom    90
 Full point group                 C1      NOp   1
 RotChk:  IX=0 Diff= 4.44D-16
 Largest Abelian subgroup         C1      NOp   1
 Largest concise Abelian subgroup C1      NOp   1
                         Standard orientation:                         
 ---------------------------------------------------------------------
 Center     Atomic      Atomic             Coordinates (Angstroms)
 Number     Number       Type             X           Y           Z
 ---------------------------------------------------------------------
      1          6           0        2.771950    1.215453   -0.514136
      2          6           0        1.386222    1.155436   -0.394829
      3          6           0        0.747086   -0.049596   -0.001536
      4          6           0        1.549264   -1.128308    0.441349
      5          6           0        2.943665   -1.035774    0.306211
      6          6           0        3.555052    0.104396   -0.199980
      7          1           0        3.240485    2.144135   -0.829815
      8          1           0        3.554970   -1.872366    0.636269
      9          1           0        4.635968    0.149082   -0.297431
     10          6           0       -0.747086   -0.049596    0.001536
     11          6           0       -1.549264   -1.128308   -0.441349
     12          6           0       -1.386222    1.155436    0.394829
     13          6           0       -2.943665   -1.035774   -0.306211
     14          6           0       -2.771951    1.215452    0.514136
     15          6           0       -3.555052    0.104396    0.199979
     16          1           0       -3.554970   -1.872366   -0.636269
     17          1           0       -3.240485    2.144135    0.829814
     18          1           0       -4.635968    0.149082    0.297430
     19          6           0        0.530392    2.391754   -0.557188
     20          1           0        0.022330    2.403218   -1.531942
     21          1           0        1.156460    3.288420   -0.507486
     22          6           0       -0.530392    2.391754    0.557188
     23          1           0       -0.022330    2.403218    1.531942
     24          1           0       -1.156460    3.288420    0.507487
     25          6           0        1.000667   -2.341485    1.162772
     26          1           0        1.617933   -2.552410    2.042144
     27          1           0        0.025023   -2.189476   -1.502401
     28          1           0        1.018189   -3.241858    0.539182
     29          6           0       -1.000666   -2.341485   -1.162772
     30          1           0       -1.617933   -2.552411   -2.042144
     31          1           0       -0.025023   -2.189476    1.502401
     32          1           0       -1.018188   -3.241858   -0.539182
 ---------------------------------------------------------------------
 Rotational constants (GHZ):           0.8932832           0.4941783           0.3533256
 Leave Link  202 at Tue May 20 08:10:48 2025, MaxMem=   104857600 cpu:               0.1 elap:               0.0
 (Enter /opt/linux/rocky/8/software/gaussian/16c01_avx2/g16/l9999.exe)
 Unable to Open any file for archive entry.
 1\1\GINC-A001\FOpt\RB3LYP\6-31G(d,p)\C16H16\DJO04747\20-May-2025\0\\#P
  opt=vtight freq rb3lyp/6-31g(d,p) integral=grid=ultrafine scf=conver=
 10\\Title Card Required\\0,1\C,2.77195,1.215453,-0.514136\C,1.386222,1
 .155436,-0.394829\C,0.747086,-0.049596,-0.001536\C,1.549264,-1.128308,
 0.441349\C,2.943665,-1.035774,0.306211\C,3.555052,0.104396,-0.19998\H,
 3.240485,2.144135,-0.829815\H,3.55497,-1.872366,0.636269\H,4.635968,0.
 149082,-0.297431\C,-0.747086,-0.049596,0.001536\C,-1.549264,-1.128308,
 -0.441349\C,-1.386222,1.155436,0.394829\C,-2.943665,-1.035774,-0.30621
 1\C,-2.771951,1.215452,0.514136\C,-3.555052,0.104396,0.199979\H,-3.554
 97,-1.872366,-0.636269\H,-3.240485,2.144135,0.829814\H,-4.635968,0.149
 082,0.29743\C,0.530392,2.391754,-0.557188\H,0.02233,2.403218,-1.531942
 \H,1.15646,3.28842,-0.507486\C,-0.530392,2.391754,0.557188\H,-0.02233,
 2.403218,1.531942\H,-1.15646,3.28842,0.507487\C,1.000667,-2.341485,1.1
 62772\H,1.617933,-2.55241,2.042144\H,0.025023,-2.189476,-1.502401\H,1.
 018189,-3.241858,0.539182\C,-1.000666,-2.341485,-1.162772\H,-1.617933,
 -2.552411,-2.042144\H,-0.025023,-2.189476,1.502401\H,-1.018188,-3.2418
 58,-0.539182\\Version=ES64L-G16RevC.01\State=1-A\HF=-619.3833708\RMSD=
 3.012e-11\RMSF=2.787e-07\Dipole=0.0000006,0.0104225,0.\Quadrupole=1.35
 91228,2.9959078,-4.3550307,-0.0000003,0.3129596,-0.0000006\PG=C01 [X(C
 16H16)]\\@
 The archive entry for this job was punched.


 If fifty million people say a stupid thing,
 it is still a stupid thing.
                   -- Anatole France
 Leave Link 9999 at Tue May 20 08:10:48 2025, MaxMem=   104857600 cpu:               3.1 elap:               0.1
 Job cpu time:       0 days  0 hours  7 minutes 45.0 seconds.
 Elapsed time:       0 days  0 hours  0 minutes 16.3 seconds.
 File lengths (MBytes):  RWF=     61 Int=      0 D2E=      0 Chk=     10 Scr=      1
 Normal termination of Gaussian 16 at Tue May 20 08:10:48 2025.
 (Enter /opt/linux/rocky/8/software/gaussian/16c01_avx2/g16/l1.exe)
 Link1:  Proceeding to internal job step number  2.
 ----------------------------------------------------------------------
 #P Geom=AllCheck Guess=TCheck SCRF=Check GenChk RB3LYP/6-31G(d,p) Freq
 ----------------------------------------------------------------------
 1/7=1,10=4,29=7,30=1,38=1,40=1/1,3;
 2/12=2,40=1/2;
 3/5=1,6=6,7=101,11=2,14=-4,25=1,30=1,70=2,71=2,74=-5,75=-5,116=1,140=1/1,2,3;
 4/5=101/1;
 5/5=2,6=10,38=6,98=1/2;
 8/6=4,10=90,11=11/1;
 11/6=1,8=1,9=11,15=111,16=1/1,2,10;
 10/6=1/2;
 6/7=2,8=2,9=2,10=2,28=1/1;
 7/8=1,10=1,25=1/1,2,3,16;
 1/7=1,10=4,30=1/3;
 99//99;
 Leave Link    1 at Tue May 20 08:10:48 2025, MaxMem=   104857600 cpu:               0.6 elap:               0.0
 (Enter /opt/linux/rocky/8/software/gaussian/16c01_avx2/g16/l101.exe)
 Structure from the checkpoint file:  "dihydrodimethylphenanthrene_gs.chk"
 -------------------
 Title Card Required
 -------------------
 Charge =  0 Multiplicity = 1
 Redundant internal coordinates found in file.  (old form).
 C,0,2.77195,1.215453,-0.514136
 C,0,1.386222,1.155436,-0.394829
 C,0,0.747086,-0.049596,-0.001536
 C,0,1.549264,-1.128308,0.441349
 C,0,2.943665,-1.035774,0.306211
 C,0,3.555052,0.104396,-0.19998
 H,0,3.240485,2.144135,-0.829815
 H,0,3.55497,-1.872366,0.636269
 H,0,4.635968,0.149082,-0.297431
 C,0,-0.747086,-0.049596,0.001536
 C,0,-1.549264,-1.128308,-0.441349
 C,0,-1.386222,1.155436,0.394829
 C,0,-2.943665,-1.035774,-0.306211
 C,0,-2.771951,1.215452,0.514136
 C,0,-3.555052,0.104396,0.199979
 H,0,-3.55497,-1.872366,-0.636269
 H,0,-3.240485,2.144135,0.829814
 H,0,-4.635968,0.149082,0.29743
 C,0,0.530392,2.391754,-0.557188
 H,0,0.02233,2.403218,-1.531942
 H,0,1.15646,3.28842,-0.507486
 C,0,-0.530392,2.391754,0.557188
 H,0,-0.02233,2.403218,1.531942
 H,0,-1.15646,3.28842,0.507487
 C,0,1.000667,-2.341485,1.162772
 H,0,1.617933,-2.55241,2.042144
 H,0,0.025023,-2.189476,-1.502401
 H,0,1.018189,-3.241858,0.539182
 C,0,-1.000666,-2.341485,-1.162772
 H,0,-1.617933,-2.552411,-2.042144
 H,0,-0.025023,-2.189476,1.502401
 H,0,-1.018188,-3.241858,-0.539182
 Recover connectivity data from disk.
 ITRead=  0  0  0  0  0  0  0  0  0  0  0  0  0  0  0  0  0  0  0  0
 ITRead=  0  0  0  0  0  0  0  0  0  0  0  0
 MicOpt= -1 -1 -1 -1 -1 -1 -1 -1 -1 -1 -1 -1 -1 -1 -1 -1 -1 -1 -1 -1
 MicOpt= -1 -1 -1 -1 -1 -1 -1 -1 -1 -1 -1 -1
 NAtoms=     32 NQM=       32 NQMF=       0 NMMI=      0 NMMIF=      0
                NMic=       0 NMicF=      0.
                    Isotopes and Nuclear Properties:
 (Nuclear quadrupole moments (NQMom) in fm**2, nuclear magnetic moments (NMagM)
  in nuclear magnetons)

  Atom         1           2           3           4           5           6           7           8           9          10
 IAtWgt=          12          12          12          12          12          12           1           1           1          12
 AtmWgt=  12.0000000  12.0000000  12.0000000  12.0000000  12.0000000  12.0000000   1.0078250   1.0078250   1.0078250  12.0000000
 NucSpn=           0           0           0           0           0           0           1           1           1           0
 AtZEff=   3.6000000   3.6000000   3.6000000   3.6000000   3.6000000   3.6000000   1.0000000   1.0000000   1.0000000   3.6000000
 NQMom=    0.0000000   0.0000000   0.0000000   0.0000000   0.0000000   0.0000000   0.0000000   0.0000000   0.0000000   0.0000000
 NMagM=    0.0000000   0.0000000   0.0000000   0.0000000   0.0000000   0.0000000   2.7928460   2.7928460   2.7928460   0.0000000
 AtZNuc=   6.0000000   6.0000000   6.0000000   6.0000000   6.0000000   6.0000000   1.0000000   1.0000000   1.0000000   6.0000000

  Atom        11          12          13          14          15          16          17          18          19          20
 IAtWgt=          12          12          12          12          12           1           1           1          12           1
 AtmWgt=  12.0000000  12.0000000  12.0000000  12.0000000  12.0000000   1.0078250   1.0078250   1.0078250  12.0000000   1.0078250
 NucSpn=           0           0           0           0           0           1           1           1           0           1
 AtZEff=   3.6000000   3.6000000   3.6000000   3.6000000   3.6000000   1.0000000   1.0000000   1.0000000   3.6000000   1.0000000
 NQMom=    0.0000000   0.0000000   0.0000000   0.0000000   0.0000000   0.0000000   0.0000000   0.0000000   0.0000000   0.0000000
 NMagM=    0.0000000   0.0000000   0.0000000   0.0000000   0.0000000   2.7928460   2.7928460   2.7928460   0.0000000   2.7928460
 AtZNuc=   6.0000000   6.0000000   6.0000000   6.0000000   6.0000000   1.0000000   1.0000000   1.0000000   6.0000000   1.0000000

  Atom        21          22          23          24          25          26          27          28          29          30
 IAtWgt=           1          12           1           1          12           1           1           1          12           1
 AtmWgt=   1.0078250  12.0000000   1.0078250   1.0078250  12.0000000   1.0078250   1.0078250   1.0078250  12.0000000   1.0078250
 NucSpn=           1           0           1           1           0           1           1           1           0           1
 AtZEff=   1.0000000   3.6000000   1.0000000   1.0000000   3.6000000   1.0000000   1.0000000   1.0000000   3.6000000   1.0000000
 NQMom=    0.0000000   0.0000000   0.0000000   0.0000000   0.0000000   0.0000000   0.0000000   0.0000000   0.0000000   0.0000000
 NMagM=    2.7928460   0.0000000   2.7928460   2.7928460   0.0000000   2.7928460   2.7928460   2.7928460   0.0000000   2.7928460
 AtZNuc=   1.0000000   6.0000000   1.0000000   1.0000000   6.0000000   1.0000000   1.0000000   1.0000000   6.0000000   1.0000000

  Atom        31          32
 IAtWgt=           1           1
 AtmWgt=   1.0078250   1.0078250
 NucSpn=           1           1
 AtZEff=   1.0000000   1.0000000
 NQMom=    0.0000000   0.0000000
 NMagM=    2.7928460   2.7928460
 AtZNuc=   1.0000000   1.0000000
 Leave Link  101 at Tue May 20 08:10:49 2025, MaxMem=   104857600 cpu:               1.1 elap:               0.0
 (Enter /opt/linux/rocky/8/software/gaussian/16c01_avx2/g16/l103.exe)

 GradGradGradGradGradGradGradGradGradGradGradGradGradGradGradGradGradGrad
 Berny optimization.
 Initialization pass.
                           ----------------------------
                           !    Initial Parameters    !
                           ! (Angstroms and Degrees)  !
 --------------------------                            --------------------------
 ! Name  Definition              Value          Derivative Info.                !
 --------------------------------------------------------------------------------
 ! R1    R(1,2)                  1.3921         calculate D2E/DX2 analytically  !
 ! R2    R(1,6)                  1.3951         calculate D2E/DX2 analytically  !
 ! R3    R(1,7)                  1.087          calculate D2E/DX2 analytically  !
 ! R4    R(2,3)                  1.4196         calculate D2E/DX2 analytically  !
 ! R5    R(2,19)                 1.5124         calculate D2E/DX2 analytically  !
 ! R6    R(3,4)                  1.4154         calculate D2E/DX2 analytically  !
 ! R7    R(3,10)                 1.4942         calculate D2E/DX2 analytically  !
 ! R8    R(4,5)                  1.404          calculate D2E/DX2 analytically  !
 ! R9    R(4,25)                 1.5143         calculate D2E/DX2 analytically  !
 ! R10   R(5,6)                  1.3892         calculate D2E/DX2 analytically  !
 ! R11   R(5,8)                  1.0874         calculate D2E/DX2 analytically  !
 ! R12   R(6,9)                  1.0862         calculate D2E/DX2 analytically  !
 ! R13   R(10,11)                1.4154         calculate D2E/DX2 analytically  !
 ! R14   R(10,12)                1.4196         calculate D2E/DX2 analytically  !
 ! R15   R(11,13)                1.404          calculate D2E/DX2 analytically  !
 ! R16   R(11,29)                1.5143         calculate D2E/DX2 analytically  !
 ! R17   R(12,14)                1.3921         calculate D2E/DX2 analytically  !
 ! R18   R(12,22)                1.5124         calculate D2E/DX2 analytically  !
 ! R19   R(13,15)                1.3892         calculate D2E/DX2 analytically  !
 ! R20   R(13,16)                1.0874         calculate D2E/DX2 analytically  !
 ! R21   R(14,15)                1.3951         calculate D2E/DX2 analytically  !
 ! R22   R(14,17)                1.087          calculate D2E/DX2 analytically  !
 ! R23   R(15,18)                1.0862         calculate D2E/DX2 analytically  !
 ! R24   R(19,20)                1.0993         calculate D2E/DX2 analytically  !
 ! R25   R(19,21)                1.0947         calculate D2E/DX2 analytically  !
 ! R26   R(19,22)                1.5385         calculate D2E/DX2 analytically  !
 ! R27   R(22,23)                1.0993         calculate D2E/DX2 analytically  !
 ! R28   R(22,24)                1.0947         calculate D2E/DX2 analytically  !
 ! R29   R(25,26)                1.0949         calculate D2E/DX2 analytically  !
 ! R30   R(25,28)                1.0954         calculate D2E/DX2 analytically  !
 ! R31   R(25,31)                1.0911         calculate D2E/DX2 analytically  !
 ! R32   R(27,29)                1.0911         calculate D2E/DX2 analytically  !
 ! R33   R(29,30)                1.0949         calculate D2E/DX2 analytically  !
 ! R34   R(29,32)                1.0954         calculate D2E/DX2 analytically  !
 ! A1    A(2,1,6)              120.3374         calculate D2E/DX2 analytically  !
 ! A2    A(2,1,7)              119.3902         calculate D2E/DX2 analytically  !
 ! A3    A(6,1,7)              120.2537         calculate D2E/DX2 analytically  !
 ! A4    A(1,2,3)              120.5628         calculate D2E/DX2 analytically  !
 ! A5    A(1,2,19)             121.2539         calculate D2E/DX2 analytically  !
 ! A6    A(3,2,19)             117.9613         calculate D2E/DX2 analytically  !
 ! A7    A(2,3,4)              118.5854         calculate D2E/DX2 analytically  !
 ! A8    A(2,3,10)             116.7944         calculate D2E/DX2 analytically  !
 ! A9    A(4,3,10)             124.4801         calculate D2E/DX2 analytically  !
 ! A10   A(3,4,5)              118.8517         calculate D2E/DX2 analytically  !
 ! A11   A(3,4,25)             123.6642         calculate D2E/DX2 analytically  !
 ! A12   A(5,4,25)             117.2872         calculate D2E/DX2 analytically  !
 ! A13   A(4,5,6)              121.7519         calculate D2E/DX2 analytically  !
 ! A14   A(4,5,8)              118.5806         calculate D2E/DX2 analytically  !
 ! A15   A(6,5,8)              119.6427         calculate D2E/DX2 analytically  !
 ! A16   A(1,6,5)              119.25           calculate D2E/DX2 analytically  !
 ! A17   A(1,6,9)              120.3716         calculate D2E/DX2 analytically  !
 ! A18   A(5,6,9)              120.2908         calculate D2E/DX2 analytically  !
 ! A19   A(3,10,11)            124.4801         calculate D2E/DX2 analytically  !
 ! A20   A(3,10,12)            116.7944         calculate D2E/DX2 analytically  !
 ! A21   A(11,10,12)           118.5854         calculate D2E/DX2 analytically  !
 ! A22   A(10,11,13)           118.8517         calculate D2E/DX2 analytically  !
 ! A23   A(10,11,29)           123.6642         calculate D2E/DX2 analytically  !
 ! A24   A(13,11,29)           117.2873         calculate D2E/DX2 analytically  !
 ! A25   A(10,12,14)           120.5627         calculate D2E/DX2 analytically  !
 ! A26   A(10,12,22)           117.9613         calculate D2E/DX2 analytically  !
 ! A27   A(14,12,22)           121.254          calculate D2E/DX2 analytically  !
 ! A28   A(11,13,15)           121.7519         calculate D2E/DX2 analytically  !
 ! A29   A(11,13,16)           118.5806         calculate D2E/DX2 analytically  !
 ! A30   A(15,13,16)           119.6427         calculate D2E/DX2 analytically  !
 ! A31   A(12,14,15)           120.3374         calculate D2E/DX2 analytically  !
 ! A32   A(12,14,17)           119.3901         calculate D2E/DX2 analytically  !
 ! A33   A(15,14,17)           120.2538         calculate D2E/DX2 analytically  !
 ! A34   A(13,15,14)           119.2501         calculate D2E/DX2 analytically  !
 ! A35   A(13,15,18)           120.2908         calculate D2E/DX2 analytically  !
 ! A36   A(14,15,18)           120.3715         calculate D2E/DX2 analytically  !
 ! A37   A(2,19,20)            111.4235         calculate D2E/DX2 analytically  !
 ! A38   A(2,19,21)            109.9419         calculate D2E/DX2 analytically  !
 ! A39   A(2,19,22)            108.2043         calculate D2E/DX2 analytically  !
 ! A40   A(20,19,21)           107.2195         calculate D2E/DX2 analytically  !
 ! A41   A(20,19,22)           108.8809         calculate D2E/DX2 analytically  !
 ! A42   A(21,19,22)           111.1875         calculate D2E/DX2 analytically  !
 ! A43   A(12,22,19)           108.2043         calculate D2E/DX2 analytically  !
 ! A44   A(12,22,23)           111.4235         calculate D2E/DX2 analytically  !
 ! A45   A(12,22,24)           109.9419         calculate D2E/DX2 analytically  !
 ! A46   A(19,22,23)           108.8809         calculate D2E/DX2 analytically  !
 ! A47   A(19,22,24)           111.1875         calculate D2E/DX2 analytically  !
 ! A48   A(23,22,24)           107.2194         calculate D2E/DX2 analytically  !
 ! A49   A(4,25,26)            109.4338         calculate D2E/DX2 analytically  !
 ! A50   A(4,25,28)            112.427          calculate D2E/DX2 analytically  !
 ! A51   A(4,25,31)            112.1622         calculate D2E/DX2 analytically  !
 ! A52   A(26,25,28)           106.8498         calculate D2E/DX2 analytically  !
 ! A53   A(26,25,31)           107.867          calculate D2E/DX2 analytically  !
 ! A54   A(28,25,31)           107.864          calculate D2E/DX2 analytically  !
 ! A55   A(11,29,27)           112.1623         calculate D2E/DX2 analytically  !
 ! A56   A(11,29,30)           109.4337         calculate D2E/DX2 analytically  !
 ! A57   A(11,29,32)           112.427          calculate D2E/DX2 analytically  !
 ! A58   A(27,29,30)           107.867          calculate D2E/DX2 analytically  !
 ! A59   A(27,29,32)           107.864          calculate D2E/DX2 analytically  !
 ! A60   A(30,29,32)           106.8498         calculate D2E/DX2 analytically  !
 ! D1    D(6,1,2,3)             -2.401          calculate D2E/DX2 analytically  !
 ! D2    D(6,1,2,19)           172.0751         calculate D2E/DX2 analytically  !
 ! D3    D(7,1,2,3)            179.1677         calculate D2E/DX2 analytically  !
 ! D4    D(7,1,2,19)            -6.3561         calculate D2E/DX2 analytically  !
 ! D5    D(2,1,6,5)             -3.6892         calculate D2E/DX2 analytically  !
 ! D6    D(2,1,6,9)            179.705          calculate D2E/DX2 analytically  !
 ! D7    D(7,1,6,5)            174.7284         calculate D2E/DX2 analytically  !
 ! D8    D(7,1,6,9)             -1.8773         calculate D2E/DX2 analytically  !
 ! D9    D(1,2,3,4)              8.5192         calculate D2E/DX2 analytically  !
 ! D10   D(1,2,3,10)          -175.5897         calculate D2E/DX2 analytically  !
 ! D11   D(19,2,3,4)          -166.135          calculate D2E/DX2 analytically  !
 ! D12   D(19,2,3,10)            9.7561         calculate D2E/DX2 analytically  !
 ! D13   D(1,2,19,20)          104.1169         calculate D2E/DX2 analytically  !
 ! D14   D(1,2,19,21)          -14.6109         calculate D2E/DX2 analytically  !
 ! D15   D(1,2,19,22)         -136.2152         calculate D2E/DX2 analytically  !
 ! D16   D(3,2,19,20)          -81.2678         calculate D2E/DX2 analytically  !
 ! D17   D(3,2,19,21)          160.0045         calculate D2E/DX2 analytically  !
 ! D18   D(3,2,19,22)           38.4001         calculate D2E/DX2 analytically  !
 ! D19   D(2,3,4,5)             -8.5087         calculate D2E/DX2 analytically  !
 ! D20   D(2,3,4,25)           166.2479         calculate D2E/DX2 analytically  !
 ! D21   D(10,3,4,5)           175.9413         calculate D2E/DX2 analytically  !
 ! D22   D(10,3,4,25)           -9.302          calculate D2E/DX2 analytically  !
 ! D23   D(2,3,10,11)          139.5847         calculate D2E/DX2 analytically  !
 ! D24   D(2,3,10,12)          -36.0378         calculate D2E/DX2 analytically  !
 ! D25   D(4,3,10,11)          -44.7928         calculate D2E/DX2 analytically  !
 ! D26   D(4,3,10,12)          139.5847         calculate D2E/DX2 analytically  !
 ! D27   D(3,4,5,6)              2.5876         calculate D2E/DX2 analytically  !
 ! D28   D(3,4,5,8)           -179.2307         calculate D2E/DX2 analytically  !
 ! D29   D(25,4,5,6)          -172.5027         calculate D2E/DX2 analytically  !
 ! D30   D(25,4,5,8)             5.679          calculate D2E/DX2 analytically  !
 ! D31   D(3,4,25,26)         -132.7947         calculate D2E/DX2 analytically  !
 ! D32   D(3,4,25,28)          108.6411         calculate D2E/DX2 analytically  !
 ! D33   D(3,4,25,31)          -13.1244         calculate D2E/DX2 analytically  !
 ! D34   D(5,4,25,26)           42.0379         calculate D2E/DX2 analytically  !
 ! D35   D(5,4,25,28)          -76.5262         calculate D2E/DX2 analytically  !
 ! D36   D(5,4,25,31)          161.7083         calculate D2E/DX2 analytically  !
 ! D37   D(4,5,6,1)              3.5996         calculate D2E/DX2 analytically  !
 ! D38   D(4,5,6,9)           -179.7918         calculate D2E/DX2 analytically  !
 ! D39   D(8,5,6,1)           -174.5632         calculate D2E/DX2 analytically  !
 ! D40   D(8,5,6,9)              2.0454         calculate D2E/DX2 analytically  !
 ! D41   D(3,10,11,13)         175.9413         calculate D2E/DX2 analytically  !
 ! D42   D(3,10,11,29)          -9.302          calculate D2E/DX2 analytically  !
 ! D43   D(12,10,11,13)         -8.5087         calculate D2E/DX2 analytically  !
 ! D44   D(12,10,11,29)        166.2479         calculate D2E/DX2 analytically  !
 ! D45   D(3,10,12,14)        -175.5897         calculate D2E/DX2 analytically  !
 ! D46   D(3,10,12,22)           9.7561         calculate D2E/DX2 analytically  !
 ! D47   D(11,10,12,14)          8.5192         calculate D2E/DX2 analytically  !
 ! D48   D(11,10,12,22)       -166.135          calculate D2E/DX2 analytically  !
 ! D49   D(10,11,13,15)          2.5877         calculate D2E/DX2 analytically  !
 ! D50   D(10,11,13,16)       -179.2307         calculate D2E/DX2 analytically  !
 ! D51   D(29,11,13,15)       -172.5027         calculate D2E/DX2 analytically  !
 ! D52   D(29,11,13,16)          5.679          calculate D2E/DX2 analytically  !
 ! D53   D(10,11,29,27)        -13.1244         calculate D2E/DX2 analytically  !
 ! D54   D(10,11,29,30)       -132.7948         calculate D2E/DX2 analytically  !
 ! D55   D(10,11,29,32)        108.6411         calculate D2E/DX2 analytically  !
 ! D56   D(13,11,29,27)        161.7083         calculate D2E/DX2 analytically  !
 ! D57   D(13,11,29,30)         42.0378         calculate D2E/DX2 analytically  !
 ! D58   D(13,11,29,32)        -76.5262         calculate D2E/DX2 analytically  !
 ! D59   D(10,12,14,15)         -2.4011         calculate D2E/DX2 analytically  !
 ! D60   D(10,12,14,17)        179.1678         calculate D2E/DX2 analytically  !
 ! D61   D(22,12,14,15)        172.0751         calculate D2E/DX2 analytically  !
 ! D62   D(22,12,14,17)         -6.3561         calculate D2E/DX2 analytically  !
 ! D63   D(10,12,22,19)         38.4001         calculate D2E/DX2 analytically  !
 ! D64   D(10,12,22,23)        -81.2678         calculate D2E/DX2 analytically  !
 ! D65   D(10,12,22,24)        160.0045         calculate D2E/DX2 analytically  !
 ! D66   D(14,12,22,19)       -136.2152         calculate D2E/DX2 analytically  !
 ! D67   D(14,12,22,23)        104.1169         calculate D2E/DX2 analytically  !
 ! D68   D(14,12,22,24)        -14.6108         calculate D2E/DX2 analytically  !
 ! D69   D(11,13,15,14)          3.5995         calculate D2E/DX2 analytically  !
 ! D70   D(11,13,15,18)       -179.7918         calculate D2E/DX2 analytically  !
 ! D71   D(16,13,15,14)       -174.5632         calculate D2E/DX2 analytically  !
 ! D72   D(16,13,15,18)          2.0454         calculate D2E/DX2 analytically  !
 ! D73   D(12,14,15,13)         -3.6891         calculate D2E/DX2 analytically  !
 ! D74   D(12,14,15,18)        179.7051         calculate D2E/DX2 analytically  !
 ! D75   D(17,14,15,13)        174.7284         calculate D2E/DX2 analytically  !
 ! D76   D(17,14,15,18)         -1.8775         calculate D2E/DX2 analytically  !
 ! D77   D(2,19,22,12)         -61.2461         calculate D2E/DX2 analytically  !
 ! D78   D(2,19,22,23)          60.0085         calculate D2E/DX2 analytically  !
 ! D79   D(2,19,22,24)         177.9206         calculate D2E/DX2 analytically  !
 ! D80   D(20,19,22,12)         60.0085         calculate D2E/DX2 analytically  !
 ! D81   D(20,19,22,23)       -178.737          calculate D2E/DX2 analytically  !
 ! D82   D(20,19,22,24)        -60.8249         calculate D2E/DX2 analytically  !
 ! D83   D(21,19,22,12)        177.9206         calculate D2E/DX2 analytically  !
 ! D84   D(21,19,22,23)        -60.8248         calculate D2E/DX2 analytically  !
 ! D85   D(21,19,22,24)         57.0873         calculate D2E/DX2 analytically  !
 --------------------------------------------------------------------------------
 Trust Radius=3.00D-01 FncErr=1.00D-07 GrdErr=1.00D-07 EigMax=2.50D+02 EigMin=1.00D-04
 Number of steps in this run=      2 maximum allowed number of steps=      2.
 GradGradGradGradGradGradGradGradGradGradGradGradGradGradGradGradGradGrad

 Leave Link  103 at Tue May 20 08:10:49 2025, MaxMem=   104857600 cpu:               0.2 elap:               0.0
 (Enter /opt/linux/rocky/8/software/gaussian/16c01_avx2/g16/l202.exe)
                          Input orientation:                          
 ---------------------------------------------------------------------
 Center     Atomic      Atomic             Coordinates (Angstroms)
 Number     Number       Type             X           Y           Z
 ---------------------------------------------------------------------
      1          6           0        2.771950    1.215453   -0.514136
      2          6           0        1.386222    1.155436   -0.394829
      3          6           0        0.747086   -0.049596   -0.001536
      4          6           0        1.549264   -1.128308    0.441349
      5          6           0        2.943665   -1.035774    0.306211
      6          6           0        3.555052    0.104396   -0.199980
      7          1           0        3.240485    2.144135   -0.829815
      8          1           0        3.554970   -1.872366    0.636269
      9          1           0        4.635968    0.149082   -0.297431
     10          6           0       -0.747086   -0.049596    0.001536
     11          6           0       -1.549264   -1.128308   -0.441349
     12          6           0       -1.386222    1.155436    0.394829
     13          6           0       -2.943665   -1.035774   -0.306211
     14          6           0       -2.771951    1.215452    0.514136
     15          6           0       -3.555052    0.104396    0.199979
     16          1           0       -3.554970   -1.872366   -0.636269
     17          1           0       -3.240485    2.144135    0.829814
     18          1           0       -4.635968    0.149082    0.297430
     19          6           0        0.530392    2.391754   -0.557188
     20          1           0        0.022330    2.403218   -1.531942
     21          1           0        1.156460    3.288420   -0.507486
     22          6           0       -0.530392    2.391754    0.557188
     23          1           0       -0.022330    2.403218    1.531942
     24          1           0       -1.156460    3.288420    0.507487
     25          6           0        1.000667   -2.341485    1.162772
     26          1           0        1.617933   -2.552410    2.042144
     27          1           0        0.025023   -2.189476   -1.502401
     28          1           0        1.018189   -3.241858    0.539182
     29          6           0       -1.000666   -2.341485   -1.162772
     30          1           0       -1.617933   -2.552411   -2.042144
     31          1           0       -0.025023   -2.189476    1.502401
     32          1           0       -1.018188   -3.241858   -0.539182
 ---------------------------------------------------------------------
                    Distance matrix (angstroms):
                    1          2          3          4          5
     1  C    0.000000
     2  C    1.392149   0.000000
     3  C    2.441963   1.419604   0.000000
     4  C    2.810895   2.437471   1.415364   0.000000
     5  C    2.402182   2.778217   2.427388   1.403987   0.000000
     6  C    1.395131   2.417948   2.819178   2.440092   1.389248
     7  H    1.087027   2.145933   3.422797   3.896790   3.389761
     8  H    3.386913   3.864481   3.407858   2.148132   1.087437
     9  H    2.158396   3.403393   3.905180   3.421295   2.152245
    10  C    3.774901   2.481977   1.494175   2.574933   3.832364
    11  C    4.916442   3.719507   2.574933   3.221806   4.555636
    12  C    4.256784   2.882708   2.481977   3.719507   4.853574
    13  C    6.146504   4.853574   3.832364   4.555636   5.919098
    14  C    5.638456   4.256785   3.774902   4.916443   6.146504
    15  C    6.463386   5.086715   4.309607   5.256602   6.598833
    16  H    7.041268   5.800108   4.715195   5.269543   6.619699
    17  H    6.230411   4.887095   4.626480   5.813904   6.973499
    18  H    7.528150   6.144814   5.395009   6.317399   7.671688
    19  C    2.531821   1.512378   2.513144   3.798159   4.279871
    20  H    3.163404   2.170297   2.980555   4.324012   4.872337
    21  H    2.628126   2.148279   3.400871   4.534542   4.749196
    22  C    3.665635   2.471483   2.811461   4.090137   4.886718
    23  H    3.661314   2.693218   2.993301   4.016339   4.703850
    24  H    4.557775   3.439335   3.876202   5.180039   5.962398
    25  C    4.312919   3.847497   2.583151   1.514334   2.492753
    26  H    4.697139   4.443045   3.346503   2.143671   2.659175
    27  H    4.485066   3.777303   2.711652   2.688411   3.622234
    28  H    4.904363   4.510434   3.249063   2.181446   2.937438
    29  C    5.225435   4.302956   3.107388   3.247637   4.406874
    30  H    5.983534   5.048438   4.002684   4.269302   5.350059
    31  H    4.845928   4.096283   2.727098   2.174923   3.402206
    32  H    5.850931   5.013803   3.687247   3.467037   4.612784
                    6          7          8          9         10
     6  C    0.000000
     7  H    2.157818   0.000000
     8  H    2.146369   4.287258   0.000000
     9  H    1.086220   2.492196   2.475198   0.000000
    10  C    4.309607   4.626481   4.715195   5.395009   0.000000
    11  C    5.256602   5.813904   5.269543   6.317399   1.415364
    12  C    5.086715   4.887095   5.800108   6.144814   1.419604
    13  C    6.598833   6.973499   6.619699   7.671688   2.427388
    14  C    6.463387   6.230413   7.041269   7.528150   2.441963
    15  C    7.121344   7.169403   7.392587   8.206231   2.819178
    16  H    7.392587   7.896072   7.222922   8.443490   3.407858
    17  H    7.169403   6.690093   7.896072   8.203013   3.422797
    18  H    8.206231   8.203013   8.443490   9.290999   3.905180
    19  C    3.808959   2.735004   5.362381   4.685382   2.811461
    20  H    4.420275   3.304032   5.954939   5.281174   2.993301
    21  H    3.998226   2.399259   5.804717   4.691113   3.876202
    22  C    4.743012   4.025494   5.905858   5.696598   2.513144
    23  H    4.591492   4.036209   5.646231   5.488850   2.980555
    24  H    5.730346   4.736126   6.989125   6.637436   3.400871
    25  C    3.790028   5.395181   2.649857   4.642255   3.107389
    26  H    3.979720   5.739195   2.488183   4.677628   4.002683
    27  H    4.406728   5.437992   4.139444   5.308636   2.727098
    28  H    4.263737   5.985121   2.884474   5.028590   3.687248
    29  C    5.259645   6.182152   4.920411   6.222811   2.583151
    30  H    6.100161   6.865239   5.864749   7.032309   3.346503
    31  H    4.580053   5.906180   3.696903   5.516619   2.711652
    32  H    5.676883   6.872386   4.916398   6.597454   3.249063
                   11         12         13         14         15
    11  C    0.000000
    12  C    2.437471   0.000000
    13  C    1.403987   2.778217   0.000000
    14  C    2.810894   1.392150   2.402181   0.000000
    15  C    2.440091   2.417949   1.389248   1.395130   0.000000
    16  H    2.148132   3.864481   1.087437   3.386912   2.146369
    17  H    3.896789   2.145933   3.389760   1.087028   2.157818
    18  H    3.421295   3.403393   2.152244   2.158394   1.086220
    19  C    4.090137   2.471483   4.886718   3.665636   4.743012
    20  H    4.016339   2.693218   4.703850   3.661315   4.591492
    21  H    5.180039   3.439335   5.962398   4.557776   5.730346
    22  C    3.798159   1.512378   4.279871   2.531823   3.808960
    23  H    4.324012   2.170297   4.872337   3.163405   4.420275
    24  H    4.534542   2.148279   4.749196   2.628127   3.998226
    25  C    3.247638   4.302956   4.406875   5.225435   5.259646
    26  H    4.269302   5.048437   5.350059   5.983534   6.100161
    27  H    2.174923   4.096283   3.402206   4.845928   4.580053
    28  H    3.467038   5.013803   4.612785   5.850932   5.676884
    29  C    1.514335   3.847497   2.492754   4.312919   3.790028
    30  H    2.143672   4.443046   2.659176   4.697139   3.979720
    31  H    2.688411   3.777303   3.622234   4.485066   4.406729
    32  H    2.181446   4.510435   2.937438   4.904363   4.263737
                   16         17         18         19         20
    16  H    0.000000
    17  H    4.287258   0.000000
    18  H    2.475197   2.492196   0.000000
    19  C    5.905858   4.025494   5.696598   0.000000
    20  H    5.646231   4.036208   5.488850   1.099274   0.000000
    21  H    6.989125   4.736126   6.637436   1.094733   1.766166
    22  C    5.362381   2.735004   4.685382   1.538537   2.161041
    23  H    5.954939   3.304032   5.281175   2.161041   3.064209
    24  H    5.804717   2.399259   4.691113   2.187010   2.516426
    25  C    4.920412   6.182153   6.222812   5.057961   5.543540
    26  H    5.864749   6.865239   7.032309   5.690697   6.314926
    27  H    3.696903   5.906179   5.516619   4.704944   4.592790
    28  H    4.916399   6.872386   6.597455   5.759996   6.094930
    29  C    2.649858   5.395181   4.642255   5.011429   4.867752
    30  H    2.488184   5.739195   4.677628   5.591526   5.244905
    31  H    4.139444   5.437992   5.308637   5.053520   5.504754
    32  H    2.884475   5.985121   5.028591   5.842603   5.825387
                   21         22         23         24         25
    21  H    0.000000
    22  C    2.187009   0.000000
    23  H    2.516425   1.099274   0.000000
    24  H    2.525820   1.094733   1.766166   0.000000
    25  C    5.874510   5.011429   4.867753   6.064522   0.000000
    26  H    6.389747   5.591525   5.244904   6.645880   1.094898
    27  H    5.681316   5.053520   5.504754   5.953394   2.842206
    28  H    6.615071   5.842603   5.825387   6.882923   1.095373
    29  C    6.064522   5.057961   5.543540   5.874510   3.068141
    30  H    6.645881   5.690698   6.314927   6.389748   4.144037
    31  H    5.953393   4.704944   4.592790   5.681316   1.091098
    32  H    6.882923   5.759996   6.094930   6.615071   2.789820
                   26         27         28         29         30
    26  H    0.000000
    27  H    3.902933   0.000000
    28  H    1.758956   2.502388   0.000000
    29  C    4.144036   1.091097   2.789820   0.000000
    30  H    5.210781   1.767017   3.753361   1.094899   0.000000
    31  H    1.767017   3.005219   1.767368   2.842206   3.902933
    32  H    3.753361   1.767368   2.304279   1.095373   1.758956
                   31         32
    31  H    0.000000
    32  H    2.502388   0.000000
 Stoichiometry    C16H16
 Framework group  C1[X(C16H16)]
 Deg. of freedom    90
 Full point group                 C1      NOp   1
 RotChk:  IX=0 Diff= 6.38D-16
 Largest Abelian subgroup         C1      NOp   1
 Largest concise Abelian subgroup C1      NOp   1
                         Standard orientation:                         
 ---------------------------------------------------------------------
 Center     Atomic      Atomic             Coordinates (Angstroms)
 Number     Number       Type             X           Y           Z
 ---------------------------------------------------------------------
      1          6           0        2.771950    1.215453   -0.514136
      2          6           0        1.386222    1.155436   -0.394829
      3          6           0        0.747086   -0.049596   -0.001536
      4          6           0        1.549264   -1.128308    0.441349
      5          6           0        2.943665   -1.035774    0.306211
      6          6           0        3.555052    0.104396   -0.199980
      7          1           0        3.240485    2.144135   -0.829815
      8          1           0        3.554970   -1.872366    0.636269
      9          1           0        4.635968    0.149082   -0.297431
     10          6           0       -0.747086   -0.049596    0.001536
     11          6           0       -1.549264   -1.128308   -0.441349
     12          6           0       -1.386222    1.155436    0.394829
     13          6           0       -2.943665   -1.035774   -0.306211
     14          6           0       -2.771951    1.215452    0.514136
     15          6           0       -3.555052    0.104396    0.199979
     16          1           0       -3.554970   -1.872366   -0.636269
     17          1           0       -3.240485    2.144135    0.829814
     18          1           0       -4.635968    0.149082    0.297430
     19          6           0        0.530392    2.391754   -0.557188
     20          1           0        0.022330    2.403218   -1.531942
     21          1           0        1.156460    3.288420   -0.507486
     22          6           0       -0.530392    2.391754    0.557188
     23          1           0       -0.022330    2.403218    1.531942
     24          1           0       -1.156460    3.288420    0.507487
     25          6           0        1.000667   -2.341485    1.162772
     26          1           0        1.617933   -2.552410    2.042144
     27          1           0        0.025023   -2.189476   -1.502401
     28          1           0        1.018189   -3.241858    0.539182
     29          6           0       -1.000666   -2.341485   -1.162772
     30          1           0       -1.617933   -2.552411   -2.042144
     31          1           0       -0.025023   -2.189476    1.502401
     32          1           0       -1.018188   -3.241858   -0.539182
 ---------------------------------------------------------------------
 Rotational constants (GHZ):           0.8932832           0.4941783           0.3533256
 Leave Link  202 at Tue May 20 08:10:49 2025, MaxMem=   104857600 cpu:               0.1 elap:               0.0
 (Enter /opt/linux/rocky/8/software/gaussian/16c01_avx2/g16/l301.exe)
 Standard basis: 6-31G(d,p) (6D, 7F)
 Ernie: Thresh=  0.10000D-02 Tol=  0.10000D-05 Strict=F.
 There are   320 symmetry adapted cartesian basis functions of A   symmetry.
 There are   320 symmetry adapted basis functions of A   symmetry.
   320 basis functions,   560 primitive gaussians,   320 cartesian basis functions
    56 alpha electrons       56 beta electrons
       nuclear repulsion energy      1047.2378468928 Hartrees.
 IExCor=  402 DFT=T Ex+Corr=B3LYP ExCW=0 ScaHFX=  0.200000
 ScaDFX=  0.800000  0.720000  1.000000  0.810000 ScalE2=  1.000000  1.000000
 IRadAn=      5 IRanWt=     -1 IRanGd=            0 ICorTp=0 IEmpDi=  4
 NAtoms=   32 NActive=   32 NUniq=   32 SFac= 1.00D+00 NAtFMM=   60 NAOKFM=F Big=F
 Integral buffers will be    131072 words long.
 Raffenetti 2 integral format.
 Two-electron integral symmetry is turned on.
 Leave Link  301 at Tue May 20 08:10:49 2025, MaxMem=   104857600 cpu:               0.5 elap:               0.0
 (Enter /opt/linux/rocky/8/software/gaussian/16c01_avx2/g16/l302.exe)
 NPDir=0 NMtPBC=     1 NCelOv=     1 NCel=       1 NClECP=     1 NCelD=      1
         NCelK=      1 NCelE2=     1 NClLst=     1 CellRange=     0.0.
 One-electron integrals computed using PRISM.
 One-electron integral symmetry used in STVInt
 PrsmSu:  requested number of processors reduced to:  28 ShMem   1 Linda.
 NBasis=   320 RedAO= T EigKep=  3.16D-04  NBF=   320
 NBsUse=   320 1.00D-06 EigRej= -1.00D+00 NBFU=   320
 Precomputing XC quadrature grid using
 IXCGrd= 4 IRadAn=           5 IRanWt=          -1 IRanGd=           0 AccXCQ= 0.00D+00.
 Generated NRdTot=       0 NPtTot=           0 NUsed=           0 NTot=          32
 NSgBfM=   319   319   319   319   319 MxSgAt=    32 MxSgA2=    32.
 Leave Link  302 at Tue May 20 08:10:49 2025, MaxMem=   104857600 cpu:               5.1 elap:               0.2
 (Enter /opt/linux/rocky/8/software/gaussian/16c01_avx2/g16/l303.exe)
 DipDrv:  MaxL=1.
 Leave Link  303 at Tue May 20 08:10:49 2025, MaxMem=   104857600 cpu:               0.4 elap:               0.0
 (Enter /opt/linux/rocky/8/software/gaussian/16c01_avx2/g16/l401.exe)
 Initial guess from the checkpoint file:  "dihydrodimethylphenanthrene_gs.chk"
 B after Tr=    -0.000000   -0.000000    0.000000
         Rot=    1.000000    0.000000   -0.000000   -0.000000 Ang=   0.00 deg.
 Guess basis will be translated and rotated to current coordinates.
 JPrj=2 DoOrth=T DoCkMO=T.
 Leave Link  401 at Tue May 20 08:10:49 2025, MaxMem=   104857600 cpu:               2.7 elap:               0.1
 (Enter /opt/linux/rocky/8/software/gaussian/16c01_avx2/g16/l502.exe)
 Integral symmetry usage will be decided dynamically.
 Closed shell SCF:
 Using DIIS extrapolation, IDIIS=  1040.
 NGot=   104857600 LenX=   104638314 LenY=   104535473
 Requested convergence on RMS density matrix=1.00D-10 within 128 cycles.
 Requested convergence on MAX density matrix=1.00D-08.
 Requested convergence on             energy=1.00D-08.
 No special actions if energy rises.
 Fock matrices will be formed incrementally for  20 cycles.

 Cycle   1  Pass 1  IDiag  1:
 FoFJK:  IHMeth= 1 ICntrl=       0 DoSepK=F KAlg= 0 I1Cent=           0 FoldK=F
 IRaf= 870000000 NMat=       1 IRICut=       1 DoRegI=T DoRafI=F ISym2E= 0 IDoP0=0 IntGTp=1.
 FoFCou: FMM=F IPFlag=           0 FMFlag=      100000 FMFlg1=           0
         NFxFlg=           0 DoJE=F BraDBF=F KetDBF=F FulRan=T
         wScrn=  0.000000 ICntrl=         0 IOpCl=  0 I1Cent=           0 NGrid=           0
         NMat0=    1 NMatS0=      1 NMatT0=    0 NMatD0=    1 NMtDS0=    0 NMtDT0=    0
 Symmetry not used in FoFCou.
 E= -619.383370770089    
 DIIS: error= 7.40D-11 at cycle   1 NSaved=   1.
 NSaved= 1 IEnMin= 1 EnMin= -619.383370770089     IErMin= 1 ErrMin= 7.40D-11
 ErrMax= 7.40D-11  0.00D+00 EMaxC= 1.00D-01 BMatC= 3.85D-18 BMatP= 3.85D-18
 IDIUse=1 WtCom= 1.00D+00 WtEn= 0.00D+00
 Coeff-Com:  0.100D+01
 Coeff:      0.100D+01
 Gap=     0.191 Goal=   None    Shift=    0.000
 Skip diagonalization as Alpha Fock matrix is already diagonal.
 RMSDP=0.00D+00 MaxDP=0.00D+00              OVMax= 0.00D+00

 SCF Done:  E(RB3LYP) =  -619.383370770     A.U. after    1 cycles
            NFock=  1  Conv=0.00D+00     -V/T= 2.0099
 KE= 6.132945204299D+02 PE=-3.527774837102D+03 EE= 1.247859099010D+03
 Leave Link  502 at Tue May 20 08:10:50 2025, MaxMem=   104857600 cpu:              27.0 elap:               0.9
 (Enter /opt/linux/rocky/8/software/gaussian/16c01_avx2/g16/l801.exe)
 DoSCS=F DFT=T ScalE2(SS,OS)=  1.000000  1.000000
 Range of M.O.s used for correlation:     1   320
 NBasis=   320 NAE=    56 NBE=    56 NFC=     0 NFV=     0
 NROrb=    320 NOA=    56 NOB=    56 NVA=   264 NVB=   264
 Leave Link  801 at Tue May 20 08:10:50 2025, MaxMem=   104857600 cpu:               0.2 elap:               0.0
 (Enter /opt/linux/rocky/8/software/gaussian/16c01_avx2/g16/l1101.exe)
 Using compressed storage, NAtomX=    32.
 Will process     33 centers per pass.
 PrsmSu:  requested number of processors reduced to:  26 ShMem   1 Linda.
 PrsmSu:  requested number of processors reduced to:  14 ShMem   1 Linda.
 Leave Link 1101 at Tue May 20 08:10:51 2025, MaxMem=   104857600 cpu:               3.3 elap:               0.2
 (Enter /opt/linux/rocky/8/software/gaussian/16c01_avx2/g16/l1102.exe)
 Symmetrizing basis deriv contribution to polar:
 IMax=3 JMax=2 DiffMx= 0.00D+00
 Leave Link 1102 at Tue May 20 08:10:51 2025, MaxMem=   104857600 cpu:               0.5 elap:               0.0
 (Enter /opt/linux/rocky/8/software/gaussian/16c01_avx2/g16/l1110.exe)
 Forming Gx(P) for the SCF density, NAtomX=    32.
 Integral derivatives from FoFJK, PRISM(SPDF).
 Do as many integral derivatives as possible in FoFJK.
 G2DrvN: MDV=     104854168.
 G2DrvN: will do     5 centers at a time, making    7 passes.
 G2DrvN:  IPasSy=1 do centers    0 through    4.
 Calling FoFCou, ICntrl=  3107 FMM=F I1Cent=   0 AccDes= 0.00D+00.
 FoFJK:  IHMeth= 1 ICntrl=    3107 DoSepK=F KAlg= 0 I1Cent=           0 FoldK=F
 IRaf=         0 NMat=       1 IRICut=       1 DoRegI=T DoRafI=F ISym2E= 0 IDoP0=0 IntGTp=1.
 FoFCou: FMM=F IPFlag=           0 FMFlag=      100000 FMFlg1=           0
         NFxFlg=           0 DoJE=F BraDBF=F KetDBF=F FulRan=T
         wScrn=  0.000000 ICntrl=      3107 IOpCl=  0 I1Cent=           0 NGrid=           0
         NMat0=    1 NMatS0=      1 NMatT0=    0 NMatD0=    1 NMtDS0=    0 NMtDT0=    0
 Symmetry not used in FoFCou.
 G2DrvN:  IPasSy=1 do centers    5 through    9.
 Calling FoFCou, ICntrl=  3107 FMM=F I1Cent=   0 AccDes= 0.00D+00.
 G2DrvN:  IPasSy=1 do centers   10 through   14.
 Calling FoFCou, ICntrl=  3107 FMM=F I1Cent=   0 AccDes= 0.00D+00.
 G2DrvN:  IPasSy=1 do centers   15 through   19.
 Calling FoFCou, ICntrl=  3107 FMM=F I1Cent=   0 AccDes= 0.00D+00.
 G2DrvN:  IPasSy=1 do centers   20 through   24.
 Calling FoFCou, ICntrl=  3107 FMM=F I1Cent=   0 AccDes= 0.00D+00.
 G2DrvN:  IPasSy=1 do centers   25 through   29.
 Calling FoFCou, ICntrl=  3107 FMM=F I1Cent=   0 AccDes= 0.00D+00.
 G2DrvN:  IPasSy=1 do centers   30 through   32.
 Calling FoFCou, ICntrl=  3107 FMM=F I1Cent=   0 AccDes= 0.00D+00.
 End of G2Drv F.D. properties file   721 does not exist.
 End of G2Drv F.D. properties file   722 does not exist.
 End of G2Drv F.D. properties file   788 does not exist.
 Leave Link 1110 at Tue May 20 08:11:22 2025, MaxMem=   104857600 cpu:             980.6 elap:              30.9
 (Enter /opt/linux/rocky/8/software/gaussian/16c01_avx2/g16/l1002.exe)
 Minotr:  Closed shell wavefunction.
          IDoAtm=11111111111111111111111111111111
          Direct CPHF calculation.
          Differentiating once with respect to electric field.
                with respect to dipole field.
          Differentiating once with respect to nuclear coordinates.
          Requested convergence is 1.0D-08 RMS, and 1.0D-07 maximum.
          Secondary convergence is 1.0D-12 RMS, and 1.0D-12 maximum.
          NewPWx=T KeepS1=F KeepF1=F KeepIn=T MapXYZ=F SortEE=F KeepMc=T.
         9523 words used for storage of precomputed grid.
 Two-electron integrals replicated using symmetry.
          MDV=     104857600 using IRadAn=       1.
          Solving linear equations simultaneously, MaxMat=     384.
 FoF2E skips out because all densities are zero.
 CalDSu exits because no D1Ps are significant.
 FoFJK:  IHMeth= 1 ICntrl=       0 DoSepK=F KAlg= 0 I1Cent=           0 FoldK=F
 IRaf= 810000000 NMat=      14 IRICut=       1 DoRegI=T DoRafI=F ISym2E= 2 IDoP0=0 IntGTp=1.
 FoFCou: FMM=F IPFlag=           0 FMFlag=      100000 FMFlg1=           0
         NFxFlg=           0 DoJE=F BraDBF=F KetDBF=F FulRan=T
         wScrn=  0.000000 ICntrl=         0 IOpCl=  0 I1Cent=           0 NGrid=           0
         NMat0=   14 NMatS0=     14 NMatT0=    0 NMatD0=   14 NMtDS0=    0 NMtDT0=    0
 Integrals replicated using symmetry in FoFCou.
          There are    99 degrees of freedom in the 1st order CPHF.  IDoFFX=6 NUNeed=     3.
     96 vectors produced by pass  0 Test12= 1.49D-14 1.01D-09 XBig12= 2.83D+02 1.11D+01.
 AX will form    14 AO Fock derivatives at one time.
     96 vectors produced by pass  1 Test12= 1.49D-14 1.01D-09 XBig12= 4.21D+01 1.05D+00.
     96 vectors produced by pass  2 Test12= 1.49D-14 1.01D-09 XBig12= 2.79D-01 7.99D-02.
     96 vectors produced by pass  3 Test12= 1.49D-14 1.01D-09 XBig12= 7.61D-04 3.64D-03.
     96 vectors produced by pass  4 Test12= 1.49D-14 1.01D-09 XBig12= 1.26D-06 1.25D-04.
     69 vectors produced by pass  5 Test12= 1.49D-14 1.01D-09 XBig12= 1.12D-09 4.48D-06.
     19 vectors produced by pass  6 Test12= 1.49D-14 1.01D-09 XBig12= 9.11D-13 1.24D-07.
      9 vectors produced by pass  7 Test12= 1.49D-14 1.01D-09 XBig12= 9.41D-16 3.28D-09.
      1 vectors produced by pass  8 Test12= 1.49D-14 1.01D-09 XBig12= 2.27D-16 1.37D-09.
 InvSVY:  IOpt=1 It=  1 EMax= 1.07D-14
 Solved reduced A of dimension   578 with    99 vectors.
 FullF1:  Do perturbations      1 to       3.
 Isotropic polarizability for W=    0.000000      163.84 Bohr**3.
 End of Minotr F.D. properties file   721 does not exist.
 End of Minotr F.D. properties file   722 does not exist.
 End of Minotr F.D. properties file   788 does not exist.
 Leave Link 1002 at Tue May 20 08:12:23 2025, MaxMem=   104857600 cpu:            1912.1 elap:              61.1
 (Enter /opt/linux/rocky/8/software/gaussian/16c01_avx2/g16/l601.exe)
 Copying SCF densities to generalized density rwf, IOpCl= 0 IROHF=0.

 **********************************************************************

            Population analysis using the SCF Density.

 **********************************************************************

 Orbital symmetries:
       Occupied  (A) (A) (A) (A) (A) (A) (A) (A) (A) (A) (A) (A)
                 (A) (A) (A) (A) (A) (A) (A) (A) (A) (A) (A) (A)
                 (A) (A) (A) (A) (A) (A) (A) (A) (A) (A) (A) (A)
                 (A) (A) (A) (A) (A) (A) (A) (A) (A) (A) (A) (A)
                 (A) (A) (A) (A) (A) (A) (A) (A)
       Virtual   (A) (A) (A) (A) (A) (A) (A) (A) (A) (A) (A) (A)
                 (A) (A) (A) (A) (A) (A) (A) (A) (A) (A) (A) (A)
                 (A) (A) (A) (A) (A) (A) (A) (A) (A) (A) (A) (A)
                 (A) (A) (A) (A) (A) (A) (A) (A) (A) (A) (A) (A)
                 (A) (A) (A) (A) (A) (A) (A) (A) (A) (A) (A) (A)
                 (A) (A) (A) (A) (A) (A) (A) (A) (A) (A) (A) (A)
                 (A) (A) (A) (A) (A) (A) (A) (A) (A) (A) (A) (A)
                 (A) (A) (A) (A) (A) (A) (A) (A) (A) (A) (A) (A)
                 (A) (A) (A) (A) (A) (A) (A) (A) (A) (A) (A) (A)
                 (A) (A) (A) (A) (A) (A) (A) (A) (A) (A) (A) (A)
                 (A) (A) (A) (A) (A) (A) (A) (A) (A) (A) (A) (A)
                 (A) (A) (A) (A) (A) (A) (A) (A) (A) (A) (A) (A)
                 (A) (A) (A) (A) (A) (A) (A) (A) (A) (A) (A) (A)
                 (A) (A) (A) (A) (A) (A) (A) (A) (A) (A) (A) (A)
                 (A) (A) (A) (A) (A) (A) (A) (A) (A) (A) (A) (A)
                 (A) (A) (A) (A) (A) (A) (A) (A) (A) (A) (A) (A)
                 (A) (A) (A) (A) (A) (A) (A) (A) (A) (A) (A) (A)
                 (A) (A) (A) (A) (A) (A) (A) (A) (A) (A) (A) (A)
                 (A) (A) (A) (A) (A) (A) (A) (A) (A) (A) (A) (A)
                 (A) (A) (A) (A) (A) (A) (A) (A) (A) (A) (A) (A)
                 (A) (A) (A) (A) (A) (A) (A) (A) (A) (A) (A) (A)
                 (A) (A) (A) (A) (A) (A) (A) (A) (A) (A) (A) (A)
 The electronic state is 1-A.
 Alpha  occ. eigenvalues --  -10.19400 -10.19400 -10.19131 -10.19104 -10.18923
 Alpha  occ. eigenvalues --  -10.18922 -10.18557 -10.18536 -10.18277 -10.18277
 Alpha  occ. eigenvalues --  -10.17919 -10.17919 -10.17850 -10.17850 -10.17652
 Alpha  occ. eigenvalues --  -10.17651  -0.87172  -0.84061  -0.80229  -0.77216
 Alpha  occ. eigenvalues --   -0.76269  -0.72476  -0.72390  -0.68198  -0.66869
 Alpha  occ. eigenvalues --   -0.62860  -0.60796  -0.58151  -0.55801  -0.54493
 Alpha  occ. eigenvalues --   -0.50407  -0.47731  -0.47643  -0.45829  -0.44709
 Alpha  occ. eigenvalues --   -0.43394  -0.42406  -0.41319  -0.40897  -0.40660
 Alpha  occ. eigenvalues --   -0.39778  -0.38827  -0.38049  -0.37586  -0.37565
 Alpha  occ. eigenvalues --   -0.36257  -0.35095  -0.34113  -0.33544  -0.33089
 Alpha  occ. eigenvalues --   -0.31618  -0.30707  -0.26306  -0.23057  -0.22991
 Alpha  occ. eigenvalues --   -0.21231
 Alpha virt. eigenvalues --   -0.02168   0.00498   0.00574   0.03350   0.10362
 Alpha virt. eigenvalues --    0.10751   0.11142   0.12196   0.12597   0.13607
 Alpha virt. eigenvalues --    0.14879   0.15523   0.15873   0.16518   0.16989
 Alpha virt. eigenvalues --    0.17609   0.18614   0.18888   0.19612   0.19907
 Alpha virt. eigenvalues --    0.21101   0.22048   0.22131   0.23792   0.24969
 Alpha virt. eigenvalues --    0.26133   0.26667   0.29094   0.31010   0.32447
 Alpha virt. eigenvalues --    0.33639   0.34187   0.37013   0.38117   0.39336
 Alpha virt. eigenvalues --    0.41071   0.45434   0.49071   0.51460   0.51811
 Alpha virt. eigenvalues --    0.52122   0.53410   0.54046   0.54395   0.54550
 Alpha virt. eigenvalues --    0.55442   0.56300   0.56470   0.57887   0.58218
 Alpha virt. eigenvalues --    0.58629   0.59657   0.60789   0.61234   0.61879
 Alpha virt. eigenvalues --    0.62317   0.62448   0.62950   0.64908   0.65057
 Alpha virt. eigenvalues --    0.66726   0.68185   0.68516   0.69587   0.72055
 Alpha virt. eigenvalues --    0.72481   0.72791   0.74207   0.74784   0.76754
 Alpha virt. eigenvalues --    0.78195   0.80101   0.81041   0.81261   0.81402
 Alpha virt. eigenvalues --    0.82150   0.83123   0.83933   0.84684   0.85328
 Alpha virt. eigenvalues --    0.87485   0.87873   0.87970   0.89083   0.89316
 Alpha virt. eigenvalues --    0.90324   0.90573   0.92282   0.92556   0.95103
 Alpha virt. eigenvalues --    0.95940   0.96926   0.97937   0.99275   1.02438
 Alpha virt. eigenvalues --    1.02825   1.06187   1.07302   1.08496   1.09129
 Alpha virt. eigenvalues --    1.12275   1.13059   1.13868   1.15206   1.17556
 Alpha virt. eigenvalues --    1.19209   1.20777   1.22594   1.24913   1.27153
 Alpha virt. eigenvalues --    1.29793   1.30085   1.32866   1.35254   1.35939
 Alpha virt. eigenvalues --    1.37113   1.38867   1.38951   1.40505   1.42309
 Alpha virt. eigenvalues --    1.44289   1.46225   1.49279   1.51845   1.53124
 Alpha virt. eigenvalues --    1.56322   1.61324   1.65737   1.66571   1.68552
 Alpha virt. eigenvalues --    1.72373   1.73118   1.73586   1.76724   1.76987
 Alpha virt. eigenvalues --    1.78110   1.79236   1.80179   1.82050   1.83255
 Alpha virt. eigenvalues --    1.84005   1.84364   1.85288   1.86460   1.87931
 Alpha virt. eigenvalues --    1.88656   1.90044   1.91582   1.91587   1.93487
 Alpha virt. eigenvalues --    1.95640   1.97020   2.00160   2.01171   2.01772
 Alpha virt. eigenvalues --    2.03221   2.03807   2.05565   2.06062   2.06118
 Alpha virt. eigenvalues --    2.07789   2.09926   2.10359   2.11399   2.11952
 Alpha virt. eigenvalues --    2.15003   2.15700   2.18615   2.19188   2.19397
 Alpha virt. eigenvalues --    2.20214   2.21062   2.23002   2.26401   2.26443
 Alpha virt. eigenvalues --    2.29005   2.30109   2.31016   2.31071   2.33735
 Alpha virt. eigenvalues --    2.35944   2.36680   2.37440   2.39888   2.39974
 Alpha virt. eigenvalues --    2.41507   2.43080   2.43902   2.44629   2.46348
 Alpha virt. eigenvalues --    2.46781   2.46919   2.50030   2.52805   2.54488
 Alpha virt. eigenvalues --    2.54607   2.55226   2.56813   2.57650   2.60319
 Alpha virt. eigenvalues --    2.61268   2.62117   2.62673   2.65029   2.66482
 Alpha virt. eigenvalues --    2.66654   2.69441   2.71346   2.72796   2.73137
 Alpha virt. eigenvalues --    2.74109   2.74788   2.76275   2.76377   2.78885
 Alpha virt. eigenvalues --    2.82791   2.84744   2.86084   2.86403   2.88925
 Alpha virt. eigenvalues --    2.89338   2.90641   2.90994   3.02320   3.04030
 Alpha virt. eigenvalues --    3.07441   3.07812   3.13124   3.18775   3.21133
 Alpha virt. eigenvalues --    3.21310   3.23092   3.25556   3.27316   3.27401
 Alpha virt. eigenvalues --    3.29260   3.33348   3.35286   3.39087   3.41288
 Alpha virt. eigenvalues --    3.44654   3.46123   3.46613   3.48623   3.49875
 Alpha virt. eigenvalues --    3.54041   3.79000   3.82117   4.13119   4.14812
 Alpha virt. eigenvalues --    4.16113   4.17516   4.18468   4.22118   4.35725
 Alpha virt. eigenvalues --    4.37445   4.42817   4.46298   4.47370   4.57897
 Alpha virt. eigenvalues --    4.58925   4.65772   4.79575   4.90783
          Condensed to atoms (all electrons):
               1          2          3          4          5          6
     1  C    4.945020   0.528704  -0.019329  -0.052711  -0.031277   0.502301
     2  C    0.528704   4.818911   0.493131  -0.032979  -0.050913  -0.020757
     3  C   -0.019329   0.493131   5.016223   0.494548  -0.005291  -0.047335
     4  C   -0.052711  -0.032979   0.494548   4.843113   0.500022  -0.019583
     5  C   -0.031277  -0.050913  -0.005291   0.500022   4.928798   0.521960
     6  C    0.502301  -0.020757  -0.047335  -0.019583   0.521960   4.849621
     7  H    0.361782  -0.037803   0.004793   0.000880   0.004433  -0.044045
     8  H    0.004577   0.000969   0.004227  -0.045036   0.366009  -0.041740
     9  H   -0.036880   0.003310   0.001324   0.003556  -0.036909   0.361203
    10  C    0.008028  -0.051894   0.322470  -0.065667   0.008367  -0.000270
    11  C   -0.000190   0.004103  -0.065667  -0.008579   0.000275   0.000024
    12  C    0.001039  -0.030745  -0.051894   0.004103  -0.000173   0.000004
    13  C    0.000001  -0.000173   0.008367   0.000275   0.000004   0.000000
    14  C    0.000013   0.001039   0.008028  -0.000190   0.000001  -0.000000
    15  C   -0.000000   0.000004  -0.000270   0.000024   0.000000   0.000000
    16  H   -0.000000   0.000001  -0.000171  -0.000002  -0.000000  -0.000000
    17  H   -0.000000  -0.000017  -0.000182   0.000002  -0.000000   0.000000
    18  H    0.000000   0.000000   0.000012  -0.000000   0.000000  -0.000000
    19  C   -0.058945   0.355242  -0.061608   0.008859   0.000101   0.007231
    20  H    0.001231  -0.027179  -0.004583  -0.000306   0.000024  -0.000228
    21  H   -0.007238  -0.033407   0.003963  -0.000112  -0.000007   0.000275
    22  C    0.000242  -0.032486  -0.021802  -0.000107   0.000062  -0.000232
    23  H    0.001257  -0.000727   0.003001  -0.000063  -0.000058  -0.000056
    24  H   -0.000155   0.003749   0.000967   0.000017  -0.000001   0.000003
    25  C    0.000246   0.007369  -0.053823   0.358856  -0.071640   0.006797
    26  H    0.000024  -0.000163   0.002090  -0.029584  -0.006057   0.000182
    27  H   -0.000058  -0.000035   0.007163   0.007162   0.000364  -0.000019
    28  H    0.000019  -0.000209   0.000142  -0.025637  -0.002285  -0.000126
    29  C    0.000028   0.000148  -0.014471  -0.005548  -0.000494   0.000001
    30  H   -0.000001   0.000009   0.000040   0.000242   0.000008  -0.000001
    31  H    0.000017   0.000040  -0.007092  -0.025060   0.003860  -0.000219
    32  H   -0.000000  -0.000005   0.001004  -0.001382  -0.000053   0.000001
               7          8          9         10         11         12
     1  C    0.361782   0.004577  -0.036880   0.008028  -0.000190   0.001039
     2  C   -0.037803   0.000969   0.003310  -0.051894   0.004103  -0.030745
     3  C    0.004793   0.004227   0.001324   0.322470  -0.065667  -0.051894
     4  C    0.000880  -0.045036   0.003556  -0.065667  -0.008579   0.004103
     5  C    0.004433   0.366009  -0.036909   0.008367   0.000275  -0.000173
     6  C   -0.044045  -0.041740   0.361203  -0.000270   0.000024   0.000004
     7  H    0.644092  -0.000216  -0.005404  -0.000182   0.000002  -0.000017
     8  H   -0.000216   0.646350  -0.005919  -0.000171  -0.000002   0.000001
     9  H   -0.005404  -0.005919   0.635255   0.000012  -0.000000   0.000000
    10  C   -0.000182  -0.000171   0.000012   5.016223   0.494548   0.493131
    11  C    0.000002  -0.000002  -0.000000   0.494548   4.843113  -0.032979
    12  C   -0.000017   0.000001   0.000000   0.493131  -0.032979   4.818911
    13  C   -0.000000  -0.000000   0.000000  -0.005291   0.500022  -0.050913
    14  C   -0.000000  -0.000000   0.000000  -0.019329  -0.052711   0.528704
    15  C    0.000000  -0.000000  -0.000000  -0.047335  -0.019583  -0.020757
    16  H    0.000000   0.000000  -0.000000   0.004227  -0.045036   0.000969
    17  H   -0.000000   0.000000  -0.000000   0.004793   0.000880  -0.037803
    18  H   -0.000000  -0.000000  -0.000000   0.001324   0.003556   0.003310
    19  C   -0.010622   0.000011  -0.000195  -0.021802  -0.000107  -0.032486
    20  H    0.000298  -0.000000   0.000003   0.003001  -0.000063  -0.000727
    21  H    0.005885  -0.000000  -0.000009   0.000967   0.000017   0.003749
    22  C    0.000251  -0.000000   0.000002  -0.061608   0.008859   0.355242
    23  H   -0.000016  -0.000000   0.000001  -0.004583  -0.000306  -0.027179
    24  H   -0.000005   0.000000  -0.000000   0.003963  -0.000112  -0.033407
    25  C    0.000012  -0.008795  -0.000210  -0.014471  -0.005548   0.000148
    26  H   -0.000000   0.003659  -0.000009   0.000040   0.000242   0.000009
    27  H   -0.000000  -0.000015  -0.000000  -0.007092  -0.025060   0.000040
    28  H   -0.000000   0.001431   0.000002   0.001004  -0.001382  -0.000005
    29  C    0.000000  -0.000004   0.000000  -0.053823   0.358856   0.007369
    30  H    0.000000  -0.000000  -0.000000   0.002090  -0.029584  -0.000163
    31  H   -0.000000   0.000112   0.000003   0.007163   0.007162  -0.000035
    32  H   -0.000000   0.000001   0.000000   0.000142  -0.025638  -0.000209
              13         14         15         16         17         18
     1  C    0.000001   0.000013  -0.000000  -0.000000  -0.000000   0.000000
     2  C   -0.000173   0.001039   0.000004   0.000001  -0.000017   0.000000
     3  C    0.008367   0.008028  -0.000270  -0.000171  -0.000182   0.000012
     4  C    0.000275  -0.000190   0.000024  -0.000002   0.000002  -0.000000
     5  C    0.000004   0.000001   0.000000  -0.000000  -0.000000   0.000000
     6  C    0.000000  -0.000000   0.000000  -0.000000   0.000000  -0.000000
     7  H   -0.000000  -0.000000   0.000000   0.000000  -0.000000  -0.000000
     8  H   -0.000000  -0.000000  -0.000000   0.000000   0.000000  -0.000000
     9  H    0.000000   0.000000  -0.000000  -0.000000  -0.000000  -0.000000
    10  C   -0.005291  -0.019329  -0.047335   0.004227   0.004793   0.001324
    11  C    0.500022  -0.052711  -0.019583  -0.045036   0.000880   0.003556
    12  C   -0.050913   0.528704  -0.020757   0.000969  -0.037803   0.003310
    13  C    4.928798  -0.031277   0.521960   0.366009   0.004433  -0.036909
    14  C   -0.031277   4.945019   0.502302   0.004577   0.361782  -0.036880
    15  C    0.521960   0.502302   4.849620  -0.041740  -0.044045   0.361203
    16  H    0.366009   0.004577  -0.041740   0.646350  -0.000216  -0.005919
    17  H    0.004433   0.361782  -0.044045  -0.000216   0.644092  -0.005404
    18  H   -0.036909  -0.036880   0.361203  -0.005919  -0.005404   0.635255
    19  C    0.000062   0.000242  -0.000232  -0.000000   0.000251   0.000002
    20  H   -0.000058   0.001257  -0.000056  -0.000000  -0.000016   0.000001
    21  H   -0.000001  -0.000155   0.000003   0.000000  -0.000005  -0.000000
    22  C    0.000101  -0.058945   0.007231   0.000011  -0.010622  -0.000195
    23  H    0.000024   0.001231  -0.000228  -0.000000   0.000298   0.000003
    24  H   -0.000007  -0.007238   0.000275  -0.000000   0.005885  -0.000009
    25  C   -0.000494   0.000028   0.000001  -0.000004   0.000000   0.000000
    26  H    0.000008  -0.000001  -0.000001  -0.000000   0.000000  -0.000000
    27  H    0.003860   0.000017  -0.000219   0.000112  -0.000000   0.000003
    28  H   -0.000053  -0.000000   0.000001   0.000001  -0.000000   0.000000
    29  C   -0.071640   0.000246   0.006797  -0.008795   0.000012  -0.000210
    30  H   -0.006057   0.000024   0.000182   0.003659  -0.000000  -0.000009
    31  H    0.000364  -0.000058  -0.000019  -0.000015  -0.000000  -0.000000
    32  H   -0.002285   0.000019  -0.000126   0.001431  -0.000000   0.000002
              19         20         21         22         23         24
     1  C   -0.058945   0.001231  -0.007238   0.000242   0.001257  -0.000155
     2  C    0.355242  -0.027179  -0.033407  -0.032486  -0.000727   0.003749
     3  C   -0.061608  -0.004583   0.003963  -0.021802   0.003001   0.000967
     4  C    0.008859  -0.000306  -0.000112  -0.000107  -0.000063   0.000017
     5  C    0.000101   0.000024  -0.000007   0.000062  -0.000058  -0.000001
     6  C    0.007231  -0.000228   0.000275  -0.000232  -0.000056   0.000003
     7  H   -0.010622   0.000298   0.005885   0.000251  -0.000016  -0.000005
     8  H    0.000011  -0.000000  -0.000000  -0.000000  -0.000000   0.000000
     9  H   -0.000195   0.000003  -0.000009   0.000002   0.000001  -0.000000
    10  C   -0.021802   0.003001   0.000967  -0.061608  -0.004583   0.003963
    11  C   -0.000107  -0.000063   0.000017   0.008859  -0.000306  -0.000112
    12  C   -0.032486  -0.000727   0.003749   0.355242  -0.027179  -0.033407
    13  C    0.000062  -0.000058  -0.000001   0.000101   0.000024  -0.000007
    14  C    0.000242   0.001257  -0.000155  -0.058945   0.001231  -0.007238
    15  C   -0.000232  -0.000056   0.000003   0.007231  -0.000228   0.000275
    16  H   -0.000000  -0.000000   0.000000   0.000011  -0.000000  -0.000000
    17  H    0.000251  -0.000016  -0.000005  -0.010622   0.000298   0.005885
    18  H    0.000002   0.000001  -0.000000  -0.000195   0.000003  -0.000009
    19  C    5.054086   0.358284   0.367445   0.346502  -0.041467  -0.029042
    20  H    0.358284   0.628164  -0.034372  -0.041467   0.006736  -0.003826
    21  H    0.367445  -0.034372   0.630630  -0.029042  -0.003826  -0.001906
    22  C    0.346502  -0.041467  -0.029042   5.054086   0.358284   0.367445
    23  H   -0.041467   0.006736  -0.003826   0.358284   0.628164  -0.034372
    24  H   -0.029042  -0.003826  -0.001906   0.367445  -0.034372   0.630630
    25  C   -0.000154  -0.000000   0.000002  -0.000019   0.000001  -0.000000
    26  H    0.000004  -0.000000  -0.000000   0.000000  -0.000001   0.000000
    27  H    0.000005   0.000003   0.000000  -0.000005   0.000000  -0.000000
    28  H    0.000000  -0.000000  -0.000000   0.000001  -0.000000   0.000000
    29  C   -0.000019   0.000001  -0.000000  -0.000154  -0.000000   0.000002
    30  H    0.000000  -0.000001   0.000000   0.000004  -0.000000  -0.000000
    31  H   -0.000005   0.000000  -0.000000   0.000005   0.000003   0.000000
    32  H    0.000001  -0.000000   0.000000   0.000000  -0.000000  -0.000000
              25         26         27         28         29         30
     1  C    0.000246   0.000024  -0.000058   0.000019   0.000028  -0.000001
     2  C    0.007369  -0.000163  -0.000035  -0.000209   0.000148   0.000009
     3  C   -0.053823   0.002090   0.007163   0.000142  -0.014471   0.000040
     4  C    0.358856  -0.029584   0.007162  -0.025637  -0.005548   0.000242
     5  C   -0.071640  -0.006057   0.000364  -0.002285  -0.000494   0.000008
     6  C    0.006797   0.000182  -0.000019  -0.000126   0.000001  -0.000001
     7  H    0.000012  -0.000000  -0.000000  -0.000000   0.000000   0.000000
     8  H   -0.008795   0.003659  -0.000015   0.001431  -0.000004  -0.000000
     9  H   -0.000210  -0.000009  -0.000000   0.000002   0.000000  -0.000000
    10  C   -0.014471   0.000040  -0.007092   0.001004  -0.053823   0.002090
    11  C   -0.005548   0.000242  -0.025060  -0.001382   0.358856  -0.029584
    12  C    0.000148   0.000009   0.000040  -0.000005   0.007369  -0.000163
    13  C   -0.000494   0.000008   0.003860  -0.000053  -0.071640  -0.006057
    14  C    0.000028  -0.000001   0.000017  -0.000000   0.000246   0.000024
    15  C    0.000001  -0.000001  -0.000219   0.000001   0.006797   0.000182
    16  H   -0.000004  -0.000000   0.000112   0.000001  -0.008795   0.003659
    17  H    0.000000   0.000000  -0.000000  -0.000000   0.000012  -0.000000
    18  H    0.000000  -0.000000   0.000003   0.000000  -0.000210  -0.000009
    19  C   -0.000154   0.000004   0.000005   0.000000  -0.000019   0.000000
    20  H   -0.000000  -0.000000   0.000003  -0.000000   0.000001  -0.000001
    21  H    0.000002  -0.000000   0.000000  -0.000000  -0.000000   0.000000
    22  C   -0.000019   0.000000  -0.000005   0.000001  -0.000154   0.000004
    23  H    0.000001  -0.000001   0.000000  -0.000000  -0.000000  -0.000000
    24  H   -0.000000   0.000000  -0.000000   0.000000   0.000002  -0.000000
    25  C    5.048199   0.374846  -0.002506   0.367356  -0.003217   0.000223
    26  H    0.374846   0.600998   0.000206  -0.032224   0.000223  -0.000008
    27  H   -0.002506   0.000206   0.581833  -0.001494   0.373443  -0.027249
    28  H    0.367356  -0.032224  -0.001494   0.604307   0.001114  -0.000006
    29  C   -0.003217   0.000223   0.373443   0.001114   5.048198   0.374846
    30  H    0.000223  -0.000008  -0.027249  -0.000006   0.374846   0.600999
    31  H    0.373443  -0.027250  -0.000068  -0.033128  -0.002506   0.000206
    32  H    0.001114  -0.000006  -0.033128   0.003411   0.367356  -0.032224
              31         32
     1  C    0.000017  -0.000000
     2  C    0.000040  -0.000005
     3  C   -0.007092   0.001004
     4  C   -0.025060  -0.001382
     5  C    0.003860  -0.000053
     6  C   -0.000219   0.000001
     7  H   -0.000000  -0.000000
     8  H    0.000112   0.000001
     9  H    0.000003   0.000000
    10  C    0.007163   0.000142
    11  C    0.007162  -0.025638
    12  C   -0.000035  -0.000209
    13  C    0.000364  -0.002285
    14  C   -0.000058   0.000019
    15  C   -0.000019  -0.000126
    16  H   -0.000015   0.001431
    17  H   -0.000000  -0.000000
    18  H   -0.000000   0.000002
    19  C   -0.000005   0.000001
    20  H    0.000000  -0.000000
    21  H   -0.000000   0.000000
    22  C    0.000005   0.000000
    23  H    0.000003  -0.000000
    24  H    0.000000  -0.000000
    25  C    0.373443   0.001114
    26  H   -0.027250  -0.000006
    27  H   -0.000068  -0.033128
    28  H   -0.033128   0.003411
    29  C   -0.002506   0.367356
    30  H    0.000206  -0.032224
    31  H    0.581833  -0.001494
    32  H   -0.001494   0.604307
 Mulliken charges:
               1
     1  C   -0.147745
     2  C    0.102761
     3  C   -0.017974
     4  C    0.090888
     5  C   -0.129130
     6  C   -0.074990
     7  H    0.075883
     8  H    0.074550
     9  H    0.080866
    10  C   -0.017974
    11  C    0.090888
    12  C    0.102761
    13  C   -0.129130
    14  C   -0.147745
    15  C   -0.074989
    16  H    0.074550
    17  H    0.075883
    18  H    0.080866
    19  C   -0.241643
    20  H    0.113880
    21  H    0.097144
    22  C   -0.241643
    23  H    0.113880
    24  H    0.097144
    25  C   -0.377760
    26  H    0.112772
    27  H    0.122738
    28  H    0.117760
    29  C   -0.377760
    30  H    0.112772
    31  H    0.122738
    32  H    0.117760
 Sum of Mulliken charges =  -0.00000
 Mulliken charges with hydrogens summed into heavy atoms:
               1
     1  C   -0.071862
     2  C    0.102761
     3  C   -0.017974
     4  C    0.090888
     5  C   -0.054580
     6  C    0.005876
    10  C   -0.017974
    11  C    0.090888
    12  C    0.102761
    13  C   -0.054580
    14  C   -0.071862
    15  C    0.005877
    19  C   -0.030619
    22  C   -0.030619
    25  C   -0.024491
    29  C   -0.024491
 APT charges:
               1
     1  C   -0.055217
     2  C    0.014837
     3  C    0.005333
     4  C    0.060738
     5  C   -0.074510
     6  C   -0.007176
     7  H    0.008255
     8  H    0.004027
     9  H    0.005552
    10  C    0.005333
    11  C    0.060738
    12  C    0.014837
    13  C   -0.074511
    14  C   -0.055217
    15  C   -0.007176
    16  H    0.004027
    17  H    0.008255
    18  H    0.005552
    19  C    0.108698
    20  H   -0.040575
    21  H   -0.041592
    22  C    0.108698
    23  H   -0.040575
    24  H   -0.041592
    25  C    0.047198
    26  H   -0.026899
    27  H    0.008368
    28  H   -0.017035
    29  C    0.047198
    30  H   -0.026899
    31  H    0.008368
    32  H   -0.017035
 Sum of APT charges =  -0.00000
 APT charges with hydrogens summed into heavy atoms:
               1
     1  C   -0.046962
     2  C    0.014837
     3  C    0.005333
     4  C    0.060738
     5  C   -0.070483
     6  C   -0.001625
    10  C    0.005333
    11  C    0.060738
    12  C    0.014837
    13  C   -0.070484
    14  C   -0.046962
    15  C   -0.001624
    19  C    0.026531
    22  C    0.026531
    25  C    0.011631
    29  C    0.011631
 Electronic spatial extent (au):  <R**2>=           3275.5775
 Charge=              0.0000 electrons
 Dipole moment (field-independent basis, Debye):
    X=              0.0000    Y=              0.0265    Z=              0.0000  Tot=              0.0265
 Quadrupole moment (field-independent basis, Debye-Ang):
   XX=            -88.9579   YY=            -86.7564   ZZ=            -96.6436
   XY=             -0.0000   XZ=              0.4209   YZ=             -0.0000
 Traceless Quadrupole moment (field-independent basis, Debye-Ang):
   XX=              1.8281   YY=              4.0296   ZZ=             -5.8577
   XY=             -0.0000   XZ=              0.4209   YZ=             -0.0000
 Octapole moment (field-independent basis, Debye-Ang**2):
  XXX=              0.0000  YYY=              2.9322  ZZZ=              0.0000  XYY=              0.0000
  XXY=             -0.7319  XXZ=             -0.0000  XZZ=              0.0000  YZZ=             -1.3583
  YYZ=              0.0000  XYZ=             -9.6043
 Hexadecapole moment (field-independent basis, Debye-Ang**3):
 XXXX=          -2480.2634 YYYY=          -1474.1662 ZZZZ=           -343.5418 XXXY=              0.0000
 XXXZ=            -13.1880 YYYX=             -0.0000 YYYZ=              0.0000 ZZZX=             10.5410
 ZZZY=             -0.0000 XXYY=           -664.7490 XXZZ=           -532.2297 YYZZ=           -307.2426
 XXYZ=             -0.0000 YYXZ=              2.2475 ZZXY=             -0.0000
 N-N= 1.047237846893D+03 E-N=-3.527774837102D+03  KE= 6.132945204299D+02
  Exact polarizability:     222.961      -0.000     177.189      -3.000       0.000      91.362
 Approx polarizability:     342.495      -0.000     290.826      -6.663       0.000     145.722
 No NMR shielding tensors so no spin-rotation constants.
 Leave Link  601 at Tue May 20 08:12:25 2025, MaxMem=   104857600 cpu:              30.4 elap:               1.6
 (Enter /opt/linux/rocky/8/software/gaussian/16c01_avx2/g16/l701.exe)
 ... and contract with generalized density number  0.
 Compute integral second derivatives.
 PrsmSu:  requested number of processors reduced to:  29 ShMem   1 Linda.
 PrsmSu:  requested number of processors reduced to:  29 ShMem   1 Linda.
 Leave Link  701 at Tue May 20 08:12:26 2025, MaxMem=   104857600 cpu:              26.5 elap:               1.2
 (Enter /opt/linux/rocky/8/software/gaussian/16c01_avx2/g16/l702.exe)
 L702 exits ... SP integral derivatives will be done elsewhere.
 Leave Link  702 at Tue May 20 08:12:26 2025, MaxMem=   104857600 cpu:               0.2 elap:               0.0
 (Enter /opt/linux/rocky/8/software/gaussian/16c01_avx2/g16/l703.exe)
 Integral derivatives from FoFJK, PRISM(SPDF).
 Compute integral second derivatives, UseDBF=F ICtDFT=           0.
 Calling FoFJK, ICntrl=    100127 FMM=F ISym2X=0 I1Cent= 0 IOpClX= 0 NMat=1 NMatS=1 NMatT=0.
 FoFJK:  IHMeth= 1 ICntrl=  100127 DoSepK=F KAlg= 0 I1Cent=           0 FoldK=F
 IRaf=         0 NMat=       1 IRICut=       1 DoRegI=T DoRafI=F ISym2E= 0 IDoP0=0 IntGTp=1.
 FoFCou: FMM=F IPFlag=           0 FMFlag=      100000 FMFlg1=         800
         NFxFlg=           0 DoJE=F BraDBF=F KetDBF=F FulRan=T
         wScrn=  0.000000 ICntrl=    100127 IOpCl=  0 I1Cent=           0 NGrid=           0
         NMat0=    1 NMatS0=      1 NMatT0=    0 NMatD0=    1 NMtDS0=    0 NMtDT0=    0
 Symmetry not used in FoFCou.
 CoulSu:  requested number of processors reduced to:  29 ShMem   1 Linda.
 Leave Link  703 at Tue May 20 08:12:56 2025, MaxMem=   104857600 cpu:             943.1 elap:              30.4
 (Enter /opt/linux/rocky/8/software/gaussian/16c01_avx2/g16/l716.exe)
 Dipole        = 5.67697604D-07 1.04225437D-02 2.50527042D-08
 Polarizability= 2.22961376D+02-1.86299681D-06 1.77188967D+02
                -3.00011536D+00 7.73703768D-06 9.13618529D+01
 Full mass-weighted force constant matrix:
 Low frequencies ---   -0.0005   -0.0005    0.0007    1.7168    2.1215    5.0193
 Low frequencies ---   70.9661  116.5825  136.0713
 Diagonal vibrational polarizability:
        3.4153624       2.4128142       6.9081184
 Harmonic frequencies (cm**-1), IR intensities (KM/Mole), Raman scattering
 activities (A**4/AMU), depolarization ratios for plane and unpolarized
 incident light, reduced masses (AMU), force constants (mDyne/A),
 and normal coordinates:
                      1                      2                      3
                      A                      A                      A
 Frequencies --     70.9657               116.5825               136.0713
 Red. masses --      3.7931                 3.5309                 3.5910
 Frc consts  --      0.0113                 0.0283                 0.0392
 IR Inten    --      0.1164                 0.0537                 0.0018
  Atom  AN      X      Y      Z        X      Y      Z        X      Y      Z
     1   6     0.03   0.03   0.10     0.00   0.07   0.11     0.05  -0.01   0.10
     2   6     0.02  -0.01  -0.05    -0.00   0.01   0.04     0.05   0.06   0.12
     3   6     0.01  -0.01  -0.08     0.01  -0.03  -0.01    -0.00   0.06   0.02
     4   6    -0.02  -0.00  -0.02     0.05  -0.03  -0.08    -0.05  -0.01  -0.06
     5   6    -0.00   0.03   0.13     0.05   0.03  -0.04    -0.05  -0.10  -0.14
     6   6     0.03   0.05   0.20     0.04   0.09   0.08    -0.00  -0.09  -0.06
     7   1     0.04   0.03   0.14    -0.03   0.11   0.17     0.10  -0.00   0.17
     8   1    -0.02   0.05   0.19     0.07   0.02  -0.08    -0.09  -0.17  -0.25
     9   1     0.04   0.08   0.33     0.04   0.14   0.13    -0.01  -0.15  -0.12
    10   6     0.01   0.01  -0.08    -0.01  -0.03   0.01     0.00   0.06  -0.02
    11   6    -0.02   0.00  -0.02    -0.05  -0.03   0.08     0.05  -0.01   0.06
    12   6     0.02   0.01  -0.05     0.00   0.01  -0.04    -0.05   0.06  -0.12
    13   6    -0.00  -0.03   0.13    -0.05   0.03   0.04     0.05  -0.10   0.14
    14   6     0.03  -0.03   0.10    -0.00   0.07  -0.11    -0.05  -0.01  -0.10
    15   6     0.03  -0.05   0.20    -0.04   0.09  -0.08     0.00  -0.09   0.06
    16   1    -0.02  -0.05   0.19    -0.07   0.02   0.08     0.09  -0.17   0.25
    17   1     0.04  -0.03   0.14     0.03   0.11  -0.17    -0.10  -0.00  -0.17
    18   1     0.04  -0.08   0.33    -0.04   0.14  -0.13     0.01  -0.15   0.12
    19   6     0.01  -0.03  -0.15     0.01   0.00   0.01     0.09   0.09   0.09
    20   1     0.01  -0.11  -0.15     0.03  -0.01   0.00     0.26   0.16   0.00
    21   1    -0.01  -0.01  -0.21     0.01   0.00   0.02     0.11   0.07   0.24
    22   6     0.01   0.03  -0.15    -0.01   0.00  -0.01    -0.09   0.09  -0.09
    23   1     0.01   0.11  -0.15    -0.03  -0.01  -0.00    -0.26   0.16  -0.00
    24   1    -0.01   0.01  -0.21    -0.01   0.00  -0.02    -0.11   0.07  -0.24
    25   6    -0.06  -0.04  -0.12     0.13  -0.12  -0.18    -0.07   0.01  -0.03
    26   1    -0.06  -0.15  -0.15     0.18  -0.19  -0.23    -0.11   0.08   0.01
    27   1    -0.05   0.03  -0.10    -0.14  -0.20   0.12     0.09   0.00   0.09
    28   1    -0.11   0.02  -0.21     0.14  -0.06  -0.28    -0.01  -0.03   0.02
    29   6    -0.06   0.04  -0.12    -0.13  -0.12   0.18     0.07   0.01   0.03
    30   1    -0.06   0.15  -0.15    -0.18  -0.19   0.23     0.11   0.08  -0.01
    31   1    -0.05  -0.03  -0.10     0.14  -0.20  -0.12    -0.09   0.00  -0.09
    32   1    -0.11  -0.02  -0.21    -0.14  -0.06   0.28     0.01  -0.03  -0.02
                      4                      5                      6
                      A                      A                      A
 Frequencies --    174.4179               189.8645               210.0246
 Red. masses --      2.7555                 1.1975                 1.0470
 Frc consts  --      0.0494                 0.0254                 0.0272
 IR Inten    --      3.2312                 0.7602                 0.0230
  Atom  AN      X      Y      Z        X      Y      Z        X      Y      Z
     1   6    -0.03  -0.03  -0.04    -0.00   0.00   0.04    -0.01   0.00  -0.01
     2   6    -0.03  -0.03   0.05    -0.00  -0.01   0.02    -0.01   0.00  -0.01
     3   6    -0.00  -0.01   0.15    -0.01  -0.01   0.02    -0.00   0.00  -0.00
     4   6     0.02  -0.03   0.08    -0.00  -0.02  -0.01    -0.00   0.00  -0.01
     5   6     0.02  -0.01   0.01    -0.00  -0.02  -0.03    -0.00   0.00   0.00
     6   6    -0.01  -0.02  -0.04    -0.00  -0.01   0.01    -0.00   0.01   0.01
     7   1    -0.06  -0.05  -0.13    -0.00   0.01   0.05    -0.01   0.00  -0.02
     8   1     0.04  -0.02  -0.04    -0.01  -0.04  -0.07    -0.00   0.00  -0.00
     9   1    -0.02  -0.02  -0.11    -0.00  -0.01   0.01    -0.00   0.01   0.01
    10   6    -0.00   0.01   0.15    -0.01   0.01   0.02     0.00   0.00   0.00
    11   6     0.02   0.03   0.08    -0.00   0.02  -0.01     0.00   0.00   0.01
    12   6    -0.03   0.03   0.05    -0.00   0.01   0.02     0.01   0.00   0.01
    13   6     0.02   0.01   0.01    -0.00   0.02  -0.03     0.00   0.00  -0.00
    14   6    -0.03   0.03  -0.04    -0.00  -0.00   0.04     0.01   0.00   0.01
    15   6    -0.01   0.02  -0.04    -0.00   0.01   0.01     0.00   0.01  -0.01
    16   1     0.04   0.02  -0.04    -0.01   0.04  -0.07     0.00   0.00   0.00
    17   1    -0.06   0.05  -0.13    -0.00  -0.01   0.05     0.01   0.00   0.02
    18   1    -0.02   0.02  -0.11    -0.00   0.01   0.01     0.00   0.01  -0.01
    19   6    -0.05  -0.07  -0.08    -0.01  -0.02  -0.04    -0.01  -0.00  -0.01
    20   1    -0.06  -0.21  -0.08    -0.02  -0.09  -0.04    -0.04  -0.02  -0.00
    21   1    -0.07  -0.05  -0.21    -0.03  -0.01  -0.09    -0.02  -0.00  -0.04
    22   6    -0.05   0.07  -0.08    -0.01   0.02  -0.04     0.01  -0.00   0.01
    23   1    -0.06   0.21  -0.08    -0.02   0.09  -0.04     0.04  -0.02   0.00
    24   1    -0.07   0.05  -0.21    -0.03   0.01  -0.09     0.02  -0.00   0.04
    25   6     0.08  -0.13  -0.06     0.03  -0.03   0.00    -0.01  -0.01  -0.03
    26   1     0.18  -0.32  -0.18    -0.18   0.23   0.21    -0.25   0.23   0.20
    27   1     0.12   0.16   0.10    -0.09   0.20  -0.30     0.14  -0.17   0.37
    28   1    -0.04  -0.01  -0.23     0.41  -0.11   0.12     0.37  -0.08   0.09
    29   6     0.08   0.13  -0.06     0.03   0.03   0.00     0.01  -0.01   0.03
    30   1     0.18   0.32  -0.18    -0.18  -0.23   0.21     0.25   0.23  -0.20
    31   1     0.12  -0.16   0.10    -0.09  -0.20  -0.30    -0.14  -0.17  -0.37
    32   1    -0.04   0.01  -0.23     0.41   0.11   0.12    -0.37  -0.08  -0.09
                      7                      8                      9
                      A                      A                      A
 Frequencies --    224.5913               258.6959               261.6605
 Red. masses --      2.4243                 3.0582                 3.0145
 Frc consts  --      0.0720                 0.1206                 0.1216
 IR Inten    --      0.3752                 0.0012                 0.0024
  Atom  AN      X      Y      Z        X      Y      Z        X      Y      Z
     1   6     0.02   0.05   0.14     0.00   0.05   0.11     0.03  -0.04  -0.08
     2   6     0.01   0.01   0.05     0.00  -0.03   0.03     0.04  -0.01   0.07
     3   6     0.01  -0.00  -0.00     0.01  -0.05  -0.01     0.02  -0.01   0.05
     4   6     0.01  -0.02  -0.05     0.07  -0.02  -0.02     0.06   0.03   0.09
     5   6    -0.00  -0.06  -0.14     0.06  -0.02  -0.10     0.06   0.05   0.09
     6   6     0.01  -0.00   0.00     0.04   0.04  -0.01     0.05  -0.02  -0.07
     7   1     0.02   0.08   0.24    -0.03   0.10   0.21     0.01  -0.06  -0.18
     8   1    -0.00  -0.10  -0.24     0.08  -0.03  -0.17     0.07   0.07   0.14
     9   1     0.01  -0.00  -0.00     0.04   0.08  -0.01     0.04  -0.04  -0.17
    10   6     0.01   0.00  -0.00    -0.01  -0.05   0.01    -0.02  -0.01  -0.05
    11   6     0.01   0.02  -0.05    -0.07  -0.02   0.02    -0.06   0.03  -0.09
    12   6     0.01  -0.01   0.05    -0.00  -0.03  -0.03    -0.04  -0.01  -0.07
    13   6    -0.00   0.06  -0.14    -0.06  -0.02   0.10    -0.06   0.05  -0.09
    14   6     0.02  -0.05   0.14    -0.00   0.05  -0.11    -0.03  -0.04   0.08
    15   6     0.01   0.00   0.00    -0.04   0.04   0.01    -0.05  -0.02   0.07
    16   1    -0.00   0.10  -0.24    -0.08  -0.03   0.17    -0.07   0.07  -0.14
    17   1     0.02  -0.08   0.24     0.03   0.10  -0.21    -0.01  -0.06   0.18
    18   1     0.01   0.00  -0.00    -0.04   0.08   0.01    -0.04  -0.04   0.17
    19   6    -0.04  -0.04  -0.07    -0.01  -0.06  -0.00     0.09   0.04   0.09
    20   1    -0.04  -0.19  -0.07    -0.02  -0.10   0.00     0.26   0.18   0.00
    21   1    -0.08  -0.00  -0.19    -0.02  -0.05  -0.04     0.13   0.00   0.29
    22   6    -0.04   0.04  -0.07     0.01  -0.06   0.00    -0.09   0.04  -0.09
    23   1    -0.04   0.19  -0.07     0.02  -0.10  -0.00    -0.26   0.18  -0.00
    24   1    -0.08   0.00  -0.19     0.02  -0.05   0.04    -0.13   0.00  -0.29
    25   6    -0.00   0.04   0.06     0.11   0.07   0.17     0.13  -0.04   0.04
    26   1     0.15  -0.02  -0.05     0.10   0.25   0.23     0.09  -0.00   0.07
    27   1     0.09  -0.20   0.26    -0.10   0.10  -0.13    -0.09  -0.15   0.02
    28   1    -0.26   0.02   0.09     0.14  -0.05   0.33     0.26  -0.01   0.00
    29   6    -0.00  -0.04   0.06    -0.11   0.07  -0.17    -0.13  -0.04  -0.04
    30   1     0.14   0.02  -0.05    -0.10   0.25  -0.23    -0.09  -0.00  -0.07
    31   1     0.09   0.20   0.26     0.10   0.10   0.13     0.09  -0.15  -0.02
    32   1    -0.26  -0.02   0.09    -0.14  -0.05  -0.33    -0.26  -0.01  -0.00
                     10                     11                     12
                      A                      A                      A
 Frequencies --    320.3050               358.3878               376.4705
 Red. masses --      2.8590                 3.5587                 3.2708
 Frc consts  --      0.1728                 0.2693                 0.2731
 IR Inten    --      3.9529                 2.1664                 0.8095
  Atom  AN      X      Y      Z        X      Y      Z        X      Y      Z
     1   6    -0.04  -0.03   0.01    -0.07   0.06   0.07     0.14  -0.02   0.02
     2   6    -0.04  -0.06  -0.07    -0.05   0.05   0.11     0.12   0.02   0.04
     3   6    -0.06  -0.05  -0.09    -0.02   0.03   0.12     0.03   0.07   0.05
     4   6    -0.05  -0.05  -0.05    -0.06   0.02   0.15     0.05   0.08   0.05
     5   6    -0.05  -0.01  -0.01    -0.08   0.01  -0.01     0.06  -0.01   0.00
     6   6    -0.03  -0.00   0.06    -0.11  -0.01  -0.09     0.12  -0.06  -0.03
     7   1    -0.04  -0.01   0.08    -0.07   0.04   0.03     0.16  -0.04  -0.01
     8   1    -0.05   0.01   0.05    -0.04  -0.02  -0.14    -0.00  -0.07  -0.04
     9   1    -0.02   0.03   0.17    -0.12  -0.08  -0.26     0.12  -0.13  -0.11
    10   6    -0.06   0.05  -0.09     0.02   0.03  -0.12    -0.03   0.07  -0.05
    11   6    -0.05   0.05  -0.05     0.06   0.02  -0.15    -0.05   0.08  -0.05
    12   6    -0.04   0.06  -0.07     0.05   0.05  -0.11    -0.12   0.02  -0.04
    13   6    -0.05   0.01  -0.01     0.08   0.01   0.01    -0.06  -0.01  -0.00
    14   6    -0.04   0.03   0.01     0.07   0.06  -0.07    -0.14  -0.02  -0.02
    15   6    -0.03   0.00   0.06     0.11  -0.01   0.09    -0.12  -0.06   0.03
    16   1    -0.05  -0.01   0.05     0.04  -0.02   0.14     0.00  -0.07   0.04
    17   1    -0.04   0.01   0.08     0.07   0.04  -0.03    -0.16  -0.04   0.01
    18   1    -0.02  -0.03   0.17     0.12  -0.08   0.26    -0.12  -0.13   0.11
    19   6     0.03   0.01   0.02    -0.07   0.00  -0.05    -0.04  -0.11  -0.06
    20   1     0.04   0.15   0.02    -0.18  -0.19   0.01    -0.15  -0.36  -0.00
    21   1     0.11  -0.05   0.12    -0.10   0.03  -0.26    -0.18   0.01  -0.27
    22   6     0.03  -0.01   0.02     0.07   0.00   0.05     0.04  -0.11   0.06
    23   1     0.04  -0.15   0.02     0.18  -0.19  -0.01     0.15  -0.36   0.00
    24   1     0.11   0.05   0.12     0.10   0.03   0.26     0.18   0.01   0.27
    25   6     0.17  -0.09   0.07     0.04  -0.10   0.04    -0.00   0.06  -0.07
    26   1     0.36   0.00  -0.05     0.08  -0.16   0.00    -0.05  -0.05  -0.06
    27   1     0.21   0.18   0.27    -0.03  -0.25  -0.08     0.01   0.06   0.10
    28   1     0.13  -0.10   0.09     0.12  -0.02  -0.07    -0.00   0.12  -0.15
    29   6     0.17   0.09   0.07    -0.04  -0.10  -0.04     0.00   0.06   0.07
    30   1     0.36  -0.00  -0.05    -0.08  -0.16  -0.00     0.05  -0.05   0.06
    31   1     0.21  -0.18   0.27     0.03  -0.25   0.08    -0.01   0.06  -0.10
    32   1     0.13   0.10   0.09    -0.12  -0.02   0.07     0.00   0.12   0.15
                     13                     14                     15
                      A                      A                      A
 Frequencies --    423.7309               438.7043               467.5233
 Red. masses --      2.9190                 3.3704                 2.9961
 Frc consts  --      0.3088                 0.3822                 0.3858
 IR Inten    --      0.1642                 1.6648                 0.7229
  Atom  AN      X      Y      Z        X      Y      Z        X      Y      Z
     1   6     0.07  -0.04  -0.02     0.03   0.04   0.09    -0.05   0.02  -0.05
     2   6     0.04   0.05  -0.09     0.02   0.05  -0.02    -0.04  -0.06  -0.06
     3   6    -0.01   0.08  -0.03    -0.06   0.07   0.03    -0.01  -0.00   0.15
     4   6    -0.08   0.03  -0.04    -0.07   0.14   0.12     0.03  -0.04   0.00
     5   6    -0.09  -0.05  -0.00    -0.09   0.04  -0.02     0.02  -0.01  -0.11
     6   6    -0.00  -0.07   0.09    -0.02  -0.03  -0.05    -0.01   0.11   0.09
     7   1     0.16  -0.08  -0.01     0.06   0.05   0.15    -0.12   0.04  -0.07
     8   1    -0.15  -0.08   0.03    -0.15  -0.05  -0.14     0.07  -0.02  -0.23
     9   1     0.01  -0.12   0.20    -0.03  -0.14  -0.16     0.00   0.20   0.22
    10   6     0.01   0.08   0.03    -0.06  -0.07   0.03    -0.01   0.00   0.15
    11   6     0.08   0.03   0.04    -0.07  -0.14   0.12     0.03   0.04   0.00
    12   6    -0.04   0.05   0.09     0.02  -0.05  -0.02    -0.04   0.06  -0.06
    13   6     0.09  -0.05   0.00    -0.09  -0.04  -0.02     0.02   0.01  -0.11
    14   6    -0.07  -0.04   0.02     0.03  -0.04   0.09    -0.05  -0.02  -0.05
    15   6     0.00  -0.07  -0.09    -0.02   0.03  -0.05    -0.01  -0.11   0.09
    16   1     0.15  -0.08  -0.03    -0.15   0.05  -0.14     0.07   0.02  -0.23
    17   1    -0.16  -0.08   0.01     0.06  -0.05   0.15    -0.12  -0.04  -0.07
    18   1    -0.01  -0.12  -0.20    -0.03   0.14  -0.16     0.00  -0.20   0.22
    19   6    -0.01   0.06  -0.04     0.11   0.08  -0.08     0.10   0.02  -0.04
    20   1    -0.08   0.04  -0.01     0.22   0.21  -0.13     0.19   0.27  -0.08
    21   1    -0.05   0.08  -0.08     0.13   0.06   0.10     0.23  -0.07   0.18
    22   6     0.01   0.06   0.04     0.11  -0.08  -0.08     0.10  -0.02  -0.04
    23   1     0.08   0.04   0.01     0.22  -0.21  -0.13     0.19  -0.27  -0.08
    24   1     0.05   0.08   0.08     0.13  -0.06   0.10     0.23   0.07   0.18
    25   6     0.14  -0.03   0.05     0.04   0.02  -0.02    -0.05  -0.01   0.01
    26   1     0.30   0.11  -0.03     0.09  -0.06  -0.08    -0.12  -0.04   0.05
    27   1    -0.15  -0.22  -0.17     0.02   0.19   0.01    -0.06  -0.09  -0.05
    28   1     0.24  -0.04   0.06     0.16   0.13  -0.19    -0.10  -0.03   0.04
    29   6    -0.14  -0.03  -0.05     0.04  -0.02  -0.02    -0.05   0.01   0.01
    30   1    -0.30   0.11   0.03     0.09   0.06  -0.08    -0.12   0.04   0.05
    31   1     0.15  -0.22   0.17     0.02  -0.19   0.01    -0.06   0.09  -0.05
    32   1    -0.24  -0.04  -0.06     0.16  -0.13  -0.19    -0.10   0.03   0.04
                     16                     17                     18
                      A                      A                      A
 Frequencies --    513.7933               528.9760               536.0966
 Red. masses --      4.0145                 4.4013                 4.4338
 Frc consts  --      0.6244                 0.7256                 0.7508
 IR Inten    --      0.1997                 2.3759                 0.0081
  Atom  AN      X      Y      Z        X      Y      Z        X      Y      Z
     1   6     0.02  -0.10  -0.05     0.04   0.10   0.02    -0.07  -0.08   0.13
     2   6    -0.02   0.10  -0.06     0.02   0.07  -0.14    -0.10  -0.00  -0.14
     3   6     0.03   0.10   0.08     0.14  -0.02  -0.07     0.00  -0.03  -0.06
     4   6     0.02   0.05  -0.04     0.03  -0.09   0.13     0.10   0.09   0.12
     5   6     0.01  -0.13  -0.03     0.02  -0.06  -0.00     0.10  -0.10   0.03
     6   6     0.01  -0.09   0.14    -0.06   0.00  -0.03    -0.00  -0.10  -0.03
     7   1     0.14  -0.18  -0.12     0.14   0.10   0.14    -0.01  -0.06   0.28
     8   1    -0.08  -0.20  -0.06     0.13  -0.03  -0.10     0.06  -0.16  -0.04
     9   1     0.02  -0.03   0.24    -0.06  -0.03  -0.06    -0.02  -0.01  -0.15
    10   6     0.03  -0.10   0.08     0.14   0.02  -0.07    -0.00  -0.03   0.06
    11   6     0.02  -0.05  -0.04     0.03   0.09   0.13    -0.10   0.09  -0.12
    12   6    -0.02  -0.10  -0.06     0.02  -0.07  -0.14     0.10  -0.00   0.14
    13   6     0.01   0.13  -0.03     0.02   0.06  -0.00    -0.10  -0.10  -0.03
    14   6     0.02   0.10  -0.05     0.04  -0.10   0.02     0.07  -0.08  -0.13
    15   6     0.01   0.09   0.14    -0.06  -0.00  -0.03     0.00  -0.10   0.03
    16   1    -0.08   0.20  -0.06     0.13   0.03  -0.10    -0.06  -0.16   0.04
    17   1     0.14   0.18  -0.12     0.14  -0.10   0.14     0.01  -0.06  -0.28
    18   1     0.02   0.03   0.24    -0.06   0.03  -0.06     0.02  -0.01   0.15
    19   6    -0.13   0.11  -0.02    -0.10   0.09  -0.02    -0.03   0.14  -0.05
    20   1    -0.11   0.17  -0.03    -0.07   0.24  -0.03    -0.10   0.29  -0.01
    21   1    -0.22   0.17   0.10    -0.13   0.11   0.15     0.09   0.05  -0.02
    22   6    -0.13  -0.11  -0.02    -0.10  -0.09  -0.02     0.03   0.14   0.05
    23   1    -0.11  -0.17  -0.03    -0.07  -0.24  -0.03     0.10   0.29   0.01
    24   1    -0.22  -0.17   0.10    -0.13  -0.11   0.15    -0.09   0.05   0.02
    25   6     0.07   0.07  -0.04    -0.07  -0.17   0.09     0.04   0.07  -0.05
    26   1     0.13   0.09  -0.08    -0.14  -0.24   0.12    -0.05  -0.10  -0.03
    27   1     0.08  -0.02   0.03    -0.09   0.17   0.02    -0.01   0.04   0.12
    28   1     0.08   0.08  -0.04    -0.04  -0.12   0.02     0.07   0.18  -0.20
    29   6     0.07  -0.07  -0.04    -0.07   0.17   0.09    -0.04   0.07   0.05
    30   1     0.13  -0.09  -0.08    -0.14   0.24   0.12     0.05  -0.10   0.03
    31   1     0.08   0.02   0.03    -0.09  -0.17   0.02     0.01   0.04  -0.12
    32   1     0.08  -0.08  -0.04    -0.04   0.12   0.02    -0.07   0.18   0.20
                     19                     20                     21
                      A                      A                      A
 Frequencies --    548.6669               560.4256               576.3011
 Red. masses --      3.5148                 4.3383                 3.7994
 Frc consts  --      0.6234                 0.8028                 0.7435
 IR Inten    --      1.7432                 0.6542                 0.0151
  Atom  AN      X      Y      Z        X      Y      Z        X      Y      Z
     1   6    -0.07  -0.08  -0.01    -0.11  -0.09   0.14     0.02  -0.02  -0.11
     2   6    -0.05   0.08   0.18    -0.12  -0.11  -0.11     0.00   0.05  -0.01
     3   6    -0.01   0.00   0.02    -0.03  -0.07  -0.05     0.04   0.03   0.14
     4   6     0.05  -0.06  -0.15     0.11   0.06   0.10     0.07  -0.05   0.07
     5   6     0.06  -0.04   0.09     0.13  -0.07   0.02     0.09  -0.09  -0.11
     6   6    -0.01  -0.05   0.00     0.03  -0.05  -0.05     0.05   0.06   0.13
     7   1    -0.05  -0.15  -0.18    -0.14  -0.02   0.30     0.03  -0.07  -0.27
     8   1     0.05   0.02   0.25     0.11  -0.10  -0.01     0.13  -0.14  -0.30
     9   1    -0.02   0.03  -0.06     0.02   0.09  -0.16     0.06   0.14   0.19
    10   6     0.01   0.00  -0.02    -0.03   0.07  -0.05    -0.04   0.03  -0.14
    11   6    -0.05  -0.06   0.15     0.11  -0.06   0.10    -0.07  -0.05  -0.07
    12   6     0.05   0.08  -0.18    -0.12   0.11  -0.11    -0.00   0.05   0.01
    13   6    -0.06  -0.04  -0.09     0.13   0.07   0.02    -0.09  -0.09   0.11
    14   6     0.07  -0.08   0.01    -0.11   0.09   0.14    -0.02  -0.02   0.11
    15   6     0.01  -0.05  -0.00     0.03   0.05  -0.05    -0.05   0.06  -0.13
    16   1    -0.05   0.02  -0.25     0.11   0.10  -0.01    -0.13  -0.14   0.30
    17   1     0.05  -0.15   0.18    -0.14   0.02   0.30    -0.03  -0.07   0.27
    18   1     0.02   0.03   0.06     0.02  -0.09  -0.16    -0.06   0.14  -0.19
    19   6    -0.05   0.09  -0.03    -0.04  -0.02   0.01    -0.02   0.11  -0.04
    20   1    -0.13  -0.19   0.01    -0.04   0.18   0.01    -0.08   0.10  -0.01
    21   1    -0.08   0.12  -0.30     0.09  -0.12   0.13    -0.00   0.10  -0.09
    22   6     0.05   0.09   0.03    -0.04   0.02   0.01     0.02   0.11   0.04
    23   1     0.13  -0.19  -0.01    -0.04  -0.18   0.01     0.08   0.10   0.01
    24   1     0.08   0.12   0.30     0.09   0.12   0.13     0.00   0.10   0.09
    25   6     0.04   0.05  -0.03     0.02   0.08  -0.05    -0.05  -0.08   0.05
    26   1     0.07   0.19  -0.01    -0.11  -0.09   0.00    -0.13  -0.17   0.10
    27   1    -0.06   0.16  -0.01    -0.01  -0.11  -0.17     0.05   0.03   0.01
    28   1    -0.04  -0.07   0.14     0.03   0.16  -0.17    -0.12  -0.08   0.04
    29   6    -0.04   0.05   0.03     0.02  -0.08  -0.05     0.05  -0.08  -0.05
    30   1    -0.07   0.19   0.01    -0.11   0.09   0.00     0.13  -0.17  -0.10
    31   1     0.06   0.16   0.01    -0.01   0.11  -0.17    -0.05   0.03  -0.01
    32   1     0.04  -0.07  -0.14     0.03  -0.16  -0.17     0.12  -0.08  -0.04
                     22                     23                     24
                      A                      A                      A
 Frequencies --    604.3861               614.2574               735.9037
 Red. masses --      4.1239                 3.0026                 5.1787
 Frc consts  --      0.8875                 0.6675                 1.6524
 IR Inten    --      0.0852                 4.1151                 1.1717
  Atom  AN      X      Y      Z        X      Y      Z        X      Y      Z
     1   6    -0.11  -0.10  -0.05     0.07   0.01  -0.06     0.10  -0.06   0.05
     2   6    -0.06  -0.07   0.06     0.05  -0.06  -0.10    -0.01  -0.05  -0.05
     3   6    -0.05   0.03   0.11    -0.01  -0.01  -0.02    -0.14   0.01   0.08
     4   6    -0.02   0.11   0.03    -0.04   0.08   0.12    -0.05  -0.01  -0.06
     5   6    -0.05  -0.03  -0.08    -0.05   0.01  -0.10     0.02   0.12  -0.01
     6   6    -0.04   0.02   0.12     0.05   0.03   0.06     0.29  -0.01  -0.07
     7   1    -0.17  -0.12  -0.18     0.05   0.05   0.04    -0.01   0.01   0.08
     8   1    -0.13  -0.13  -0.20    -0.10  -0.07  -0.23    -0.10   0.07   0.07
     9   1    -0.04   0.08   0.16     0.07  -0.02   0.18     0.30  -0.05  -0.02
    10   6     0.05   0.03  -0.11    -0.01   0.01  -0.02    -0.14  -0.01   0.08
    11   6     0.02   0.11  -0.03    -0.04  -0.08   0.12    -0.05   0.01  -0.06
    12   6     0.06  -0.07  -0.06     0.05   0.06  -0.10    -0.01   0.05  -0.05
    13   6     0.05  -0.03   0.08    -0.05  -0.01  -0.10     0.02  -0.12  -0.01
    14   6     0.11  -0.10   0.05     0.07  -0.01  -0.06     0.10   0.06   0.05
    15   6     0.04   0.02  -0.12     0.05  -0.03   0.06     0.29   0.01  -0.07
    16   1     0.13  -0.13   0.20    -0.10   0.07  -0.23    -0.10  -0.07   0.07
    17   1     0.17  -0.12   0.18     0.05  -0.05   0.04    -0.01  -0.01   0.08
    18   1     0.04   0.08  -0.16     0.07   0.02   0.18     0.30   0.05  -0.02
    19   6     0.02  -0.11   0.04    -0.03  -0.10   0.11    -0.12   0.06  -0.03
    20   1     0.10  -0.05   0.00    -0.28  -0.24   0.24    -0.03   0.23  -0.08
    21   1     0.05  -0.14   0.15    -0.05  -0.07  -0.20    -0.15   0.07   0.20
    22   6    -0.02  -0.11  -0.04    -0.03   0.10   0.11    -0.12  -0.06  -0.03
    23   1    -0.10  -0.05  -0.00    -0.28   0.24   0.24    -0.03  -0.23  -0.08
    24   1    -0.05  -0.14  -0.15    -0.05   0.07  -0.20    -0.15  -0.07   0.20
    25   6     0.07   0.15  -0.07    -0.01   0.01   0.01    -0.05  -0.10   0.04
    26   1     0.09   0.12  -0.10    -0.02  -0.10  -0.01    -0.06  -0.03   0.06
    27   1    -0.06   0.06   0.05    -0.03   0.10  -0.02    -0.04   0.04   0.06
    28   1     0.12   0.20  -0.14     0.07   0.11  -0.14    -0.10  -0.16   0.13
    29   6    -0.07   0.15   0.07    -0.01  -0.01   0.01    -0.05   0.10   0.04
    30   1    -0.09   0.12   0.10    -0.02   0.10  -0.01    -0.06   0.03   0.06
    31   1     0.06   0.06  -0.05    -0.03  -0.10  -0.02    -0.04  -0.04   0.06
    32   1    -0.12   0.20   0.14     0.07  -0.11  -0.14    -0.10   0.16   0.13
                     25                     26                     27
                      A                      A                      A
 Frequencies --    747.5410               787.2889               790.0182
 Red. masses --      2.8025                 4.1598                 1.3778
 Frc consts  --      0.9227                 1.5191                 0.5067
 IR Inten    --     15.5200                 0.1894                 5.9451
  Atom  AN      X      Y      Z        X      Y      Z        X      Y      Z
     1   6     0.02   0.05   0.03    -0.00  -0.01   0.11    -0.01  -0.00  -0.03
     2   6     0.02  -0.03  -0.14    -0.03  -0.06  -0.14     0.00   0.00  -0.02
     3   6     0.04   0.04   0.15    -0.01   0.10   0.25     0.01   0.04   0.08
     4   6    -0.01  -0.04  -0.07    -0.02  -0.05  -0.12     0.01  -0.01  -0.00
     5   6    -0.03   0.01   0.05     0.00   0.07   0.07     0.01  -0.03  -0.02
     6   6    -0.06  -0.05  -0.09     0.06  -0.01  -0.04    -0.03  -0.03  -0.07
     7   1     0.10   0.14   0.40    -0.06  -0.05  -0.10     0.04   0.10   0.36
     8   1     0.00   0.14   0.30    -0.05  -0.04  -0.10     0.06   0.15   0.34
     9   1    -0.04   0.01   0.23     0.04  -0.09  -0.28     0.01   0.17   0.42
    10   6     0.04  -0.04   0.15     0.01   0.10  -0.25    -0.01   0.04  -0.08
    11   6    -0.01   0.04  -0.07     0.02  -0.05   0.12    -0.01  -0.01   0.00
    12   6     0.02   0.03  -0.14     0.03  -0.06   0.14    -0.00   0.00   0.02
    13   6    -0.03  -0.01   0.05    -0.00   0.07  -0.07    -0.01  -0.03   0.02
    14   6     0.02  -0.05   0.03     0.00  -0.01  -0.11     0.01  -0.00   0.03
    15   6    -0.06   0.05  -0.09    -0.06  -0.01   0.04     0.03  -0.03   0.07
    16   1     0.00  -0.14   0.30     0.05  -0.04   0.10    -0.06   0.15  -0.34
    17   1     0.10  -0.14   0.40     0.06  -0.05   0.10    -0.04   0.10  -0.36
    18   1    -0.04  -0.01   0.23    -0.04  -0.09   0.28    -0.01   0.17  -0.42
    19   6     0.01  -0.03   0.03    -0.02  -0.02  -0.04    -0.00  -0.01   0.01
    20   1    -0.14  -0.03   0.11    -0.04   0.29  -0.03     0.01  -0.02   0.00
    21   1     0.03  -0.04  -0.11     0.08  -0.10   0.17    -0.01  -0.00   0.01
    22   6     0.01   0.03   0.03     0.02  -0.02   0.04     0.00  -0.01  -0.01
    23   1    -0.14   0.03   0.11     0.04   0.29   0.03    -0.01  -0.02  -0.00
    24   1     0.03   0.04  -0.11    -0.08  -0.10  -0.17     0.01  -0.00  -0.01
    25   6     0.02   0.03  -0.03    -0.00  -0.02  -0.02     0.00   0.00  -0.00
    26   1     0.05   0.11  -0.04     0.05   0.16  -0.01    -0.01  -0.02   0.00
    27   1     0.03  -0.06  -0.00    -0.04   0.10  -0.04    -0.00   0.01   0.02
    28   1     0.00  -0.01   0.04    -0.09  -0.16   0.18     0.01   0.01  -0.02
    29   6     0.02  -0.03  -0.03     0.00  -0.02   0.02    -0.00   0.00   0.00
    30   1     0.05  -0.11  -0.04    -0.05   0.16   0.01     0.01  -0.02  -0.00
    31   1     0.03   0.06  -0.00     0.04   0.10   0.04     0.00   0.01  -0.02
    32   1     0.00   0.01   0.04     0.09  -0.16  -0.18    -0.01   0.01   0.02
                     28                     29                     30
                      A                      A                      A
 Frequencies --    798.6548               800.3801               860.5848
 Red. masses --      1.4570                 4.5258                 2.0655
 Frc consts  --      0.5476                 1.7082                 0.9013
 IR Inten    --     36.4325                 0.0154                 3.0588
  Atom  AN      X      Y      Z        X      Y      Z        X      Y      Z
     1   6    -0.02  -0.03  -0.05     0.03   0.15  -0.02     0.06   0.05  -0.01
     2   6    -0.00   0.03   0.07     0.06   0.06  -0.06     0.03  -0.07   0.04
     3   6    -0.01  -0.00  -0.03     0.09   0.04   0.02     0.04  -0.05   0.00
     4   6     0.01   0.02   0.04     0.08  -0.05  -0.01    -0.00  -0.03   0.02
     5   6     0.01  -0.02  -0.06     0.06  -0.14   0.09    -0.06   0.00  -0.02
     6   6     0.01  -0.01  -0.04    -0.24  -0.01   0.04    -0.02  -0.01   0.00
     7   1     0.00   0.07   0.29     0.21   0.02  -0.15     0.05   0.03  -0.09
     8   1     0.04   0.15   0.32     0.19  -0.12  -0.12    -0.05   0.06   0.08
     9   1     0.05   0.19   0.43    -0.26  -0.10  -0.21    -0.01  -0.14   0.09
    10   6    -0.01   0.00  -0.03    -0.09   0.04  -0.02     0.04   0.05   0.00
    11   6     0.01  -0.02   0.04    -0.08  -0.05   0.01    -0.00   0.03   0.02
    12   6    -0.00  -0.03   0.07    -0.06   0.06   0.06     0.03   0.07   0.04
    13   6     0.01   0.02  -0.06    -0.06  -0.14  -0.09    -0.06  -0.00  -0.02
    14   6    -0.02   0.03  -0.05    -0.03   0.15   0.02     0.06  -0.05  -0.01
    15   6     0.01   0.01  -0.04     0.24  -0.01  -0.04    -0.02   0.01   0.00
    16   1     0.04  -0.15   0.32    -0.19  -0.12   0.12    -0.05  -0.06   0.08
    17   1     0.00  -0.07   0.29    -0.21   0.02   0.15     0.05  -0.03  -0.09
    18   1     0.05  -0.19   0.43     0.26  -0.10   0.21    -0.01   0.14   0.09
    19   6     0.01   0.02  -0.02    -0.00  -0.09   0.04    -0.11  -0.08  -0.03
    20   1     0.08  -0.04  -0.06     0.07   0.01   0.01     0.26   0.24  -0.21
    21   1    -0.03   0.04   0.01    -0.08  -0.05   0.21     0.03  -0.20   0.42
    22   6     0.01  -0.02  -0.02     0.00  -0.09  -0.04    -0.11   0.08  -0.03
    23   1     0.08   0.04  -0.06    -0.07   0.01  -0.01     0.26  -0.24  -0.21
    24   1    -0.03  -0.04   0.01     0.08  -0.05  -0.21     0.03   0.20   0.42
    25   6    -0.01  -0.01   0.02     0.05   0.05  -0.03     0.03   0.06  -0.03
    26   1    -0.04  -0.09   0.02     0.02   0.06  -0.01     0.01   0.02  -0.02
    27   1    -0.03   0.06  -0.02    -0.05   0.14   0.06     0.02  -0.07  -0.06
    28   1     0.03   0.05  -0.07    -0.00   0.01   0.01     0.03   0.09  -0.06
    29   6    -0.01   0.01   0.02    -0.05   0.05   0.03     0.03  -0.06  -0.03
    30   1    -0.04   0.09   0.02    -0.02   0.06   0.01     0.01  -0.02  -0.02
    31   1    -0.03  -0.06  -0.02     0.05   0.14  -0.06     0.02   0.07  -0.06
    32   1     0.03  -0.05  -0.07     0.00   0.01  -0.01     0.03  -0.09  -0.06
                     31                     32                     33
                      A                      A                      A
 Frequencies --    902.6412               907.6726               920.7058
 Red. masses --      1.3139                 1.3341                 3.5103
 Frc consts  --      0.6307                 0.6476                 1.7532
 IR Inten    --      0.4493                 0.7867                 0.8764
  Atom  AN      X      Y      Z        X      Y      Z        X      Y      Z
     1   6    -0.02  -0.03  -0.08    -0.01  -0.02  -0.08    -0.08  -0.06   0.02
     2   6     0.00   0.00   0.00     0.01   0.00   0.03    -0.04   0.10  -0.01
     3   6    -0.00  -0.00   0.01     0.00  -0.01  -0.00    -0.00   0.15  -0.08
     4   6    -0.01  -0.00  -0.01    -0.00  -0.00  -0.01    -0.01   0.08  -0.04
     5   6     0.01   0.03   0.07     0.01   0.03   0.07     0.10  -0.05   0.02
     6   6    -0.00  -0.00   0.01    -0.00  -0.00   0.01     0.05   0.02  -0.00
     7   1     0.03   0.14   0.48     0.03   0.15   0.48    -0.08  -0.05   0.04
     8   1    -0.02  -0.19  -0.42    -0.03  -0.18  -0.41     0.05  -0.09   0.02
     9   1    -0.00  -0.01  -0.02    -0.00  -0.01   0.00     0.02   0.27  -0.15
    10   6     0.00  -0.00  -0.01     0.00   0.01  -0.00     0.00   0.15   0.08
    11   6     0.01  -0.00   0.01    -0.00   0.00  -0.01     0.01   0.08   0.04
    12   6    -0.00   0.00  -0.00     0.01  -0.00   0.03     0.04   0.10   0.01
    13   6    -0.01   0.03  -0.07     0.01  -0.03   0.07    -0.10  -0.05  -0.02
    14   6     0.02  -0.03   0.08    -0.01   0.02  -0.08     0.08  -0.06  -0.02
    15   6     0.00  -0.00  -0.01    -0.00   0.00   0.01    -0.05   0.02   0.00
    16   1     0.02  -0.19   0.42    -0.03   0.18  -0.41    -0.05  -0.09  -0.02
    17   1    -0.03   0.14  -0.47     0.03  -0.15   0.48     0.08  -0.05  -0.04
    18   1     0.00  -0.01   0.02    -0.00   0.01   0.00    -0.02   0.27   0.15
    19   6     0.01   0.01   0.01    -0.01  -0.01  -0.01    -0.06  -0.11   0.09
    20   1     0.01  -0.09   0.01     0.08  -0.00  -0.06     0.00  -0.03   0.06
    21   1    -0.01   0.03  -0.07    -0.02  -0.00   0.06    -0.21  -0.02   0.30
    22   6    -0.01   0.01  -0.01    -0.01   0.01  -0.01     0.06  -0.11  -0.09
    23   1    -0.01  -0.09  -0.01     0.08   0.00  -0.06    -0.00  -0.03  -0.06
    24   1     0.01   0.03   0.07    -0.02   0.00   0.06     0.21  -0.02  -0.30
    25   6    -0.00  -0.00  -0.01     0.00   0.00  -0.01    -0.07  -0.09   0.06
    26   1     0.02   0.06  -0.01     0.02   0.06  -0.01     0.06  -0.03  -0.02
    27   1    -0.01   0.03  -0.02     0.01  -0.03   0.01     0.06  -0.29  -0.17
    28   1    -0.02  -0.05   0.05    -0.02  -0.04   0.05     0.03  -0.08   0.05
    29   6     0.00  -0.00   0.01     0.00  -0.00  -0.01     0.07  -0.09  -0.06
    30   1    -0.02   0.06   0.01     0.02  -0.06  -0.01    -0.06  -0.03   0.02
    31   1     0.01   0.03   0.02     0.01   0.03   0.01    -0.06  -0.29   0.17
    32   1     0.02  -0.05  -0.05    -0.02   0.04   0.05    -0.03  -0.08  -0.05
                     34                     35                     36
                      A                      A                      A
 Frequencies --    971.6791               972.3180               982.1229
 Red. masses --      1.2779                 1.2773                 2.1525
 Frc consts  --      0.7109                 0.7115                 1.2233
 IR Inten    --      0.4866                 0.0338                 0.0561
  Atom  AN      X      Y      Z        X      Y      Z        X      Y      Z
     1   6    -0.00   0.00   0.05    -0.00  -0.01  -0.04    -0.03  -0.01   0.03
     2   6    -0.00   0.00   0.00    -0.00  -0.01  -0.01     0.02  -0.02  -0.05
     3   6     0.01   0.00  -0.01    -0.00   0.01   0.02     0.00   0.05  -0.01
     4   6    -0.00   0.01   0.00    -0.00  -0.00  -0.00    -0.00   0.03  -0.02
     5   6    -0.00   0.03   0.05    -0.00  -0.02  -0.05     0.04  -0.02   0.01
     6   6    -0.01  -0.03  -0.08     0.01   0.03   0.08    -0.04   0.02  -0.01
     7   1    -0.03  -0.10  -0.29     0.02   0.09   0.29    -0.05  -0.04  -0.08
     8   1    -0.03  -0.14  -0.32     0.02   0.14   0.33     0.08   0.01   0.01
     9   1     0.03   0.19   0.48    -0.03  -0.18  -0.48    -0.05   0.17  -0.05
    10   6     0.01  -0.00  -0.01     0.00   0.01  -0.02    -0.00   0.05   0.01
    11   6    -0.00  -0.01   0.00     0.00  -0.00   0.00     0.00   0.03   0.02
    12   6    -0.00  -0.00   0.00     0.00  -0.01   0.01    -0.02  -0.02   0.05
    13   6    -0.00  -0.03   0.05     0.00  -0.02   0.05    -0.04  -0.02  -0.01
    14   6    -0.00  -0.00   0.05     0.00  -0.01   0.04     0.03  -0.01  -0.03
    15   6    -0.01   0.03  -0.08    -0.01   0.03  -0.08     0.04   0.02   0.01
    16   1    -0.03   0.14  -0.32    -0.02   0.14  -0.33    -0.08   0.01  -0.01
    17   1    -0.03   0.10  -0.29    -0.02   0.09  -0.29     0.05  -0.04   0.08
    18   1     0.03  -0.19   0.48     0.03  -0.18   0.48     0.05   0.17   0.05
    19   6    -0.00  -0.01   0.00     0.01   0.00   0.00     0.18   0.00  -0.07
    20   1    -0.00   0.00   0.00     0.00  -0.02   0.00     0.22  -0.31  -0.10
    21   1     0.01  -0.01   0.01     0.01   0.00  -0.03     0.25  -0.03  -0.38
    22   6    -0.00   0.01   0.00    -0.01   0.00  -0.00    -0.18   0.00   0.07
    23   1    -0.00  -0.00   0.00    -0.00  -0.02  -0.00    -0.22  -0.31   0.10
    24   1     0.01   0.01   0.01    -0.01   0.00   0.03    -0.25  -0.03   0.38
    25   6    -0.00  -0.00  -0.00    -0.00   0.00   0.00    -0.03  -0.02   0.01
    26   1     0.00   0.02  -0.00     0.00  -0.01  -0.00     0.06   0.03  -0.04
    27   1     0.00  -0.00   0.01     0.00  -0.01   0.00     0.03  -0.14  -0.09
    28   1    -0.01  -0.02   0.02     0.01   0.01  -0.01     0.05  -0.01   0.01
    29   6    -0.00   0.00  -0.00     0.00   0.00  -0.00     0.03  -0.02  -0.01
    30   1     0.00  -0.02  -0.00    -0.00  -0.01   0.00    -0.06   0.03   0.04
    31   1     0.00   0.00   0.01    -0.00  -0.01  -0.00    -0.03  -0.14   0.09
    32   1    -0.01   0.02   0.02    -0.01   0.01   0.01    -0.05  -0.01  -0.01
                     37                     38                     39
                      A                      A                      A
 Frequencies --    988.7088              1018.1403              1021.2652
 Red. masses --      1.7780                 6.6420                 1.6724
 Frc consts  --      1.0240                 4.0566                 1.0277
 IR Inten    --      3.7720                 2.9963                 4.8984
  Atom  AN      X      Y      Z        X      Y      Z        X      Y      Z
     1   6    -0.02   0.02  -0.00    -0.13  -0.23   0.07    -0.01  -0.06   0.03
     2   6    -0.00   0.02  -0.01    -0.03   0.04  -0.01    -0.00   0.03  -0.03
     3   6     0.03   0.06  -0.00     0.31   0.07  -0.02    -0.00   0.06  -0.03
     4   6    -0.03   0.05  -0.03     0.00   0.01   0.01     0.04   0.01  -0.01
     5   6     0.06  -0.05   0.02    -0.16   0.19  -0.09    -0.05   0.05  -0.02
     6   6     0.02   0.01  -0.01     0.04   0.02   0.02    -0.03  -0.00   0.01
     7   1    -0.04   0.03  -0.01    -0.15  -0.21   0.14     0.06  -0.11   0.01
     8   1     0.04  -0.06   0.05    -0.21   0.20   0.01    -0.06   0.05  -0.02
     9   1     0.02   0.14  -0.07     0.02   0.01  -0.11    -0.04  -0.00  -0.01
    10   6     0.03  -0.06  -0.00     0.31  -0.07  -0.02     0.00   0.06   0.03
    11   6    -0.03  -0.05  -0.03     0.00  -0.01   0.01    -0.04   0.01   0.01
    12   6    -0.00  -0.02  -0.01    -0.03  -0.04  -0.01     0.00   0.03   0.03
    13   6     0.06   0.05   0.02    -0.16  -0.19  -0.09     0.05   0.05   0.02
    14   6    -0.02  -0.02  -0.00    -0.13   0.23   0.07     0.02  -0.06  -0.03
    15   6     0.02  -0.01  -0.01     0.04  -0.02   0.02     0.03  -0.00  -0.01
    16   1     0.04   0.06   0.05    -0.21  -0.20   0.01     0.06   0.05   0.02
    17   1    -0.04  -0.03  -0.01    -0.15   0.21   0.14    -0.06  -0.11  -0.01
    18   1     0.02  -0.14  -0.07     0.02  -0.01  -0.11     0.04  -0.00   0.01
    19   6    -0.02  -0.09   0.01    -0.01  -0.04   0.01     0.03  -0.02   0.02
    20   1     0.13   0.02  -0.06     0.03   0.01  -0.01     0.04  -0.13   0.01
    21   1     0.11  -0.18   0.12     0.11  -0.12   0.01    -0.04   0.03  -0.03
    22   6    -0.02   0.09   0.01    -0.01   0.04   0.01    -0.03  -0.02  -0.02
    23   1     0.13  -0.02  -0.06     0.03  -0.01  -0.01    -0.04  -0.13  -0.01
    24   1     0.11   0.18   0.12     0.11   0.12   0.01     0.04   0.03   0.03
    25   6    -0.09  -0.01   0.01    -0.02  -0.04  -0.01     0.08  -0.06   0.02
    26   1     0.21   0.15  -0.16     0.02   0.09  -0.00    -0.26  -0.23   0.22
    27   1    -0.06   0.39   0.27     0.01  -0.03   0.04    -0.05   0.36   0.25
    28   1     0.17   0.00   0.00    -0.03  -0.10   0.09    -0.23  -0.07   0.04
    29   6    -0.09   0.01   0.01    -0.02   0.04  -0.01    -0.08  -0.06  -0.02
    30   1     0.21  -0.15  -0.16     0.02  -0.09  -0.00     0.26  -0.23  -0.22
    31   1    -0.06  -0.39   0.27     0.01   0.03   0.04     0.05   0.36  -0.25
    32   1     0.17  -0.00   0.00    -0.03   0.10   0.09     0.23  -0.07  -0.04
                     40                     41                     42
                      A                      A                      A
 Frequencies --   1050.5559              1056.9135              1063.8672
 Red. masses --      2.0284                 2.2084                 1.6115
 Frc consts  --      1.3190                 1.4535                 1.0746
 IR Inten    --      1.9038                 0.1512                 2.8344
  Atom  AN      X      Y      Z        X      Y      Z        X      Y      Z
     1   6     0.02   0.01  -0.00     0.01  -0.01  -0.03     0.00  -0.01   0.00
     2   6    -0.02   0.05  -0.02    -0.00   0.03   0.09    -0.01   0.03  -0.01
     3   6    -0.05   0.10  -0.02     0.01   0.03  -0.04    -0.00   0.05   0.00
     4   6     0.03   0.09   0.01     0.01   0.02  -0.00     0.01  -0.01  -0.10
     5   6     0.01  -0.02  -0.00    -0.00  -0.01   0.01    -0.01   0.01   0.02
     6   6    -0.02  -0.01   0.00    -0.01   0.00  -0.00    -0.01   0.00   0.00
     7   1     0.13  -0.05   0.01     0.05   0.02   0.12     0.05  -0.03   0.03
     8   1    -0.06  -0.04   0.07    -0.01  -0.02  -0.01    -0.04  -0.04  -0.07
     9   1    -0.03   0.05  -0.01    -0.01   0.02   0.01    -0.01   0.02  -0.03
    10   6    -0.05  -0.10  -0.02    -0.01   0.03   0.04    -0.00  -0.05   0.00
    11   6     0.03  -0.09   0.01    -0.01   0.02   0.00     0.01   0.01  -0.10
    12   6    -0.02  -0.05  -0.02     0.00   0.03  -0.09    -0.01  -0.03  -0.01
    13   6     0.01   0.02  -0.00     0.00  -0.01  -0.01    -0.01  -0.01   0.02
    14   6     0.02  -0.01  -0.00    -0.01  -0.01   0.03     0.00   0.01   0.00
    15   6    -0.02   0.01   0.00     0.01   0.00   0.00    -0.01  -0.00   0.00
    16   1    -0.06   0.04   0.07     0.01  -0.02   0.01    -0.04   0.04  -0.07
    17   1     0.13   0.05   0.01    -0.05   0.02  -0.12     0.05   0.03   0.03
    18   1    -0.03  -0.05  -0.01     0.01   0.02  -0.01    -0.01  -0.02  -0.03
    19   6    -0.01  -0.09   0.02    -0.01  -0.06  -0.19    -0.00  -0.04   0.01
    20   1     0.13  -0.01  -0.05     0.10   0.39  -0.24     0.06  -0.02  -0.03
    21   1     0.12  -0.18   0.09     0.28  -0.28   0.19     0.05  -0.07   0.03
    22   6    -0.01   0.09   0.02     0.01  -0.06   0.19    -0.00   0.04   0.01
    23   1     0.13   0.01  -0.05    -0.10   0.39   0.24     0.06   0.02  -0.03
    24   1     0.12   0.18   0.09    -0.28  -0.28  -0.19     0.05   0.07   0.03
    25   6     0.05  -0.09  -0.02     0.01  -0.02   0.00     0.03   0.01   0.11
    26   1    -0.17  -0.00   0.16    -0.04  -0.02   0.04    -0.16  -0.43   0.12
    27   1     0.07  -0.31  -0.09    -0.01   0.06   0.02    -0.08   0.10  -0.18
    28   1    -0.25  -0.27   0.23    -0.05  -0.05   0.04     0.03   0.28  -0.29
    29   6     0.05   0.09  -0.02    -0.01  -0.02  -0.00     0.03  -0.01   0.11
    30   1    -0.17   0.00   0.16     0.04  -0.02  -0.04    -0.16   0.43   0.12
    31   1     0.07   0.31  -0.09     0.01   0.06  -0.02    -0.08  -0.10  -0.18
    32   1    -0.25   0.27   0.23     0.05  -0.05  -0.04     0.03  -0.28  -0.29
                     43                     44                     45
                      A                      A                      A
 Frequencies --   1066.4090              1119.4298              1132.2980
 Red. masses --      1.4886                 1.8200                 1.6319
 Frc consts  --      0.9974                 1.3438                 1.2327
 IR Inten    --      1.7991                 0.2390                 4.1278
  Atom  AN      X      Y      Z        X      Y      Z        X      Y      Z
     1   6    -0.00  -0.00   0.00    -0.01   0.11  -0.03     0.04  -0.08   0.03
     2   6     0.00   0.00  -0.01    -0.04  -0.01  -0.00     0.04  -0.02  -0.01
     3   6     0.01  -0.01  -0.02    -0.04   0.02  -0.01    -0.05  -0.01   0.01
     4   6     0.01   0.04   0.09    -0.02   0.03  -0.00     0.01   0.01  -0.00
     5   6    -0.00  -0.00  -0.03    -0.00  -0.10   0.04     0.04   0.07  -0.03
     6   6    -0.00  -0.00   0.00     0.07  -0.01  -0.01    -0.09   0.01   0.01
     7   1     0.01  -0.02  -0.02    -0.32   0.26  -0.06     0.39  -0.25   0.03
     8   1     0.01   0.04   0.07    -0.31  -0.28   0.15     0.33   0.25  -0.13
     9   1    -0.00   0.01   0.02     0.09  -0.04   0.02    -0.10   0.09  -0.03
    10   6    -0.01  -0.01   0.02     0.04   0.02   0.01    -0.05   0.01   0.01
    11   6    -0.01   0.04  -0.09     0.02   0.03   0.00     0.01  -0.01  -0.00
    12   6    -0.00   0.00   0.01     0.04  -0.01   0.00     0.04   0.02  -0.01
    13   6     0.00  -0.00   0.03     0.00  -0.10  -0.04     0.04  -0.07  -0.03
    14   6     0.00  -0.00  -0.00     0.01   0.11   0.03     0.04   0.08   0.03
    15   6     0.00  -0.00  -0.00    -0.07  -0.01   0.01    -0.09  -0.01   0.01
    16   1    -0.01   0.04  -0.07     0.31  -0.28  -0.15     0.33  -0.25  -0.13
    17   1    -0.01  -0.02   0.02     0.32   0.26   0.06     0.39   0.25   0.03
    18   1     0.00   0.01  -0.02    -0.09  -0.04  -0.02    -0.10  -0.09  -0.03
    19   6     0.00   0.00   0.01     0.02  -0.00   0.01    -0.02  -0.00   0.01
    20   1    -0.00  -0.02   0.01     0.03  -0.06   0.01     0.09  -0.06  -0.05
    21   1    -0.02   0.02  -0.00     0.09  -0.05  -0.08    -0.11   0.06   0.07
    22   6    -0.00   0.00  -0.01    -0.02  -0.00  -0.01    -0.02   0.00   0.01
    23   1     0.00  -0.02  -0.01    -0.03  -0.06  -0.01     0.09   0.06  -0.05
    24   1     0.02   0.02   0.00    -0.09  -0.05   0.08    -0.11  -0.06   0.07
    25   6    -0.01  -0.05  -0.09     0.04  -0.02  -0.00    -0.03   0.00   0.00
    26   1     0.09   0.38  -0.06    -0.09  -0.06   0.09     0.04   0.03  -0.04
    27   1    -0.10   0.18  -0.13    -0.03   0.14   0.09    -0.02   0.08   0.06
    28   1    -0.12  -0.34   0.34    -0.10  -0.04   0.03     0.04  -0.00   0.01
    29   6     0.01  -0.05   0.09    -0.04  -0.02   0.00    -0.03  -0.00   0.00
    30   1    -0.09   0.38   0.06     0.09  -0.06  -0.09     0.04  -0.03  -0.04
    31   1     0.10   0.18   0.13     0.03   0.14  -0.09    -0.02  -0.08   0.06
    32   1     0.12  -0.34  -0.34     0.10  -0.04  -0.03     0.04   0.00   0.01
                     46                     47                     48
                      A                      A                      A
 Frequencies --   1172.5160              1193.5950              1194.9982
 Red. masses --      1.1591                 1.1868                 1.1906
 Frc consts  --      0.9388                 0.9962                 1.0017
 IR Inten    --      1.8720                 0.1049                 1.7358
  Atom  AN      X      Y      Z        X      Y      Z        X      Y      Z
     1   6    -0.02   0.00   0.01     0.02  -0.02   0.00     0.03  -0.01   0.00
     2   6     0.03  -0.02  -0.05     0.03  -0.02   0.01     0.02  -0.02   0.01
     3   6     0.01  -0.00   0.01     0.01  -0.02   0.00    -0.01  -0.02   0.01
     4   6    -0.01   0.00   0.00    -0.03  -0.02   0.01    -0.03  -0.02   0.01
     5   6    -0.00  -0.01   0.00    -0.02  -0.03   0.01    -0.02  -0.03   0.01
     6   6     0.00   0.01  -0.00     0.00   0.05  -0.02    -0.00   0.05  -0.02
     7   1    -0.14   0.04  -0.04     0.20  -0.10   0.03     0.23  -0.11   0.03
     8   1    -0.09  -0.06   0.04    -0.24  -0.16   0.08    -0.23  -0.16   0.08
     9   1    -0.00   0.11  -0.06    -0.03   0.54  -0.19    -0.04   0.54  -0.20
    10   6     0.01   0.00   0.01     0.01   0.02   0.00     0.01  -0.02  -0.01
    11   6    -0.01  -0.00   0.00    -0.03   0.02   0.01     0.03  -0.02  -0.01
    12   6     0.03   0.02  -0.05     0.03   0.02   0.01    -0.02  -0.02  -0.01
    13   6    -0.00   0.01   0.00    -0.02   0.03   0.01     0.02  -0.03  -0.01
    14   6    -0.02  -0.00   0.01     0.02   0.02   0.00    -0.03  -0.01  -0.00
    15   6     0.00  -0.01  -0.00     0.00  -0.05  -0.02     0.00   0.05   0.02
    16   1    -0.09   0.06   0.04    -0.24   0.16   0.08     0.23  -0.16  -0.08
    17   1    -0.14  -0.04  -0.04     0.20   0.10   0.03    -0.23  -0.11  -0.03
    18   1    -0.00  -0.11  -0.06    -0.03  -0.54  -0.19     0.04   0.54   0.20
    19   6     0.00   0.01   0.04    -0.00   0.01  -0.01    -0.01   0.01   0.00
    20   1     0.40  -0.35  -0.17    -0.11   0.10   0.04    -0.04   0.04   0.02
    21   1    -0.28   0.20   0.11     0.01  -0.00  -0.01    -0.02   0.02  -0.00
    22   6     0.00  -0.01   0.04    -0.00  -0.01  -0.01     0.01   0.01  -0.00
    23   1     0.40   0.35  -0.17    -0.11  -0.10   0.04     0.04   0.04  -0.02
    24   1    -0.28  -0.20   0.11     0.01   0.00  -0.01     0.02   0.02   0.00
    25   6     0.01  -0.00  -0.00     0.01   0.01  -0.01     0.01   0.01  -0.01
    26   1    -0.02  -0.00   0.02     0.00   0.02   0.00    -0.01   0.01   0.01
    27   1     0.01  -0.03  -0.02     0.01  -0.04  -0.03    -0.01   0.04   0.02
    28   1    -0.02  -0.00   0.00    -0.01   0.02  -0.01    -0.01   0.01  -0.01
    29   6     0.01   0.00  -0.00     0.01  -0.01  -0.01    -0.01   0.01   0.01
    30   1    -0.02   0.00   0.02     0.00  -0.02   0.00     0.01   0.01  -0.01
    31   1     0.01   0.03  -0.02     0.01   0.04  -0.03     0.01   0.04  -0.02
    32   1    -0.02   0.00   0.00    -0.01  -0.02  -0.01     0.01   0.01   0.01
                     49                     50                     51
                      A                      A                      A
 Frequencies --   1211.1522              1252.8610              1256.4225
 Red. masses --      1.4762                 2.5303                 2.7489
 Frc consts  --      1.2758                 2.3401                 2.5567
 IR Inten    --      3.4874                 0.4281                 0.4324
  Atom  AN      X      Y      Z        X      Y      Z        X      Y      Z
     1   6     0.05   0.01  -0.01    -0.01   0.03  -0.00    -0.05   0.04  -0.00
     2   6    -0.05  -0.04   0.02    -0.11   0.14  -0.04    -0.11   0.18  -0.05
     3   6    -0.00   0.03  -0.01    -0.02  -0.04   0.00     0.04  -0.07   0.03
     4   6     0.04   0.04  -0.02    -0.06  -0.12   0.07    -0.01  -0.07   0.03
     5   6    -0.00   0.00   0.00    -0.00   0.00  -0.00    -0.02   0.03  -0.02
     6   6    -0.02   0.01  -0.00     0.08  -0.00  -0.00     0.08  -0.02   0.00
     7   1     0.25  -0.08   0.01     0.36  -0.15  -0.01     0.39  -0.17   0.00
     8   1    -0.02  -0.01  -0.01     0.08   0.04  -0.03    -0.20  -0.08   0.05
     9   1    -0.01  -0.07   0.03     0.09  -0.02  -0.00     0.09  -0.09   0.02
    10   6     0.00   0.03   0.01    -0.02   0.04   0.00    -0.04  -0.07  -0.03
    11   6    -0.04   0.04   0.02    -0.06   0.12   0.07     0.01  -0.07  -0.03
    12   6     0.05  -0.04  -0.02    -0.11  -0.14  -0.04     0.11   0.18   0.05
    13   6     0.00   0.00  -0.00    -0.00  -0.00  -0.00     0.02   0.03   0.02
    14   6    -0.05   0.01   0.01    -0.01  -0.03  -0.00     0.05   0.04   0.00
    15   6     0.02   0.01   0.00     0.08   0.00  -0.00    -0.08  -0.02  -0.00
    16   1     0.02  -0.01   0.01     0.08  -0.04  -0.03     0.20  -0.08  -0.05
    17   1    -0.25  -0.08  -0.01     0.36   0.15  -0.01    -0.39  -0.17  -0.00
    18   1     0.01  -0.07  -0.03     0.09   0.02  -0.00    -0.09  -0.09  -0.02
    19   6    -0.05   0.01   0.08     0.00  -0.01   0.04     0.03  -0.06   0.00
    20   1    -0.14   0.01   0.13     0.27  -0.20  -0.10     0.26  -0.21  -0.12
    21   1     0.44  -0.32  -0.24     0.25  -0.18  -0.13     0.12  -0.13   0.01
    22   6     0.05   0.01  -0.08     0.00   0.01   0.04    -0.03  -0.06  -0.00
    23   1     0.14   0.01  -0.13     0.27   0.20  -0.10    -0.26  -0.21   0.12
    24   1    -0.44  -0.32   0.24     0.25   0.18  -0.13    -0.12  -0.13  -0.01
    25   6    -0.02  -0.02   0.01     0.02   0.04  -0.02    -0.01   0.03  -0.01
    26   1    -0.00  -0.01   0.00     0.05   0.07  -0.05     0.05   0.04  -0.05
    27   1     0.01  -0.06  -0.04     0.02  -0.08  -0.05     0.00   0.01   0.00
    28   1     0.00  -0.03   0.02     0.04   0.06  -0.05     0.06   0.04  -0.03
    29   6     0.02  -0.02  -0.01     0.02  -0.04  -0.02     0.01   0.03   0.01
    30   1     0.00  -0.01  -0.00     0.05  -0.07  -0.05    -0.05   0.04   0.05
    31   1    -0.01  -0.06   0.04     0.02   0.08  -0.05    -0.00   0.01  -0.00
    32   1    -0.00  -0.03  -0.02     0.04  -0.06  -0.05    -0.06   0.04   0.03
                     52                     53                     54
                      A                      A                      A
 Frequencies --   1261.6573              1278.5536              1280.2220
 Red. masses --      3.1888                 2.2443                 1.7878
 Frc consts  --      2.9906                 2.1616                 1.7264
 IR Inten    --      6.2614                 0.0863                 0.4741
  Atom  AN      X      Y      Z        X      Y      Z        X      Y      Z
     1   6    -0.02  -0.06   0.02     0.01   0.02  -0.01     0.01   0.03  -0.01
     2   6     0.03   0.02  -0.00    -0.01   0.03  -0.01    -0.08  -0.04   0.01
     3   6     0.19   0.10  -0.05    -0.13   0.02  -0.01     0.01  -0.05   0.01
     4   6    -0.01  -0.15   0.07    -0.15  -0.05   0.04     0.12   0.05  -0.03
     5   6    -0.09  -0.02   0.02     0.05  -0.04   0.01    -0.01   0.03  -0.01
     6   6     0.05   0.04  -0.02     0.04  -0.02   0.00    -0.02   0.02  -0.00
     7   1    -0.43   0.13  -0.00     0.08  -0.01  -0.01     0.33  -0.12   0.02
     8   1     0.09   0.07  -0.06     0.51   0.23  -0.13    -0.41  -0.21   0.11
     9   1     0.04   0.13  -0.05     0.03   0.11  -0.04    -0.01  -0.19   0.07
    10   6    -0.19   0.10   0.05     0.13   0.02   0.01     0.01   0.05   0.01
    11   6     0.01  -0.15  -0.07     0.15  -0.05  -0.04     0.12  -0.05  -0.03
    12   6    -0.03   0.02   0.00     0.01   0.03   0.01    -0.08   0.04   0.01
    13   6     0.09  -0.02  -0.02    -0.05  -0.04  -0.01    -0.01  -0.03  -0.01
    14   6     0.02  -0.06  -0.02    -0.01   0.02   0.01     0.01  -0.03  -0.01
    15   6    -0.05   0.04   0.02    -0.04  -0.02  -0.00    -0.02  -0.02  -0.00
    16   1    -0.09   0.07   0.06    -0.52   0.23   0.13    -0.41   0.21   0.11
    17   1     0.43   0.13   0.00    -0.08  -0.01   0.01     0.33   0.12   0.02
    18   1    -0.04   0.13   0.05    -0.03   0.11   0.04    -0.01   0.19   0.07
    19   6    -0.03   0.00   0.04    -0.01  -0.01   0.02     0.00   0.04   0.01
    20   1    -0.07   0.02   0.06    -0.04   0.01   0.04     0.10  -0.12  -0.04
    21   1     0.25  -0.19  -0.12     0.14  -0.11  -0.05     0.05   0.01  -0.08
    22   6     0.03   0.00  -0.04     0.01  -0.01  -0.02     0.00  -0.04   0.01
    23   1     0.07   0.02  -0.06     0.04   0.01  -0.04     0.10   0.12  -0.04
    24   1    -0.25  -0.19   0.12    -0.14  -0.11   0.05     0.05  -0.01  -0.08
    25   6     0.01   0.04  -0.02     0.05   0.02  -0.02    -0.04  -0.02   0.01
    26   1     0.08   0.09  -0.07    -0.04   0.02   0.04     0.02  -0.02  -0.03
    27   1    -0.02   0.08   0.02    -0.03   0.15   0.13    -0.03   0.13   0.11
    28   1     0.09   0.07  -0.06    -0.08   0.03  -0.03     0.06  -0.04   0.04
    29   6    -0.01   0.04   0.02    -0.05   0.02   0.02    -0.04   0.02   0.01
    30   1    -0.08   0.09   0.07     0.04   0.02  -0.04     0.02   0.02  -0.03
    31   1     0.02   0.08  -0.02     0.03   0.15  -0.13    -0.03  -0.13   0.11
    32   1    -0.09   0.07   0.06     0.08   0.03   0.03     0.06   0.04   0.04
                     55                     56                     57
                      A                      A                      A
 Frequencies --   1336.7864              1337.5130              1360.0274
 Red. masses --      1.8110                 5.5730                 2.7369
 Frc consts  --      1.9067                 5.8740                 2.9826
 IR Inten    --      2.7192                 0.1102                 1.2785
  Atom  AN      X      Y      Z        X      Y      Z        X      Y      Z
     1   6     0.06  -0.01   0.00    -0.16   0.07  -0.01    -0.05   0.01   0.01
     2   6    -0.07  -0.07   0.00     0.12   0.11  -0.03     0.12   0.01  -0.03
     3   6    -0.05   0.06  -0.02     0.02  -0.22   0.06     0.07  -0.07   0.03
     4   6     0.04  -0.03   0.02    -0.12   0.11  -0.05    -0.07   0.07  -0.03
     5   6    -0.03  -0.03   0.02     0.15   0.10  -0.06     0.05   0.04  -0.03
     6   6     0.00   0.05  -0.02    -0.00  -0.14   0.05    -0.02  -0.08   0.03
     7   1     0.06  -0.01   0.01     0.23  -0.13  -0.03    -0.16   0.04  -0.04
     8   1     0.09   0.03  -0.04    -0.26  -0.12   0.13    -0.03   0.01   0.03
     9   1     0.01  -0.05   0.02    -0.01  -0.01   0.00    -0.04   0.16  -0.06
    10   6     0.05   0.06   0.02     0.02   0.22   0.06    -0.07  -0.07  -0.03
    11   6    -0.04  -0.03  -0.02    -0.12  -0.11  -0.05     0.07   0.07   0.03
    12   6     0.07  -0.07  -0.00     0.12  -0.11  -0.03    -0.12   0.01   0.03
    13   6     0.03  -0.03  -0.02     0.15  -0.10  -0.06    -0.05   0.04   0.03
    14   6    -0.06  -0.01  -0.00    -0.16  -0.07  -0.01     0.05   0.01  -0.01
    15   6    -0.00   0.05   0.02    -0.00   0.14   0.05     0.02  -0.08  -0.03
    16   1    -0.09   0.03   0.04    -0.26   0.12   0.13     0.03   0.01  -0.03
    17   1    -0.06  -0.01  -0.01     0.23   0.13  -0.03     0.16   0.04   0.04
    18   1    -0.01  -0.05  -0.02    -0.01   0.01   0.00     0.04   0.16   0.06
    19   6    -0.09   0.04  -0.01     0.02  -0.07  -0.02    -0.14   0.05   0.03
    20   1     0.50  -0.26  -0.32    -0.14   0.15   0.06     0.41  -0.13  -0.25
    21   1    -0.10   0.05   0.07    -0.11   0.02   0.17     0.22  -0.19  -0.08
    22   6     0.09   0.04   0.01     0.02   0.07  -0.02     0.14   0.05  -0.03
    23   1    -0.50  -0.26   0.32    -0.14  -0.15   0.06    -0.41  -0.13   0.25
    24   1     0.10   0.05  -0.07    -0.11  -0.02   0.17    -0.22  -0.19   0.08
    25   6    -0.00   0.01  -0.01     0.02  -0.03   0.02     0.01  -0.02   0.01
    26   1     0.02   0.02  -0.02    -0.10  -0.06   0.09    -0.05  -0.03   0.05
    27   1    -0.00  -0.02  -0.03    -0.00  -0.02  -0.05     0.00   0.02   0.04
    28   1     0.03  -0.00   0.01    -0.13  -0.01  -0.01    -0.09  -0.01  -0.00
    29   6     0.00   0.01   0.01     0.02   0.03   0.02    -0.01  -0.02  -0.01
    30   1    -0.02   0.02   0.02    -0.10   0.06   0.09     0.05  -0.03  -0.05
    31   1     0.00  -0.02   0.03    -0.00   0.02  -0.05    -0.00   0.02  -0.04
    32   1    -0.03  -0.00  -0.01    -0.13   0.01  -0.01     0.09  -0.01   0.00
                     58                     59                     60
                      A                      A                      A
 Frequencies --   1379.6854              1422.6384              1426.6713
 Red. masses --      1.7390                 1.2387                 1.2493
 Frc consts  --      1.9503                 1.4771                 1.4982
 IR Inten    --      3.8760                 0.8879                 2.6410
  Atom  AN      X      Y      Z        X      Y      Z        X      Y      Z
     1   6     0.01   0.00   0.00    -0.00   0.00  -0.00    -0.00   0.00  -0.00
     2   6     0.05  -0.04   0.00    -0.00  -0.01   0.00    -0.00  -0.01   0.00
     3   6     0.02  -0.02   0.01    -0.00   0.00   0.00     0.00   0.00   0.00
     4   6    -0.04   0.05  -0.02     0.00   0.01  -0.01     0.00   0.02  -0.01
     5   6     0.02   0.00  -0.00     0.01  -0.00   0.00     0.01  -0.00   0.00
     6   6    -0.02  -0.03   0.01    -0.00  -0.00   0.00    -0.00  -0.00   0.00
     7   1    -0.11   0.06  -0.02     0.02  -0.01   0.00     0.02  -0.01   0.00
     8   1     0.07   0.04  -0.01    -0.01  -0.01   0.01     0.00  -0.01   0.00
     9   1    -0.03   0.12  -0.04    -0.00  -0.02   0.01    -0.00  -0.02   0.01
    10   6     0.02   0.02   0.01     0.00   0.00  -0.00     0.00  -0.00   0.00
    11   6    -0.04  -0.05  -0.02    -0.00   0.01   0.01     0.00  -0.02  -0.01
    12   6     0.05   0.04   0.00     0.00  -0.01  -0.00    -0.00   0.01   0.00
    13   6     0.02  -0.00  -0.00    -0.01  -0.00  -0.00     0.01   0.00   0.00
    14   6     0.01  -0.00   0.00     0.00   0.00   0.00    -0.00  -0.00  -0.00
    15   6    -0.02   0.03   0.01     0.00  -0.00  -0.00    -0.00   0.00   0.00
    16   1     0.07  -0.04  -0.01     0.01  -0.01  -0.01     0.00   0.01   0.00
    17   1    -0.11  -0.06  -0.02    -0.02  -0.01  -0.00     0.02   0.01   0.00
    18   1    -0.03  -0.12  -0.04     0.00  -0.02  -0.01    -0.00   0.02   0.01
    19   6    -0.09   0.11   0.03    -0.00   0.00  -0.00    -0.00   0.01   0.00
    20   1     0.19  -0.10  -0.12     0.01   0.00  -0.00     0.00  -0.01  -0.00
    21   1     0.45  -0.24  -0.32    -0.01   0.01   0.00     0.01  -0.00  -0.01
    22   6    -0.09  -0.11   0.03     0.00   0.00   0.00    -0.00  -0.01   0.00
    23   1     0.19   0.10  -0.12    -0.01   0.00   0.00     0.00   0.01  -0.00
    24   1     0.45   0.24  -0.32     0.01   0.01  -0.00     0.01   0.00  -0.01
    25   6     0.01  -0.01   0.00    -0.03  -0.08   0.04    -0.03  -0.09   0.05
    26   1    -0.05  -0.03   0.04     0.18   0.33  -0.02     0.21   0.37  -0.03
    27   1     0.00   0.02  -0.01    -0.00   0.39   0.08    -0.02  -0.34  -0.14
    28   1    -0.07  -0.02   0.01     0.16   0.21  -0.34     0.08   0.21  -0.35
    29   6     0.01   0.01   0.00     0.03  -0.08  -0.04    -0.03   0.09   0.05
    30   1    -0.05   0.03   0.04    -0.18   0.33   0.02     0.21  -0.37  -0.03
    31   1     0.00  -0.02  -0.01     0.00   0.39  -0.08    -0.02   0.34  -0.14
    32   1    -0.07   0.02   0.01    -0.16   0.21   0.34     0.08  -0.21  -0.35
                     61                     62                     63
                      A                      A                      A
 Frequencies --   1459.9256              1477.3340              1490.6999
 Red. masses --      2.0737                 2.4972                 1.0914
 Frc consts  --      2.6040                 3.2112                 1.4289
 IR Inten    --      1.6482                 1.7113                 4.1325
  Atom  AN      X      Y      Z        X      Y      Z        X      Y      Z
     1   6     0.03  -0.04   0.01     0.10  -0.04   0.00     0.00   0.01  -0.00
     2   6     0.07   0.10  -0.03     0.01   0.11  -0.03     0.00   0.01  -0.00
     3   6    -0.08  -0.03   0.01    -0.13  -0.04   0.02    -0.00  -0.00   0.00
     4   6     0.09  -0.06   0.02     0.11  -0.01  -0.00     0.01   0.00  -0.00
     5   6    -0.00   0.05  -0.02    -0.06   0.02  -0.00    -0.01   0.01  -0.00
     6   6    -0.04  -0.03   0.01    -0.03  -0.05   0.02     0.00  -0.02   0.01
     7   1    -0.32   0.12  -0.02    -0.39   0.20  -0.03    -0.03   0.02  -0.00
     8   1    -0.22  -0.07   0.04    -0.00   0.06  -0.04     0.01   0.02  -0.01
     9   1    -0.06   0.09  -0.03    -0.06   0.28  -0.10    -0.00   0.06  -0.02
    10   6    -0.08   0.03   0.01     0.13  -0.04  -0.02    -0.00   0.00   0.00
    11   6     0.09   0.06   0.02    -0.11  -0.01   0.00     0.01  -0.00  -0.00
    12   6     0.07  -0.10  -0.03    -0.01   0.11   0.03     0.00  -0.01  -0.00
    13   6    -0.00  -0.05  -0.02     0.06   0.02   0.00    -0.01  -0.01  -0.00
    14   6     0.03   0.04   0.01    -0.10  -0.04  -0.00     0.00  -0.01  -0.00
    15   6    -0.04   0.03   0.01     0.03  -0.05  -0.02     0.00   0.02   0.01
    16   1    -0.22   0.07   0.04     0.00   0.06   0.04     0.01  -0.02  -0.01
    17   1    -0.32  -0.12  -0.02     0.39   0.20   0.03    -0.03  -0.02  -0.00
    18   1    -0.06  -0.09  -0.03     0.06   0.28   0.10    -0.00  -0.06  -0.02
    19   6    -0.02  -0.04   0.02    -0.01  -0.02   0.02     0.00   0.04  -0.04
    20   1     0.11   0.19  -0.05     0.03   0.01  -0.00    -0.21  -0.37   0.08
    21   1     0.03  -0.05  -0.19     0.10  -0.10  -0.05     0.17  -0.12   0.39
    22   6    -0.02   0.04   0.02     0.01  -0.02  -0.02     0.00  -0.04  -0.04
    23   1     0.11  -0.19  -0.05    -0.03   0.01   0.00    -0.21   0.37   0.08
    24   1     0.03   0.05  -0.19    -0.10  -0.10   0.05     0.17   0.12   0.39
    25   6    -0.05   0.01  -0.00    -0.04   0.00   0.00    -0.02  -0.00  -0.00
    26   1     0.10  -0.11  -0.13     0.11  -0.12  -0.12     0.01  -0.14  -0.05
    27   1     0.01  -0.18   0.06     0.01   0.09  -0.03     0.03  -0.16   0.05
    28   1     0.32  -0.02   0.04     0.24  -0.05   0.09     0.22  -0.04   0.05
    29   6    -0.05  -0.01  -0.00     0.04   0.00  -0.00    -0.02   0.00  -0.00
    30   1     0.10   0.11  -0.13    -0.11  -0.12   0.12     0.01   0.14  -0.05
    31   1     0.01   0.18   0.06    -0.01   0.09   0.03     0.03   0.16   0.05
    32   1     0.32   0.02   0.04    -0.24  -0.05  -0.09     0.22   0.04   0.05
                     64                     65                     66
                      A                      A                      A
 Frequencies --   1492.7378              1497.4853              1503.3880
 Red. masses --      1.3007                 1.3670                 1.3048
 Frc consts  --      1.7076                 1.8062                 1.7376
 IR Inten    --      1.2526                11.2229                21.5417
  Atom  AN      X      Y      Z        X      Y      Z        X      Y      Z
     1   6    -0.03  -0.01   0.01     0.03   0.01  -0.01    -0.01   0.04  -0.01
     2   6     0.04   0.00   0.00    -0.05   0.01   0.00    -0.04  -0.04   0.01
     3   6    -0.04   0.02  -0.01     0.04  -0.03   0.01     0.04  -0.01   0.00
     4   6    -0.00  -0.04   0.02     0.01   0.04  -0.03    -0.03   0.05  -0.02
     5   6     0.04   0.01  -0.01    -0.05  -0.02   0.01    -0.03  -0.02   0.01
     6   6    -0.01   0.03  -0.01     0.02  -0.03   0.01     0.03  -0.03   0.01
     7   1     0.03  -0.05   0.00    -0.02   0.04  -0.01     0.12  -0.02  -0.00
     8   1    -0.14  -0.10   0.05     0.17   0.12  -0.07     0.16   0.09  -0.05
     9   1    -0.00  -0.14   0.05     0.01   0.13  -0.05     0.03   0.08  -0.03
    10   6     0.04   0.02   0.01    -0.04  -0.03  -0.01     0.04   0.01   0.00
    11   6     0.00  -0.04  -0.02    -0.01   0.04   0.03    -0.03  -0.05  -0.02
    12   6    -0.04   0.00  -0.00     0.05   0.01  -0.00    -0.04   0.04   0.01
    13   6    -0.04   0.01   0.01     0.05  -0.02  -0.01    -0.03   0.02   0.01
    14   6     0.03  -0.01  -0.01    -0.03   0.01   0.01    -0.01  -0.04  -0.01
    15   6     0.01   0.03   0.01    -0.02  -0.03  -0.01     0.03   0.03   0.01
    16   1     0.14  -0.10  -0.05    -0.17   0.12   0.07     0.16  -0.09  -0.05
    17   1    -0.03  -0.05  -0.00     0.02   0.04   0.01     0.12   0.02  -0.00
    18   1     0.00  -0.14  -0.05    -0.01   0.13   0.05     0.03  -0.08  -0.03
    19   6    -0.01  -0.04   0.04     0.01  -0.04   0.02     0.01  -0.01   0.02
    20   1     0.19   0.39  -0.08     0.14   0.27  -0.05     0.10   0.17  -0.03
    21   1    -0.12   0.07  -0.41    -0.14   0.10  -0.28    -0.12   0.10  -0.18
    22   6     0.01  -0.04  -0.04    -0.01  -0.04  -0.02     0.01   0.01   0.02
    23   1    -0.19   0.39   0.08    -0.14   0.27   0.05     0.10  -0.17  -0.03
    24   1     0.12   0.07   0.41     0.14   0.10   0.28    -0.12  -0.10  -0.18
    25   6    -0.01   0.01   0.00     0.01  -0.02  -0.02    -0.02  -0.01  -0.00
    26   1     0.11  -0.06  -0.10    -0.24   0.11   0.20    -0.03  -0.27  -0.04
    27   1     0.03   0.04   0.10    -0.09  -0.07  -0.25     0.07  -0.30   0.12
    28   1     0.05  -0.03   0.06    -0.06   0.08  -0.13     0.37  -0.07   0.09
    29   6     0.01   0.01  -0.00    -0.01  -0.02   0.02    -0.02   0.01  -0.00
    30   1    -0.11  -0.06   0.10     0.24   0.11  -0.20    -0.03   0.27  -0.04
    31   1    -0.03   0.04  -0.10     0.09  -0.07   0.25     0.07   0.30   0.12
    32   1    -0.05  -0.03  -0.06     0.06   0.08   0.13     0.37   0.07   0.09
                     67                     68                     69
                      A                      A                      A
 Frequencies --   1507.7432              1515.2859              1517.3209
 Red. masses --      1.3266                 1.2022                 1.8630
 Frc consts  --      1.7769                 1.6263                 2.5270
 IR Inten    --      5.8287                 5.0854                10.2676
  Atom  AN      X      Y      Z        X      Y      Z        X      Y      Z
     1   6     0.01   0.02  -0.01     0.03   0.00  -0.00    -0.05  -0.03   0.01
     2   6    -0.05  -0.02   0.01    -0.03   0.03  -0.00     0.07  -0.03   0.00
     3   6     0.05  -0.01   0.01    -0.00  -0.03   0.01    -0.01   0.06  -0.01
     4   6     0.00   0.05  -0.01     0.03   0.01  -0.02    -0.06  -0.05   0.02
     5   6    -0.04  -0.02   0.01    -0.03   0.00   0.00     0.07  -0.01  -0.00
     6   6     0.02  -0.03   0.01     0.00  -0.03   0.01    -0.02   0.10  -0.03
     7   1     0.03   0.02  -0.01    -0.07   0.06  -0.01     0.10  -0.12   0.03
     8   1     0.14   0.09  -0.05     0.06   0.07  -0.04    -0.16  -0.16   0.08
     9   1     0.01   0.13  -0.05    -0.01   0.13  -0.05     0.01  -0.32   0.11
    10   6    -0.05  -0.01  -0.01    -0.00   0.03   0.01    -0.01  -0.06  -0.01
    11   6    -0.00   0.05   0.01     0.03  -0.01  -0.02    -0.06   0.05   0.02
    12   6     0.05  -0.02  -0.01    -0.03  -0.03  -0.00     0.07   0.03   0.00
    13   6     0.04  -0.02  -0.01    -0.03  -0.00   0.00     0.07   0.01  -0.00
    14   6    -0.01   0.02   0.01     0.03  -0.00  -0.00    -0.05   0.03   0.01
    15   6    -0.02  -0.03  -0.01     0.00   0.03   0.01    -0.02  -0.10  -0.03
    16   1    -0.14   0.09   0.05     0.06  -0.07  -0.04    -0.16   0.16   0.08
    17   1    -0.03   0.02   0.01    -0.07  -0.06  -0.01     0.10   0.12   0.03
    18   1    -0.01   0.13   0.05    -0.01  -0.13  -0.05     0.01   0.32   0.11
    19   6     0.01  -0.01   0.00     0.01  -0.01  -0.00    -0.02   0.01   0.00
    20   1     0.03   0.06  -0.01    -0.01  -0.01   0.01     0.00   0.02  -0.01
    21   1    -0.07   0.06  -0.06    -0.01   0.00   0.03     0.04  -0.03  -0.03
    22   6    -0.01  -0.01  -0.00     0.01   0.01  -0.00    -0.02  -0.01   0.00
    23   1    -0.03   0.06   0.01    -0.01   0.01   0.01     0.00  -0.02  -0.01
    24   1     0.07   0.06   0.06    -0.01  -0.00   0.03     0.04   0.03  -0.03
    25   6    -0.00  -0.00   0.04     0.01  -0.02  -0.03     0.01   0.00  -0.03
    26   1     0.32  -0.04  -0.21    -0.33   0.18   0.26    -0.22  -0.02   0.14
    27   1     0.16  -0.06   0.43     0.14   0.05   0.40     0.14  -0.16   0.30
    28   1    -0.18  -0.08   0.13    -0.00   0.13  -0.21     0.21   0.06  -0.10
    29   6     0.00  -0.00  -0.04     0.01   0.02  -0.03     0.01  -0.00  -0.03
    30   1    -0.32  -0.04   0.21    -0.33  -0.18   0.26    -0.22   0.02   0.14
    31   1    -0.16  -0.06  -0.43     0.14  -0.05   0.40     0.14   0.16   0.30
    32   1     0.18  -0.08  -0.13    -0.00  -0.13  -0.21     0.21  -0.06  -0.10
                     70                     71                     72
                      A                      A                      A
 Frequencies --   1523.9783              1618.5174              1636.7000
 Red. masses --      1.1948                 5.5831                 6.8450
 Frc consts  --      1.6350                 8.6171                10.8034
 IR Inten    --      2.8233                 2.8268                 1.2531
  Atom  AN      X      Y      Z        X      Y      Z        X      Y      Z
     1   6    -0.03   0.03  -0.01     0.08  -0.14   0.04    -0.12   0.15  -0.04
     2   6    -0.01  -0.03   0.01     0.01   0.11  -0.03     0.03  -0.15   0.04
     3   6     0.04   0.01  -0.00     0.05  -0.15   0.06    -0.04   0.24  -0.07
     4   6    -0.03   0.02  -0.01    -0.09   0.13  -0.06     0.07  -0.16   0.07
     5   6    -0.01  -0.01   0.01    -0.03  -0.15   0.06     0.05   0.15  -0.07
     6   6     0.02  -0.02   0.01    -0.02   0.27  -0.10     0.03  -0.26   0.09
     7   1     0.10  -0.03  -0.00    -0.16  -0.04   0.03     0.22  -0.00  -0.02
     8   1     0.08   0.05  -0.03     0.16  -0.05   0.01    -0.19   0.02   0.01
     9   1     0.02   0.04  -0.02     0.02  -0.37   0.14    -0.01   0.31  -0.11
    10   6    -0.04   0.01   0.00    -0.05  -0.15  -0.06    -0.04  -0.24  -0.07
    11   6     0.03   0.02   0.01     0.09   0.13   0.06     0.07   0.16   0.07
    12   6     0.01  -0.03  -0.01    -0.01   0.11   0.03     0.03   0.15   0.04
    13   6     0.01  -0.01  -0.01     0.03  -0.15  -0.06     0.05  -0.15  -0.07
    14   6     0.03   0.03   0.01    -0.08  -0.14  -0.04    -0.12  -0.15  -0.04
    15   6    -0.02  -0.02  -0.01     0.02   0.27   0.10     0.03   0.26   0.09
    16   1    -0.08   0.05   0.03    -0.16  -0.05  -0.01    -0.19  -0.02   0.01
    17   1    -0.10  -0.03   0.00     0.16  -0.04  -0.03     0.22   0.00  -0.02
    18   1    -0.02   0.04   0.02    -0.02  -0.37  -0.14    -0.01  -0.31  -0.11
    19   6     0.01   0.00  -0.00    -0.01  -0.01   0.01    -0.01   0.02   0.00
    20   1     0.00   0.01  -0.00     0.01  -0.01  -0.00     0.02   0.03  -0.01
    21   1    -0.04   0.04  -0.00     0.06  -0.05  -0.00    -0.02   0.03  -0.07
    22   6    -0.01   0.00   0.00     0.01  -0.01  -0.01    -0.01  -0.02   0.00
    23   1    -0.00   0.01   0.00    -0.01  -0.01   0.00     0.02  -0.03  -0.01
    24   1     0.04   0.04   0.00    -0.06  -0.05   0.00    -0.02  -0.03  -0.07
    25   6    -0.03   0.00  -0.01     0.01  -0.01   0.01    -0.00   0.02  -0.01
    26   1    -0.02  -0.34  -0.08     0.02  -0.16  -0.03    -0.01   0.11   0.02
    27   1    -0.07   0.31  -0.12    -0.01   0.15   0.07     0.00   0.09   0.06
    28   1     0.44  -0.11   0.16     0.09  -0.06   0.09    -0.04   0.05  -0.06
    29   6     0.03   0.00   0.01    -0.01  -0.01  -0.01    -0.00  -0.02  -0.01
    30   1     0.02  -0.34   0.08    -0.02  -0.16   0.03    -0.01  -0.11   0.02
    31   1     0.07   0.31   0.12     0.01   0.15  -0.07     0.00  -0.09   0.06
    32   1    -0.44  -0.11  -0.16    -0.09  -0.06  -0.09    -0.04  -0.05  -0.06
                     73                     74                     75
                      A                      A                      A
 Frequencies --   1648.3020              1651.8924              3017.6568
 Red. masses --      5.5828                 5.7947                 1.0690
 Frc consts  --      8.9367                 9.3163                 5.7356
 IR Inten    --      0.0005                 2.2268                19.3932
  Atom  AN      X      Y      Z        X      Y      Z        X      Y      Z
     1   6    -0.23   0.05   0.00     0.23  -0.05  -0.00     0.00  -0.00  -0.00
     2   6     0.21   0.01  -0.02    -0.22  -0.03   0.02    -0.00  -0.00  -0.00
     3   6    -0.10  -0.02   0.01     0.09   0.02  -0.01    -0.00  -0.00   0.00
     4   6     0.16   0.02  -0.02    -0.17  -0.02   0.02     0.00  -0.00  -0.00
     5   6    -0.20  -0.10   0.06     0.21   0.11  -0.06    -0.00  -0.00   0.00
     6   6     0.11   0.04  -0.03    -0.12  -0.05   0.03    -0.00   0.00  -0.00
     7   1     0.28  -0.20   0.03    -0.26   0.20  -0.03     0.00   0.00  -0.00
     8   1     0.27   0.17  -0.11    -0.27  -0.17   0.11     0.00  -0.00   0.00
     9   1     0.14  -0.06   0.01    -0.14   0.06  -0.01     0.00   0.00  -0.00
    10   6     0.10  -0.02  -0.01     0.09  -0.02  -0.01     0.00  -0.00  -0.00
    11   6    -0.16   0.02   0.02    -0.17   0.02   0.02    -0.00  -0.00   0.00
    12   6    -0.21   0.01   0.02    -0.22   0.03   0.02     0.00  -0.00   0.00
    13   6     0.20  -0.10  -0.06     0.21  -0.11  -0.06     0.00  -0.00  -0.00
    14   6     0.23   0.05  -0.00     0.23   0.05  -0.00    -0.00  -0.00   0.00
    15   6    -0.11   0.04   0.03    -0.12   0.05   0.03     0.00   0.00   0.00
    16   1    -0.27   0.17   0.11    -0.27   0.17   0.11    -0.00  -0.00  -0.00
    17   1    -0.28  -0.20  -0.03    -0.26  -0.20  -0.03    -0.00   0.00   0.00
    18   1    -0.14  -0.06  -0.01    -0.14  -0.06  -0.01    -0.00   0.00   0.00
    19   6    -0.03   0.01   0.00     0.03  -0.01  -0.00    -0.02   0.01  -0.05
    20   1    -0.04   0.02   0.01     0.02  -0.02   0.00     0.32  -0.00   0.60
    21   1     0.09  -0.07   0.00    -0.09   0.08  -0.00    -0.11  -0.14  -0.02
    22   6     0.03   0.01  -0.00     0.03   0.01  -0.00     0.02   0.01   0.05
    23   1     0.04   0.02  -0.01     0.02   0.02   0.00    -0.32  -0.00  -0.60
    24   1    -0.09  -0.07  -0.00    -0.09  -0.08  -0.00     0.11  -0.14   0.02
    25   6    -0.01  -0.01   0.00     0.01   0.00  -0.01    -0.00   0.00  -0.00
    26   1     0.02   0.07  -0.00    -0.03  -0.07   0.01     0.00  -0.00   0.00
    27   1     0.02  -0.10  -0.02     0.02  -0.10  -0.01     0.00   0.00  -0.00
    28   1    -0.05   0.01  -0.02     0.05  -0.01   0.02     0.00  -0.00  -0.00
    29   6     0.01  -0.01  -0.00     0.01  -0.00  -0.01     0.00   0.00   0.00
    30   1    -0.02   0.07   0.00    -0.03   0.07   0.01    -0.00  -0.00  -0.00
    31   1    -0.02  -0.10   0.02     0.02   0.10  -0.01    -0.00   0.00   0.00
    32   1     0.05   0.01   0.02     0.05   0.01   0.02    -0.00  -0.00   0.00
                     76                     77                     78
                      A                      A                      A
 Frequencies --   3026.0528              3045.4981              3048.9000
 Red. masses --      1.0641                 1.0393                 1.0389
 Frc consts  --      5.7408                 5.6793                 5.6898
 IR Inten    --     37.4491                 6.8141                43.8599
  Atom  AN      X      Y      Z        X      Y      Z        X      Y      Z
     1   6     0.00  -0.00   0.00     0.00  -0.00   0.00    -0.00   0.00   0.00
     2   6    -0.00   0.00  -0.00    -0.00   0.00  -0.00     0.00   0.00   0.00
     3   6    -0.00  -0.00   0.00     0.00  -0.00   0.00    -0.00   0.00  -0.00
     4   6     0.00   0.00  -0.00    -0.00  -0.00   0.00     0.00   0.00   0.00
     5   6    -0.00  -0.00   0.00    -0.00  -0.00   0.00    -0.00   0.00  -0.00
     6   6    -0.00   0.00  -0.00     0.00   0.00  -0.00    -0.00  -0.00   0.00
     7   1     0.00   0.01  -0.00    -0.00  -0.00   0.00     0.00   0.00  -0.00
     8   1     0.00  -0.00   0.00    -0.01   0.01  -0.00     0.01  -0.01   0.00
     9   1    -0.00   0.00   0.00     0.00   0.00  -0.00    -0.00  -0.00   0.00
    10   6    -0.00   0.00   0.00     0.00   0.00   0.00     0.00   0.00   0.00
    11   6     0.00  -0.00  -0.00    -0.00   0.00   0.00    -0.00   0.00  -0.00
    12   6    -0.00  -0.00  -0.00    -0.00  -0.00  -0.00    -0.00   0.00  -0.00
    13   6    -0.00   0.00   0.00    -0.00   0.00   0.00     0.00   0.00   0.00
    14   6     0.00   0.00   0.00     0.00   0.00   0.00     0.00   0.00  -0.00
    15   6    -0.00  -0.00  -0.00     0.00  -0.00  -0.00     0.00  -0.00  -0.00
    16   1     0.00   0.00   0.00    -0.01  -0.01  -0.00    -0.01  -0.01  -0.00
    17   1     0.00  -0.01  -0.00    -0.00   0.00   0.00    -0.00   0.00   0.00
    18   1    -0.00  -0.00   0.00     0.00  -0.00  -0.00     0.00  -0.00  -0.00
    19   6    -0.01   0.02  -0.05     0.00  -0.00   0.00    -0.00  -0.00  -0.00
    20   1     0.30   0.00   0.56    -0.00   0.00  -0.00     0.00  -0.00   0.01
    21   1    -0.17  -0.24  -0.03     0.00   0.00   0.00     0.00   0.00   0.00
    22   6    -0.01  -0.02  -0.05     0.00   0.00   0.00     0.00  -0.00   0.00
    23   1     0.30  -0.00   0.56    -0.00  -0.00  -0.00    -0.00  -0.00  -0.01
    24   1    -0.17   0.24  -0.03     0.00  -0.00   0.00    -0.00   0.00  -0.00
    25   6     0.00   0.00   0.00     0.00   0.04  -0.01     0.00  -0.03   0.01
    26   1     0.00   0.00   0.00     0.23  -0.07   0.33    -0.25   0.07  -0.36
    27   1    -0.00  -0.00   0.00    -0.26  -0.05   0.08    -0.26  -0.05   0.08
    28   1     0.00  -0.00  -0.00     0.01  -0.41  -0.30    -0.01   0.38   0.28
    29   6     0.00  -0.00   0.00     0.00  -0.04  -0.01    -0.00  -0.03  -0.01
    30   1     0.00  -0.00   0.00     0.23   0.07   0.33     0.25   0.07   0.36
    31   1    -0.00   0.00   0.00    -0.26   0.05   0.08     0.26  -0.05  -0.08
    32   1     0.00   0.00  -0.00     0.01   0.41  -0.30     0.01   0.38  -0.28
                     79                     80                     81
                      A                      A                      A
 Frequencies --   3088.2981              3088.7366              3098.2891
 Red. masses --      1.1003                 1.0937                 1.1008
 Frc consts  --      6.1828                 6.1475                 6.2259
 IR Inten    --     24.1005                38.5493                38.5898
  Atom  AN      X      Y      Z        X      Y      Z        X      Y      Z
     1   6     0.00   0.00  -0.00     0.00   0.00  -0.00     0.00  -0.00   0.00
     2   6    -0.00  -0.00  -0.00    -0.00   0.00  -0.00    -0.00  -0.00   0.00
     3   6    -0.00   0.00  -0.00    -0.00   0.00  -0.00    -0.00  -0.00  -0.00
     4   6    -0.00   0.00  -0.00    -0.00   0.00  -0.00    -0.00  -0.00  -0.00
     5   6     0.00   0.00  -0.00     0.00  -0.00  -0.00     0.00  -0.00   0.00
     6   6    -0.00  -0.00   0.00     0.00  -0.00   0.00    -0.00   0.00   0.00
     7   1    -0.01  -0.02   0.00    -0.01  -0.02   0.01    -0.00  -0.00  -0.00
     8   1     0.00  -0.00   0.00    -0.00   0.00  -0.00    -0.01   0.01  -0.00
     9   1     0.00  -0.00  -0.00     0.00  -0.00  -0.00     0.00   0.00  -0.00
    10   6    -0.00  -0.00  -0.00     0.00   0.00   0.00    -0.00   0.00  -0.00
    11   6    -0.00  -0.00  -0.00     0.00   0.00   0.00    -0.00   0.00  -0.00
    12   6    -0.00   0.00  -0.00     0.00   0.00   0.00    -0.00   0.00   0.00
    13   6     0.00  -0.00  -0.00    -0.00  -0.00   0.00     0.00   0.00   0.00
    14   6     0.00  -0.00  -0.00    -0.00   0.00   0.00     0.00   0.00   0.00
    15   6    -0.00   0.00   0.00    -0.00  -0.00  -0.00    -0.00  -0.00   0.00
    16   1     0.00   0.00   0.00     0.00   0.00   0.00    -0.01  -0.01  -0.00
    17   1    -0.01   0.02   0.00     0.01  -0.02  -0.01    -0.00   0.00  -0.00
    18   1     0.00   0.00  -0.00    -0.00  -0.00   0.00     0.00  -0.00  -0.00
    19   6    -0.04  -0.04  -0.02    -0.04  -0.05  -0.01    -0.00  -0.00  -0.00
    20   1     0.13  -0.01   0.26     0.07  -0.01   0.15     0.00  -0.00   0.01
    21   1     0.37   0.52   0.03     0.39   0.56   0.03     0.01   0.01   0.00
    22   6    -0.04   0.04  -0.02     0.04  -0.05   0.01    -0.00   0.00  -0.00
    23   1     0.13   0.01   0.26    -0.07  -0.01  -0.15     0.00   0.00   0.01
    24   1     0.37  -0.52   0.03    -0.39   0.56  -0.03     0.01  -0.01   0.00
    25   6     0.00   0.00   0.00     0.00   0.00   0.00    -0.02  -0.02  -0.06
    26   1    -0.01   0.00  -0.01     0.00  -0.00   0.00     0.31  -0.11   0.43
    27   1     0.00  -0.00  -0.00     0.00   0.00  -0.00    -0.04  -0.00  -0.00
    28   1     0.00  -0.01  -0.00     0.00  -0.00  -0.00    -0.01   0.37   0.26
    29   6     0.00  -0.00   0.00    -0.00   0.00  -0.00    -0.02   0.02  -0.06
    30   1    -0.01  -0.00  -0.01    -0.00  -0.00  -0.00     0.31   0.11   0.43
    31   1     0.00   0.00  -0.00    -0.00   0.00   0.00    -0.04   0.00  -0.00
    32   1     0.00   0.01  -0.00    -0.00  -0.00   0.00    -0.01  -0.37   0.26
                     82                     83                     84
                      A                      A                      A
 Frequencies --   3101.7935              3146.3828              3147.6095
 Red. masses --      1.0998                 1.0995                 1.0997
 Frc consts  --      6.2345                 6.4132                 6.4195
 IR Inten    --      4.0857                 0.6442                16.6068
  Atom  AN      X      Y      Z        X      Y      Z        X      Y      Z
     1   6     0.00   0.00  -0.00     0.00   0.00  -0.00     0.00   0.00  -0.00
     2   6    -0.00  -0.00   0.00    -0.00  -0.00   0.00     0.00  -0.00  -0.00
     3   6    -0.00  -0.00  -0.00    -0.00   0.00   0.00    -0.00  -0.00  -0.00
     4   6    -0.00  -0.00   0.00    -0.00   0.00  -0.00    -0.00   0.00  -0.00
     5   6     0.00  -0.00   0.00     0.00  -0.00   0.00     0.00  -0.00   0.00
     6   6    -0.00   0.00   0.00    -0.00   0.00  -0.00    -0.00   0.00   0.00
     7   1    -0.00  -0.00  -0.00    -0.00  -0.00   0.00    -0.00  -0.00   0.00
     8   1    -0.00   0.01  -0.00    -0.01   0.02  -0.01    -0.02   0.03  -0.01
     9   1     0.00   0.00  -0.00     0.01   0.00  -0.00     0.01   0.00  -0.00
    10   6     0.00  -0.00   0.00     0.00   0.00  -0.00    -0.00   0.00  -0.00
    11   6     0.00  -0.00  -0.00     0.00   0.00   0.00    -0.00  -0.00  -0.00
    12   6     0.00  -0.00  -0.00     0.00  -0.00  -0.00     0.00   0.00  -0.00
    13   6    -0.00  -0.00  -0.00    -0.00  -0.00  -0.00     0.00   0.00   0.00
    14   6    -0.00   0.00   0.00    -0.00   0.00   0.00     0.00  -0.00  -0.00
    15   6     0.00   0.00  -0.00     0.00   0.00   0.00    -0.00  -0.00   0.00
    16   1     0.00   0.01   0.00     0.01   0.02   0.01    -0.02  -0.03  -0.01
    17   1     0.00  -0.00   0.00     0.00  -0.00  -0.00    -0.00   0.00   0.00
    18   1    -0.00   0.00   0.00    -0.01   0.00   0.00     0.01  -0.00  -0.00
    19   6    -0.00  -0.00  -0.00    -0.00  -0.00  -0.00    -0.00  -0.00  -0.00
    20   1    -0.00   0.00  -0.00     0.00  -0.00   0.00     0.00  -0.00   0.00
    21   1     0.00   0.00   0.00     0.00   0.00   0.00     0.00   0.00  -0.00
    22   6     0.00  -0.00  -0.00     0.00  -0.00   0.00    -0.00   0.00  -0.00
    23   1     0.00   0.00   0.00    -0.00  -0.00  -0.00     0.00   0.00   0.00
    24   1    -0.00   0.00  -0.00    -0.00   0.00  -0.00     0.00  -0.00  -0.00
    25   6    -0.02  -0.03  -0.06    -0.06   0.02   0.01    -0.06   0.02   0.01
    26   1     0.29  -0.10   0.40     0.12  -0.03   0.18     0.11  -0.03   0.16
    27   1     0.05   0.00   0.00    -0.61  -0.09   0.20     0.61   0.09  -0.20
    28   1    -0.01   0.40   0.28    -0.01  -0.13  -0.10    -0.01  -0.15  -0.11
    29   6     0.02  -0.03   0.06     0.06   0.02  -0.01    -0.06  -0.02   0.01
    30   1    -0.29  -0.10  -0.40    -0.12  -0.03  -0.18     0.11   0.03   0.16
    31   1    -0.05   0.00  -0.00     0.61  -0.09  -0.20     0.61  -0.09  -0.20
    32   1     0.01   0.40  -0.28     0.01  -0.13   0.10    -0.01   0.15  -0.11
                     85                     86                     87
                      A                      A                      A
 Frequencies --   3167.7242              3167.9378              3175.8584
 Red. masses --      1.0862                 1.0861                 1.0902
 Frc consts  --      6.4215                 6.4222                 6.4786
 IR Inten    --      4.7273                 3.3319                38.7717
  Atom  AN      X      Y      Z        X      Y      Z        X      Y      Z
     1   6    -0.01  -0.02   0.01     0.01   0.02  -0.01    -0.02  -0.04   0.01
     2   6     0.00  -0.00   0.00    -0.00   0.00  -0.00     0.00  -0.00   0.00
     3   6     0.00  -0.00   0.00    -0.00   0.00  -0.00    -0.00   0.00  -0.00
     4   6     0.00   0.00  -0.00    -0.00  -0.00   0.00    -0.00  -0.00   0.00
     5   6    -0.03   0.04  -0.01     0.03  -0.04   0.01     0.02  -0.02   0.01
     6   6     0.03   0.00  -0.00    -0.03  -0.00   0.00     0.01   0.00  -0.00
     7   1     0.12   0.23  -0.08    -0.11  -0.22   0.08     0.25   0.49  -0.17
     8   1     0.31  -0.43   0.17    -0.32   0.43  -0.17    -0.19   0.27  -0.10
     9   1    -0.33  -0.01   0.03     0.33   0.01  -0.03    -0.14  -0.01   0.01
    10   6     0.00   0.00   0.00     0.00   0.00   0.00     0.00   0.00   0.00
    11   6     0.00  -0.00  -0.00     0.00  -0.00  -0.00     0.00  -0.00  -0.00
    12   6     0.00   0.00   0.00     0.00   0.00   0.00    -0.00  -0.00  -0.00
    13   6    -0.03  -0.04  -0.01    -0.03  -0.04  -0.01    -0.02  -0.02  -0.01
    14   6    -0.01   0.02   0.01    -0.01   0.02   0.01     0.02  -0.04  -0.02
    15   6     0.03  -0.00  -0.00     0.03  -0.00  -0.00    -0.01   0.00   0.00
    16   1     0.32   0.43   0.17     0.32   0.43   0.17     0.20   0.28   0.11
    17   1     0.12  -0.23  -0.08     0.11  -0.22  -0.08    -0.26   0.52   0.18
    18   1    -0.33   0.01   0.03    -0.33   0.01   0.03     0.14  -0.01  -0.01
    19   6    -0.00  -0.00  -0.00     0.00   0.00   0.00    -0.00  -0.00  -0.00
    20   1     0.00   0.00   0.00     0.00  -0.00  -0.00    -0.00   0.00   0.00
    21   1     0.00   0.01   0.00    -0.00  -0.01  -0.00     0.01   0.02   0.00
    22   6    -0.00   0.00  -0.00    -0.00   0.00  -0.00     0.00  -0.00   0.00
    23   1     0.00  -0.00   0.00    -0.00  -0.00   0.00     0.00   0.00  -0.00
    24   1     0.00  -0.01   0.00     0.00  -0.01   0.00    -0.01   0.02  -0.00
    25   6    -0.00   0.00  -0.00     0.00  -0.00   0.00     0.00  -0.00   0.00
    26   1     0.01  -0.00   0.02    -0.01   0.00  -0.02    -0.00   0.00  -0.01
    27   1     0.02   0.00  -0.01     0.02   0.00  -0.00     0.01   0.00  -0.00
    28   1    -0.00  -0.01  -0.00     0.00   0.01   0.00     0.00   0.00   0.00
    29   6    -0.00  -0.00  -0.00    -0.00  -0.00  -0.00    -0.00  -0.00  -0.00
    30   1     0.01   0.00   0.02     0.01   0.00   0.02     0.00   0.00   0.01
    31   1     0.02  -0.00  -0.01    -0.02   0.00   0.00    -0.01   0.00   0.00
    32   1    -0.00   0.01  -0.00    -0.00   0.01  -0.00    -0.00   0.00  -0.00
                     88                     89                     90
                      A                      A                      A
 Frequencies --   3175.8768              3197.1035              3197.3486
 Red. masses --      1.0903                 1.0968                 1.0968
 Frc consts  --      6.4792                 6.6054                 6.6060
 IR Inten    --      5.2194                67.8195                 0.3670
  Atom  AN      X      Y      Z        X      Y      Z        X      Y      Z
     1   6    -0.02  -0.04   0.02    -0.01  -0.02   0.01    -0.01  -0.02   0.01
     2   6     0.00  -0.00   0.00     0.00  -0.00  -0.00     0.00  -0.00  -0.00
     3   6    -0.00   0.00  -0.00     0.00   0.00  -0.00     0.00   0.00  -0.00
     4   6    -0.00  -0.00   0.00     0.00   0.00  -0.00     0.00   0.00  -0.00
     5   6     0.02  -0.02   0.01    -0.01   0.02  -0.01    -0.01   0.02  -0.01
     6   6     0.01   0.00  -0.00    -0.05  -0.00   0.00    -0.05  -0.00   0.00
     7   1     0.26   0.52  -0.18     0.12   0.24  -0.08     0.12   0.24  -0.08
     8   1    -0.21   0.28  -0.11     0.12  -0.17   0.07     0.13  -0.18   0.07
     9   1    -0.14  -0.01   0.01     0.60   0.02  -0.05     0.60   0.02  -0.05
    10   6    -0.00  -0.00  -0.00     0.00  -0.00  -0.00    -0.00   0.00   0.00
    11   6    -0.00   0.00   0.00     0.00  -0.00  -0.00    -0.00   0.00   0.00
    12   6     0.00   0.00   0.00     0.00   0.00  -0.00    -0.00  -0.00   0.00
    13   6     0.02   0.02   0.01    -0.01  -0.02  -0.01     0.01   0.02   0.01
    14   6    -0.02   0.04   0.01    -0.01   0.02   0.01     0.01  -0.02  -0.01
    15   6     0.01  -0.00  -0.00    -0.05   0.00   0.00     0.05  -0.00  -0.00
    16   1    -0.20  -0.27  -0.11     0.12   0.18   0.07    -0.13  -0.18  -0.07
    17   1     0.25  -0.49  -0.17     0.12  -0.24  -0.08    -0.12   0.24   0.08
    18   1    -0.13   0.01   0.01     0.60  -0.02  -0.05    -0.60   0.02   0.05
    19   6    -0.00  -0.00  -0.00    -0.00  -0.00  -0.00    -0.00  -0.00   0.00
    20   1     0.00   0.00   0.00    -0.00   0.00  -0.00    -0.00   0.00  -0.00
    21   1     0.01   0.02   0.00     0.00   0.01   0.00     0.00   0.01   0.00
    22   6    -0.00   0.00  -0.00    -0.00   0.00  -0.00     0.00  -0.00  -0.00
    23   1     0.00  -0.00   0.00    -0.00  -0.00  -0.00     0.00   0.00   0.00
    24   1     0.01  -0.01   0.00     0.00  -0.01   0.00    -0.00   0.01  -0.00
    25   6     0.00  -0.00   0.00    -0.00   0.00  -0.00    -0.00   0.00  -0.00
    26   1    -0.01   0.00  -0.01     0.00  -0.00   0.00     0.00  -0.00   0.00
    27   1    -0.01  -0.00   0.00     0.00   0.00   0.00    -0.00  -0.00  -0.00
    28   1     0.00   0.00   0.00    -0.00  -0.00  -0.00    -0.00  -0.00  -0.00
    29   6     0.00   0.00   0.00    -0.00  -0.00  -0.00     0.00   0.00   0.00
    30   1    -0.01  -0.00  -0.01     0.00   0.00   0.00    -0.00  -0.00  -0.00
    31   1    -0.01   0.00   0.00     0.00  -0.00   0.00     0.00  -0.00   0.00
    32   1     0.00  -0.00   0.00    -0.00   0.00  -0.00     0.00  -0.00   0.00

 -------------------
 - Thermochemistry -
 -------------------
 Temperature   298.150 Kelvin.  Pressure   1.00000 Atm.
 Atom     1 has atomic number  6 and mass  12.00000
 Atom     2 has atomic number  6 and mass  12.00000
 Atom     3 has atomic number  6 and mass  12.00000
 Atom     4 has atomic number  6 and mass  12.00000
 Atom     5 has atomic number  6 and mass  12.00000
 Atom     6 has atomic number  6 and mass  12.00000
 Atom     7 has atomic number  1 and mass   1.00783
 Atom     8 has atomic number  1 and mass   1.00783
 Atom     9 has atomic number  1 and mass   1.00783
 Atom    10 has atomic number  6 and mass  12.00000
 Atom    11 has atomic number  6 and mass  12.00000
 Atom    12 has atomic number  6 and mass  12.00000
 Atom    13 has atomic number  6 and mass  12.00000
 Atom    14 has atomic number  6 and mass  12.00000
 Atom    15 has atomic number  6 and mass  12.00000
 Atom    16 has atomic number  1 and mass   1.00783
 Atom    17 has atomic number  1 and mass   1.00783
 Atom    18 has atomic number  1 and mass   1.00783
 Atom    19 has atomic number  6 and mass  12.00000
 Atom    20 has atomic number  1 and mass   1.00783
 Atom    21 has atomic number  1 and mass   1.00783
 Atom    22 has atomic number  6 and mass  12.00000
 Atom    23 has atomic number  1 and mass   1.00783
 Atom    24 has atomic number  1 and mass   1.00783
 Atom    25 has atomic number  6 and mass  12.00000
 Atom    26 has atomic number  1 and mass   1.00783
 Atom    27 has atomic number  1 and mass   1.00783
 Atom    28 has atomic number  1 and mass   1.00783
 Atom    29 has atomic number  6 and mass  12.00000
 Atom    30 has atomic number  1 and mass   1.00783
 Atom    31 has atomic number  1 and mass   1.00783
 Atom    32 has atomic number  1 and mass   1.00783
 Molecular mass:   208.12520 amu.
 Principal axes and moments of inertia in atomic units:
                           1         2         3
     Eigenvalues --  2020.346093652.003985107.87005
           X            0.99999  -0.00000   0.00319
           Y            0.00000   1.00000   0.00000
           Z           -0.00319  -0.00000   0.99999
 This molecule is an asymmetric top.
 Rotational symmetry number  1.
 Warning -- assumption of classical behavior for rotation
           may cause significant error
 Rotational temperatures (Kelvin)      0.04287     0.02372     0.01696
 Rotational constants (GHZ):           0.89328     0.49418     0.35333
 Zero-point vibrational energy     717781.4 (Joules/Mol)
                                  171.55387 (Kcal/Mol)
 Warning -- explicit consideration of  23 degrees of freedom as
           vibrations may cause significant error
 Vibrational temperatures:    102.10   167.74   195.78   250.95   273.17
          (Kelvin)            302.18   323.14   372.21   376.47   460.85
                              515.64   541.66   609.65   631.20   672.66
                              739.23   761.08   771.32   789.41   806.33
                              829.17   869.58   883.78  1058.80  1075.54
                             1132.73  1136.66  1149.09  1151.57  1238.19
                             1298.70  1305.94  1324.69  1398.03  1398.95
                             1413.06  1422.53  1464.88  1469.37  1511.52
                             1520.66  1530.67  1534.32  1610.61  1629.12
                             1686.99  1717.32  1719.34  1742.58  1802.59
                             1807.71  1815.24  1839.55  1841.95  1923.34
                             1924.38  1956.78  1985.06  2046.86  2052.66
                             2100.51  2125.55  2144.78  2147.72  2154.55
                             2163.04  2169.31  2180.16  2183.09  2192.66
                             2328.69  2354.85  2371.54  2376.70  4341.74
                             4353.82  4381.79  4386.69  4443.37  4444.00
                             4457.75  4462.79  4526.94  4528.71  4557.65
                             4557.96  4569.35  4569.38  4599.92  4600.27
 
 Zero-point correction=                           0.273388 (Hartree/Particle)
 Thermal correction to Energy=                    0.286306
 Thermal correction to Enthalpy=                  0.287250
 Thermal correction to Gibbs Free Energy=         0.235164
 Sum of electronic and zero-point Energies=           -619.109982
 Sum of electronic and thermal Energies=              -619.097065
 Sum of electronic and thermal Enthalpies=            -619.096120
 Sum of electronic and thermal Free Energies=         -619.148207
 
                     E (Thermal)             CV                S
                      KCal/Mol        Cal/Mol-Kelvin    Cal/Mol-Kelvin
 Total                  179.660             53.969            109.625
 Electronic               0.000              0.000              0.000
 Translational            0.889              2.981             41.903
 Rotational               0.889              2.981             32.000
 Vibrational            177.882             48.008             35.723
 Vibration     1          0.598              1.968              4.126
 Vibration     2          0.608              1.936              3.156
 Vibration     3          0.614              1.917              2.858
 Vibration     4          0.627              1.874              2.387
 Vibration     5          0.633              1.854              2.229
 Vibration     6          0.642              1.825              2.043
 Vibration     7          0.649              1.804              1.922
 Vibration     8          0.668              1.748              1.671
 Vibration     9          0.669              1.743              1.651
 Vibration    10          0.706              1.635              1.309
 Vibration    11          0.733              1.558              1.129
 Vibration    12          0.747              1.520              1.053
 Vibration    13          0.786              1.419              0.879
 Vibration    14          0.799              1.386              0.831
 Vibration    15          0.825              1.322              0.745
 Vibration    16          0.869              1.219              0.625
 Vibration    17          0.884              1.186              0.589
 Vibration    18          0.891              1.170              0.574
 Vibration    19          0.904              1.143              0.547
 Vibration    20          0.916              1.117              0.523
 Vibration    21          0.933              1.083              0.492
 Vibration    22          0.963              1.022              0.442
 Vibration    23          0.974              1.002              0.426
                       Q            Log10(Q)             Ln(Q)
 Total Bot       0.679464-108       -108.167834       -249.065641
 Total V=0       0.381970D+18         17.582030         40.484119
 Vib (Bot)       0.261988-122       -122.581719       -282.254838
 Vib (Bot)    1  0.290585D+01          0.463273          1.066725
 Vib (Bot)    2  0.175427D+01          0.244096          0.562051
 Vib (Bot)    3  0.149589D+01          0.174900          0.402723
 Vib (Bot)    4  0.115373D+01          0.062106          0.143004
 Vib (Bot)    5  0.105417D+01          0.022912          0.052756
 Vib (Bot)    6  0.945670D+00         -0.024260         -0.055861
 Vib (Bot)    7  0.879016D+00         -0.056003         -0.128952
 Vib (Bot)    8  0.751290D+00         -0.124192         -0.285963
 Vib (Bot)    9  0.741696D+00         -0.129774         -0.298816
 Vib (Bot)   10  0.586778D+00         -0.231526         -0.533109
 Vib (Bot)   11  0.511978D+00         -0.290748         -0.669473
 Vib (Bot)   12  0.481446D+00         -0.317452         -0.730961
 Vib (Bot)   13  0.413204D+00         -0.383836         -0.883814
 Vib (Bot)   14  0.394455D+00         -0.404003         -0.930251
 Vib (Bot)   15  0.361534D+00         -0.441851         -1.017400
 Vib (Bot)   16  0.315945D+00         -0.500389         -1.152188
 Vib (Bot)   17  0.302625D+00         -0.519096         -1.195262
 Vib (Bot)   18  0.296624D+00         -0.527794         -1.215291
 Vib (Bot)   19  0.286391D+00         -0.543041         -1.250399
 Vib (Bot)   20  0.277214D+00         -0.557185         -1.282966
 Vib (Bot)   21  0.265392D+00         -0.576111         -1.326546
 Vib (Bot)   22  0.245945D+00         -0.609163         -1.402649
 Vib (Bot)   23  0.239518D+00         -0.620661         -1.429125
 Vib (V=0)       0.147280D+04          3.168145          7.294923
 Vib (V=0)    1  0.344855D+01          0.537637          1.237954
 Vib (V=0)    2  0.232413D+01          0.366261          0.843346
 Vib (V=0)    3  0.207724D+01          0.317487          0.731041
 Vib (V=0)    4  0.175742D+01          0.244875          0.563846
 Vib (V=0)    5  0.166674D+01          0.221868          0.510869
 Vib (V=0)    6  0.156972D+01          0.195821          0.450895
 Vib (V=0)    7  0.151127D+01          0.179342          0.412951
 Vib (V=0)    8  0.140246D+01          0.146891          0.338229
 Vib (V=0)    9  0.139449D+01          0.144415          0.332529
 Vib (V=0)   10  0.127091D+01          0.104116          0.239736
 Vib (V=0)   11  0.121563D+01          0.084800          0.195260
 Vib (V=0)   12  0.119411D+01          0.077045          0.177402
 Vib (V=0)   13  0.114864D+01          0.060185          0.138581
 Vib (V=0)   14  0.113686D+01          0.055708          0.128273
 Vib (V=0)   15  0.111701D+01          0.048059          0.110659
 Vib (V=0)   16  0.109146D+01          0.038007          0.087513
 Vib (V=0)   17  0.108445D+01          0.035209          0.081073
 Vib (V=0)   18  0.108137D+01          0.033972          0.078224
 Vib (V=0)   19  0.107621D+01          0.031898          0.073447
 Vib (V=0)   20  0.107171D+01          0.030076          0.069252
 Vib (V=0)   21  0.106607D+01          0.027785          0.063977
 Vib (V=0)   22  0.105722D+01          0.024163          0.055638
 Vib (V=0)   23  0.105441D+01          0.023009          0.052980
 Electronic      0.100000D+01          0.000000          0.000000
 Translational   0.118016D+09          8.071941         18.586331
 Rotational      0.219758D+07          6.341944         14.602866
 ***** Axes restored to original set *****
 -------------------------------------------------------------------
 Center     Atomic                   Forces (Hartrees/Bohr)
 Number     Number              X              Y              Z
 -------------------------------------------------------------------
      1        6           0.000000787   -0.000000492    0.000000062
      2        6          -0.000000022    0.000000230   -0.000000101
      3        6          -0.000000016   -0.000000492    0.000000239
      4        6          -0.000000374    0.000000552   -0.000000285
      5        6           0.000000816   -0.000000047    0.000000058
      6        6          -0.000000631    0.000000190    0.000000173
      7        1          -0.000000107    0.000000002    0.000000119
      8        1          -0.000000248    0.000000269   -0.000000044
      9        1           0.000000013   -0.000000028    0.000000098
     10        6           0.000000022   -0.000000333   -0.000000191
     11        6           0.000000454    0.000000386    0.000000222
     12        6          -0.000000578   -0.000000001    0.000000136
     13        6          -0.000000569   -0.000000448   -0.000000331
     14        6           0.000000528    0.000000533   -0.000000063
     15        6          -0.000000011   -0.000000106   -0.000000005
     16        1           0.000000259    0.000000263    0.000000032
     17        1           0.000000003   -0.000000150   -0.000000092
     18        1          -0.000000035   -0.000000062   -0.000000133
     19        6          -0.000000001    0.000000106    0.000000492
     20        1          -0.000000011    0.000000066   -0.000000020
     21        1          -0.000000073   -0.000000110   -0.000000083
     22        6          -0.000000106    0.000000042   -0.000000394
     23        1           0.000000040    0.000000021    0.000000022
     24        1           0.000000054   -0.000000077   -0.000000009
     25        6          -0.000000571    0.000000128    0.000000462
     26        1           0.000000049   -0.000000079    0.000000095
     27        1           0.000000299    0.000000114   -0.000000060
     28        1           0.000000043   -0.000000258   -0.000000151
     29        6          -0.000000505   -0.000000019   -0.000000548
     30        1           0.000000260    0.000000055    0.000000238
     31        1           0.000000243   -0.000000008   -0.000000128
     32        1          -0.000000010   -0.000000245    0.000000190
 -------------------------------------------------------------------
 Cartesian Forces:  Max     0.000000816 RMS     0.000000279
 FormGI is forming the generalized inverse of G from B-inverse, IUseBI=4.
 Leave Link  716 at Tue May 20 08:12:59 2025, MaxMem=   104857600 cpu:              35.5 elap:               2.0
 (Enter /opt/linux/rocky/8/software/gaussian/16c01_avx2/g16/l103.exe)

 GradGradGradGradGradGradGradGradGradGradGradGradGradGradGradGradGradGrad
 Berny optimization.
 Red2BG is reusing G-inverse.
 Internal  Forces:  Max     0.000000524 RMS     0.000000118
 Search for a local minimum.
 Step number   1 out of a maximum of    2
 All quantities printed in internal units (Hartrees-Bohrs-Radians)
 Second derivative matrix not updated -- analytic derivatives used.
 ITU=  0
     Eigenvalues ---    0.00192   0.00275   0.00583   0.00773   0.01309
     Eigenvalues ---    0.01623   0.01625   0.01685   0.01807   0.01943
     Eigenvalues ---    0.01964   0.02013   0.02234   0.02239   0.02421
     Eigenvalues ---    0.02423   0.02476   0.02519   0.02711   0.02744
     Eigenvalues ---    0.03545   0.04144   0.04498   0.04873   0.05846
     Eigenvalues ---    0.05878   0.06014   0.06099   0.06465   0.07034
     Eigenvalues ---    0.07555   0.08284   0.10050   0.11175   0.11178
     Eigenvalues ---    0.12133   0.12160   0.12285   0.12348   0.12470
     Eigenvalues ---    0.12496   0.14553   0.14558   0.15053   0.15060
     Eigenvalues ---    0.17989   0.18003   0.18997   0.18998   0.19228
     Eigenvalues ---    0.19373   0.19403   0.19560   0.20144   0.21438
     Eigenvalues ---    0.23815   0.25801   0.26115   0.26796   0.28111
     Eigenvalues ---    0.30272   0.30894   0.31517   0.32425   0.32923
     Eigenvalues ---    0.33027   0.33370   0.33743   0.33793   0.34070
     Eigenvalues ---    0.34074   0.34224   0.34981   0.35164   0.35614
     Eigenvalues ---    0.35668   0.35718   0.35893   0.35957   0.36022
     Eigenvalues ---    0.37463   0.40191   0.42106   0.45210   0.46461
     Eigenvalues ---    0.47038   0.47045   0.50238   0.50246   0.56919
 Angle between quadratic step and forces=  45.04 degrees.
 Linear search not attempted -- first point.
 Iteration  1 RMS(Cart)=  0.00000046 RMS(Int)=  0.00000000
 ITry= 1 IFail=0 DXMaxC= 1.80D-06 DCOld= 1.00D+10 DXMaxT= 3.00D-01 DXLimC= 3.00D+00 Rises=F
 Variable       Old X    -DE/DX   Delta X   Delta X   Delta X     New X
                                 (Linear)    (Quad)   (Total)
    R1        2.63078   0.00000   0.00000   0.00000   0.00000   2.63078
    R2        2.63642  -0.00000   0.00000  -0.00000  -0.00000   2.63641
    R3        2.05418  -0.00000   0.00000  -0.00000  -0.00000   2.05418
    R4        2.68266   0.00000   0.00000   0.00000   0.00000   2.68266
    R5        2.85798   0.00000   0.00000   0.00000   0.00000   2.85798
    R6        2.67465  -0.00000   0.00000  -0.00000  -0.00000   2.67465
    R7        2.82358  -0.00000   0.00000  -0.00000  -0.00000   2.82358
    R8        2.65315   0.00000   0.00000   0.00000   0.00000   2.65315
    R9        2.86168   0.00000   0.00000   0.00000   0.00000   2.86168
   R10        2.62530  -0.00000   0.00000  -0.00000  -0.00000   2.62530
   R11        2.05496  -0.00000   0.00000  -0.00000  -0.00000   2.05496
   R12        2.05266   0.00000   0.00000   0.00000   0.00000   2.05266
   R13        2.67465  -0.00000   0.00000  -0.00000  -0.00000   2.67465
   R14        2.68266   0.00000   0.00000   0.00000   0.00000   2.68266
   R15        2.65315   0.00000   0.00000   0.00000   0.00000   2.65315
   R16        2.86168   0.00000   0.00000   0.00000   0.00000   2.86168
   R17        2.63078  -0.00000   0.00000  -0.00000  -0.00000   2.63078
   R18        2.85798   0.00000   0.00000   0.00000   0.00000   2.85798
   R19        2.62530   0.00000   0.00000  -0.00000  -0.00000   2.62530
   R20        2.05496  -0.00000   0.00000  -0.00000  -0.00000   2.05496
   R21        2.63641   0.00000   0.00000   0.00000   0.00000   2.63641
   R22        2.05418  -0.00000   0.00000  -0.00000  -0.00000   2.05418
   R23        2.05266   0.00000   0.00000   0.00000   0.00000   2.05266
   R24        2.07733   0.00000   0.00000   0.00000   0.00000   2.07733
   R25        2.06875  -0.00000   0.00000  -0.00000  -0.00000   2.06875
   R26        2.90741  -0.00000   0.00000  -0.00000  -0.00000   2.90741
   R27        2.07733   0.00000   0.00000   0.00000   0.00000   2.07733
   R28        2.06875  -0.00000   0.00000  -0.00000  -0.00000   2.06875
   R29        2.06906   0.00000   0.00000   0.00000   0.00000   2.06906
   R30        2.06996   0.00000   0.00000   0.00000   0.00000   2.06996
   R31        2.06188  -0.00000   0.00000  -0.00000  -0.00000   2.06188
   R32        2.06187   0.00000   0.00000   0.00000   0.00000   2.06188
   R33        2.06906  -0.00000   0.00000  -0.00000  -0.00000   2.06906
   R34        2.06996   0.00000   0.00000   0.00000   0.00000   2.06996
    A1        2.10028   0.00000   0.00000  -0.00000  -0.00000   2.10028
    A2        2.08375  -0.00000   0.00000  -0.00000  -0.00000   2.08375
    A3        2.09882   0.00000   0.00000   0.00000   0.00000   2.09882
    A4        2.10422  -0.00000   0.00000  -0.00000  -0.00000   2.10422
    A5        2.11628   0.00000   0.00000   0.00000   0.00000   2.11628
    A6        2.05881  -0.00000   0.00000  -0.00000  -0.00000   2.05881
    A7        2.06971  -0.00000   0.00000  -0.00000  -0.00000   2.06971
    A8        2.03845   0.00000   0.00000   0.00000   0.00000   2.03845
    A9        2.17259   0.00000   0.00000   0.00000   0.00000   2.17259
   A10        2.07435   0.00000   0.00000   0.00000   0.00000   2.07435
   A11        2.15835  -0.00000   0.00000  -0.00000  -0.00000   2.15835
   A12        2.04705   0.00000   0.00000  -0.00000  -0.00000   2.04705
   A13        2.12497  -0.00000   0.00000  -0.00000  -0.00000   2.12497
   A14        2.06962  -0.00000   0.00000  -0.00000  -0.00000   2.06962
   A15        2.08816   0.00000   0.00000   0.00000   0.00000   2.08816
   A16        2.08131   0.00000   0.00000   0.00000   0.00000   2.08131
   A17        2.10088  -0.00000   0.00000  -0.00000  -0.00000   2.10088
   A18        2.09947  -0.00000   0.00000  -0.00000  -0.00000   2.09947
   A19        2.17259   0.00000   0.00000   0.00000   0.00000   2.17259
   A20        2.03845  -0.00000   0.00000   0.00000   0.00000   2.03845
   A21        2.06971  -0.00000   0.00000  -0.00000  -0.00000   2.06971
   A22        2.07435   0.00000   0.00000   0.00000   0.00000   2.07435
   A23        2.15835   0.00000   0.00000   0.00000   0.00000   2.15835
   A24        2.04705  -0.00000   0.00000  -0.00000  -0.00000   2.04705
   A25        2.10422   0.00000   0.00000   0.00000   0.00000   2.10422
   A26        2.05881  -0.00000   0.00000  -0.00000  -0.00000   2.05881
   A27        2.11628  -0.00000   0.00000  -0.00000  -0.00000   2.11628
   A28        2.12497  -0.00000   0.00000  -0.00000  -0.00000   2.12497
   A29        2.06962   0.00000   0.00000  -0.00000  -0.00000   2.06962
   A30        2.08816   0.00000   0.00000   0.00000   0.00000   2.08816
   A31        2.10028  -0.00000   0.00000  -0.00000  -0.00000   2.10028
   A32        2.08375   0.00000   0.00000   0.00000   0.00000   2.08375
   A33        2.09882  -0.00000   0.00000  -0.00000  -0.00000   2.09882
   A34        2.08131   0.00000   0.00000   0.00000   0.00000   2.08131
   A35        2.09947  -0.00000   0.00000  -0.00000  -0.00000   2.09947
   A36        2.10088   0.00000   0.00000   0.00000   0.00000   2.10088
   A37        1.94471   0.00000   0.00000  -0.00000  -0.00000   1.94471
   A38        1.91885  -0.00000   0.00000   0.00000   0.00000   1.91885
   A39        1.88852   0.00000   0.00000   0.00000   0.00000   1.88852
   A40        1.87133  -0.00000   0.00000  -0.00000  -0.00000   1.87133
   A41        1.90033  -0.00000   0.00000  -0.00000  -0.00000   1.90033
   A42        1.94059   0.00000   0.00000   0.00000   0.00000   1.94059
   A43        1.88852   0.00000   0.00000   0.00000   0.00000   1.88852
   A44        1.94471   0.00000   0.00000  -0.00000  -0.00000   1.94471
   A45        1.91885  -0.00000   0.00000   0.00000   0.00000   1.91885
   A46        1.90033  -0.00000   0.00000  -0.00000  -0.00000   1.90033
   A47        1.94059  -0.00000   0.00000   0.00000   0.00000   1.94059
   A48        1.87133   0.00000   0.00000  -0.00000  -0.00000   1.87133
   A49        1.90998   0.00000   0.00000   0.00000   0.00000   1.90998
   A50        1.96222  -0.00000   0.00000  -0.00000  -0.00000   1.96222
   A51        1.95760  -0.00000   0.00000  -0.00000  -0.00000   1.95760
   A52        1.86488  -0.00000   0.00000  -0.00000  -0.00000   1.86488
   A53        1.88263   0.00000   0.00000   0.00000   0.00000   1.88264
   A54        1.88258   0.00000   0.00000   0.00000   0.00000   1.88258
   A55        1.95760  -0.00000   0.00000  -0.00000  -0.00000   1.95760
   A56        1.90998   0.00000   0.00000   0.00000   0.00000   1.90998
   A57        1.96222  -0.00000   0.00000  -0.00000  -0.00000   1.96222
   A58        1.88263   0.00000   0.00000   0.00000   0.00000   1.88264
   A59        1.88258   0.00000   0.00000   0.00000   0.00000   1.88258
   A60        1.86488   0.00000   0.00000   0.00000   0.00000   1.86488
    D1       -0.04191  -0.00000   0.00000  -0.00000  -0.00000  -0.04191
    D2        3.00328  -0.00000   0.00000  -0.00000  -0.00000   3.00328
    D3        3.12707   0.00000   0.00000   0.00000   0.00000   3.12707
    D4       -0.11094  -0.00000   0.00000   0.00000   0.00000  -0.11094
    D5       -0.06439   0.00000   0.00000   0.00000   0.00000  -0.06439
    D6        3.13644   0.00000   0.00000  -0.00000  -0.00000   3.13644
    D7        3.04959  -0.00000   0.00000  -0.00000  -0.00000   3.04959
    D8       -0.03277  -0.00000   0.00000  -0.00000  -0.00000  -0.03277
    D9        0.14869   0.00000   0.00000  -0.00000  -0.00000   0.14869
   D10       -3.06462   0.00000   0.00000   0.00000   0.00000  -3.06462
   D11       -2.89960   0.00000   0.00000   0.00000   0.00000  -2.89960
   D12        0.17028   0.00000   0.00000   0.00000   0.00000   0.17028
   D13        1.81718   0.00000   0.00000  -0.00000  -0.00000   1.81718
   D14       -0.25501   0.00000   0.00000   0.00000   0.00000  -0.25501
   D15       -2.37740  -0.00000   0.00000  -0.00000  -0.00000  -2.37740
   D16       -1.41839  -0.00000   0.00000  -0.00000  -0.00000  -1.41839
   D17        2.79260   0.00000   0.00000   0.00000   0.00000   2.79261
   D18        0.67021  -0.00000   0.00000  -0.00000  -0.00000   0.67021
   D19       -0.14851  -0.00000   0.00000   0.00000   0.00000  -0.14851
   D20        2.90157  -0.00000   0.00000  -0.00000  -0.00000   2.90157
   D21        3.07075  -0.00000   0.00000  -0.00000  -0.00000   3.07075
   D22       -0.16235  -0.00000   0.00000  -0.00000  -0.00000  -0.16235
   D23        2.43621   0.00000   0.00000  -0.00000  -0.00000   2.43621
   D24       -0.62898   0.00000   0.00000  -0.00000  -0.00000  -0.62898
   D25       -0.78178   0.00000   0.00000   0.00000   0.00000  -0.78178
   D26        2.43621   0.00000   0.00000  -0.00000  -0.00000   2.43621
   D27        0.04516   0.00000   0.00000   0.00000   0.00000   0.04516
   D28       -3.12817   0.00000   0.00000   0.00000   0.00000  -3.12816
   D29       -3.01074   0.00000   0.00000   0.00000   0.00000  -3.01074
   D30        0.09912   0.00000   0.00000   0.00000   0.00000   0.09912
   D31       -2.31771  -0.00000   0.00000  -0.00000  -0.00000  -2.31771
   D32        1.89615   0.00000   0.00000   0.00000   0.00000   1.89615
   D33       -0.22906   0.00000   0.00000   0.00000   0.00000  -0.22906
   D34        0.73370  -0.00000   0.00000  -0.00000  -0.00000   0.73370
   D35       -1.33563   0.00000   0.00000  -0.00000  -0.00000  -1.33563
   D36        2.82234   0.00000   0.00000  -0.00000  -0.00000   2.82234
   D37        0.06283  -0.00000   0.00000  -0.00000  -0.00000   0.06283
   D38       -3.13796   0.00000   0.00000   0.00000   0.00000  -3.13796
   D39       -3.04670  -0.00000   0.00000  -0.00000  -0.00000  -3.04670
   D40        0.03570   0.00000   0.00000   0.00000   0.00000   0.03570
   D41        3.07075   0.00000   0.00000  -0.00000  -0.00000   3.07075
   D42       -0.16235  -0.00000   0.00000  -0.00000  -0.00000  -0.16235
   D43       -0.14851  -0.00000   0.00000   0.00000   0.00000  -0.14851
   D44        2.90157  -0.00000   0.00000  -0.00000  -0.00000   2.90157
   D45       -3.06462   0.00000   0.00000   0.00000   0.00000  -3.06462
   D46        0.17028   0.00000   0.00000   0.00000   0.00000   0.17028
   D47        0.14869   0.00000   0.00000  -0.00000  -0.00000   0.14869
   D48       -2.89960   0.00000   0.00000   0.00000   0.00000  -2.89960
   D49        0.04516  -0.00000   0.00000  -0.00000  -0.00000   0.04516
   D50       -3.12817   0.00000   0.00000   0.00000   0.00000  -3.12816
   D51       -3.01074  -0.00000   0.00000  -0.00000  -0.00000  -3.01074
   D52        0.09912   0.00000   0.00000   0.00000   0.00000   0.09912
   D53       -0.22906   0.00000   0.00000   0.00000   0.00000  -0.22906
   D54       -2.31771   0.00000   0.00000   0.00000   0.00000  -2.31771
   D55        1.89615  -0.00000   0.00000   0.00000   0.00000   1.89615
   D56        2.82234   0.00000   0.00000   0.00000   0.00000   2.82234
   D57        0.73370   0.00000   0.00000   0.00000   0.00000   0.73370
   D58       -1.33563  -0.00000   0.00000  -0.00000  -0.00000  -1.33563
   D59       -0.04191   0.00000   0.00000   0.00000   0.00000  -0.04191
   D60        3.12707  -0.00000   0.00000  -0.00000  -0.00000   3.12707
   D61        3.00328  -0.00000   0.00000   0.00000   0.00000   3.00328
   D62       -0.11093  -0.00000   0.00000  -0.00000  -0.00000  -0.11094
   D63        0.67021  -0.00000   0.00000  -0.00000  -0.00000   0.67021
   D64       -1.41839   0.00000   0.00000  -0.00000  -0.00000  -1.41839
   D65        2.79261   0.00000   0.00000  -0.00000  -0.00000   2.79261
   D66       -2.37740  -0.00000   0.00000  -0.00000  -0.00000  -2.37740
   D67        1.81718   0.00000   0.00000  -0.00000  -0.00000   1.81718
   D68       -0.25501   0.00000   0.00000   0.00000   0.00000  -0.25501
   D69        0.06282   0.00000   0.00000   0.00000   0.00000   0.06283
   D70       -3.13796   0.00000   0.00000   0.00000   0.00000  -3.13796
   D71       -3.04670   0.00000   0.00000   0.00000   0.00000  -3.04670
   D72        0.03570  -0.00000   0.00000  -0.00000  -0.00000   0.03570
   D73       -0.06439  -0.00000   0.00000  -0.00000  -0.00000  -0.06439
   D74        3.13644  -0.00000   0.00000  -0.00000  -0.00000   3.13644
   D75        3.04959  -0.00000   0.00000  -0.00000  -0.00000   3.04959
   D76       -0.03277   0.00000   0.00000   0.00000   0.00000  -0.03277
   D77       -1.06895   0.00000   0.00000   0.00000   0.00000  -1.06895
   D78        1.04735   0.00000   0.00000   0.00000   0.00000   1.04735
   D79        3.10530  -0.00000   0.00000   0.00000   0.00000   3.10530
   D80        1.04735   0.00000   0.00000   0.00000   0.00000   1.04735
   D81       -3.11955   0.00000   0.00000   0.00000   0.00000  -3.11955
   D82       -1.06159   0.00000   0.00000   0.00000   0.00000  -1.06159
   D83        3.10530  -0.00000   0.00000  -0.00000  -0.00000   3.10530
   D84       -1.06159  -0.00000   0.00000  -0.00000  -0.00000  -1.06159
   D85        0.99636  -0.00000   0.00000  -0.00000  -0.00000   0.99636
         Item               Value     Threshold  Converged?
 Maximum Force            0.000001     0.000002     YES
 RMS     Force            0.000000     0.000001     YES
 Maximum Displacement     0.000002     0.000006     YES
 RMS     Displacement     0.000000     0.000004     YES
 Predicted change in Energy=-4.626577D-12
 Optimization completed.
    -- Stationary point found.
                           ----------------------------
                           !   Optimized Parameters   !
                           ! (Angstroms and Degrees)  !
 --------------------------                            --------------------------
 ! Name  Definition              Value          Derivative Info.                !
 --------------------------------------------------------------------------------
 ! R1    R(1,2)                  1.3921         -DE/DX =    0.0                 !
 ! R2    R(1,6)                  1.3951         -DE/DX =    0.0                 !
 ! R3    R(1,7)                  1.087          -DE/DX =    0.0                 !
 ! R4    R(2,3)                  1.4196         -DE/DX =    0.0                 !
 ! R5    R(2,19)                 1.5124         -DE/DX =    0.0                 !
 ! R6    R(3,4)                  1.4154         -DE/DX =    0.0                 !
 ! R7    R(3,10)                 1.4942         -DE/DX =    0.0                 !
 ! R8    R(4,5)                  1.404          -DE/DX =    0.0                 !
 ! R9    R(4,25)                 1.5143         -DE/DX =    0.0                 !
 ! R10   R(5,6)                  1.3892         -DE/DX =    0.0                 !
 ! R11   R(5,8)                  1.0874         -DE/DX =    0.0                 !
 ! R12   R(6,9)                  1.0862         -DE/DX =    0.0                 !
 ! R13   R(10,11)                1.4154         -DE/DX =    0.0                 !
 ! R14   R(10,12)                1.4196         -DE/DX =    0.0                 !
 ! R15   R(11,13)                1.404          -DE/DX =    0.0                 !
 ! R16   R(11,29)                1.5143         -DE/DX =    0.0                 !
 ! R17   R(12,14)                1.3921         -DE/DX =    0.0                 !
 ! R18   R(12,22)                1.5124         -DE/DX =    0.0                 !
 ! R19   R(13,15)                1.3892         -DE/DX =    0.0                 !
 ! R20   R(13,16)                1.0874         -DE/DX =    0.0                 !
 ! R21   R(14,15)                1.3951         -DE/DX =    0.0                 !
 ! R22   R(14,17)                1.087          -DE/DX =    0.0                 !
 ! R23   R(15,18)                1.0862         -DE/DX =    0.0                 !
 ! R24   R(19,20)                1.0993         -DE/DX =    0.0                 !
 ! R25   R(19,21)                1.0947         -DE/DX =    0.0                 !
 ! R26   R(19,22)                1.5385         -DE/DX =    0.0                 !
 ! R27   R(22,23)                1.0993         -DE/DX =    0.0                 !
 ! R28   R(22,24)                1.0947         -DE/DX =    0.0                 !
 ! R29   R(25,26)                1.0949         -DE/DX =    0.0                 !
 ! R30   R(25,28)                1.0954         -DE/DX =    0.0                 !
 ! R31   R(25,31)                1.0911         -DE/DX =    0.0                 !
 ! R32   R(27,29)                1.0911         -DE/DX =    0.0                 !
 ! R33   R(29,30)                1.0949         -DE/DX =    0.0                 !
 ! R34   R(29,32)                1.0954         -DE/DX =    0.0                 !
 ! A1    A(2,1,6)              120.3374         -DE/DX =    0.0                 !
 ! A2    A(2,1,7)              119.3902         -DE/DX =    0.0                 !
 ! A3    A(6,1,7)              120.2537         -DE/DX =    0.0                 !
 ! A4    A(1,2,3)              120.5628         -DE/DX =    0.0                 !
 ! A5    A(1,2,19)             121.2539         -DE/DX =    0.0                 !
 ! A6    A(3,2,19)             117.9613         -DE/DX =    0.0                 !
 ! A7    A(2,3,4)              118.5854         -DE/DX =    0.0                 !
 ! A8    A(2,3,10)             116.7944         -DE/DX =    0.0                 !
 ! A9    A(4,3,10)             124.4801         -DE/DX =    0.0                 !
 ! A10   A(3,4,5)              118.8517         -DE/DX =    0.0                 !
 ! A11   A(3,4,25)             123.6642         -DE/DX =    0.0                 !
 ! A12   A(5,4,25)             117.2872         -DE/DX =    0.0                 !
 ! A13   A(4,5,6)              121.7519         -DE/DX =    0.0                 !
 ! A14   A(4,5,8)              118.5806         -DE/DX =    0.0                 !
 ! A15   A(6,5,8)              119.6427         -DE/DX =    0.0                 !
 ! A16   A(1,6,5)              119.25           -DE/DX =    0.0                 !
 ! A17   A(1,6,9)              120.3716         -DE/DX =    0.0                 !
 ! A18   A(5,6,9)              120.2908         -DE/DX =    0.0                 !
 ! A19   A(3,10,11)            124.4801         -DE/DX =    0.0                 !
 ! A20   A(3,10,12)            116.7944         -DE/DX =    0.0                 !
 ! A21   A(11,10,12)           118.5854         -DE/DX =    0.0                 !
 ! A22   A(10,11,13)           118.8517         -DE/DX =    0.0                 !
 ! A23   A(10,11,29)           123.6642         -DE/DX =    0.0                 !
 ! A24   A(13,11,29)           117.2873         -DE/DX =    0.0                 !
 ! A25   A(10,12,14)           120.5627         -DE/DX =    0.0                 !
 ! A26   A(10,12,22)           117.9613         -DE/DX =    0.0                 !
 ! A27   A(14,12,22)           121.254          -DE/DX =    0.0                 !
 ! A28   A(11,13,15)           121.7519         -DE/DX =    0.0                 !
 ! A29   A(11,13,16)           118.5806         -DE/DX =    0.0                 !
 ! A30   A(15,13,16)           119.6427         -DE/DX =    0.0                 !
 ! A31   A(12,14,15)           120.3374         -DE/DX =    0.0                 !
 ! A32   A(12,14,17)           119.3901         -DE/DX =    0.0                 !
 ! A33   A(15,14,17)           120.2538         -DE/DX =    0.0                 !
 ! A34   A(13,15,14)           119.2501         -DE/DX =    0.0                 !
 ! A35   A(13,15,18)           120.2908         -DE/DX =    0.0                 !
 ! A36   A(14,15,18)           120.3715         -DE/DX =    0.0                 !
 ! A37   A(2,19,20)            111.4235         -DE/DX =    0.0                 !
 ! A38   A(2,19,21)            109.9419         -DE/DX =    0.0                 !
 ! A39   A(2,19,22)            108.2043         -DE/DX =    0.0                 !
 ! A40   A(20,19,21)           107.2195         -DE/DX =    0.0                 !
 ! A41   A(20,19,22)           108.8809         -DE/DX =    0.0                 !
 ! A42   A(21,19,22)           111.1875         -DE/DX =    0.0                 !
 ! A43   A(12,22,19)           108.2043         -DE/DX =    0.0                 !
 ! A44   A(12,22,23)           111.4235         -DE/DX =    0.0                 !
 ! A45   A(12,22,24)           109.9419         -DE/DX =    0.0                 !
 ! A46   A(19,22,23)           108.8809         -DE/DX =    0.0                 !
 ! A47   A(19,22,24)           111.1875         -DE/DX =    0.0                 !
 ! A48   A(23,22,24)           107.2194         -DE/DX =    0.0                 !
 ! A49   A(4,25,26)            109.4338         -DE/DX =    0.0                 !
 ! A50   A(4,25,28)            112.427          -DE/DX =    0.0                 !
 ! A51   A(4,25,31)            112.1622         -DE/DX =    0.0                 !
 ! A52   A(26,25,28)           106.8498         -DE/DX =    0.0                 !
 ! A53   A(26,25,31)           107.867          -DE/DX =    0.0                 !
 ! A54   A(28,25,31)           107.864          -DE/DX =    0.0                 !
 ! A55   A(11,29,27)           112.1623         -DE/DX =    0.0                 !
 ! A56   A(11,29,30)           109.4337         -DE/DX =    0.0                 !
 ! A57   A(11,29,32)           112.427          -DE/DX =    0.0                 !
 ! A58   A(27,29,30)           107.867          -DE/DX =    0.0                 !
 ! A59   A(27,29,32)           107.864          -DE/DX =    0.0                 !
 ! A60   A(30,29,32)           106.8498         -DE/DX =    0.0                 !
 ! D1    D(6,1,2,3)             -2.401          -DE/DX =    0.0                 !
 ! D2    D(6,1,2,19)           172.0751         -DE/DX =    0.0                 !
 ! D3    D(7,1,2,3)            179.1677         -DE/DX =    0.0                 !
 ! D4    D(7,1,2,19)            -6.3561         -DE/DX =    0.0                 !
 ! D5    D(2,1,6,5)             -3.6892         -DE/DX =    0.0                 !
 ! D6    D(2,1,6,9)            179.705          -DE/DX =    0.0                 !
 ! D7    D(7,1,6,5)            174.7284         -DE/DX =    0.0                 !
 ! D8    D(7,1,6,9)             -1.8773         -DE/DX =    0.0                 !
 ! D9    D(1,2,3,4)              8.5192         -DE/DX =    0.0                 !
 ! D10   D(1,2,3,10)          -175.5897         -DE/DX =    0.0                 !
 ! D11   D(19,2,3,4)          -166.135          -DE/DX =    0.0                 !
 ! D12   D(19,2,3,10)            9.7561         -DE/DX =    0.0                 !
 ! D13   D(1,2,19,20)          104.1169         -DE/DX =    0.0                 !
 ! D14   D(1,2,19,21)          -14.6109         -DE/DX =    0.0                 !
 ! D15   D(1,2,19,22)         -136.2152         -DE/DX =    0.0                 !
 ! D16   D(3,2,19,20)          -81.2678         -DE/DX =    0.0                 !
 ! D17   D(3,2,19,21)          160.0045         -DE/DX =    0.0                 !
 ! D18   D(3,2,19,22)           38.4001         -DE/DX =    0.0                 !
 ! D19   D(2,3,4,5)             -8.5087         -DE/DX =    0.0                 !
 ! D20   D(2,3,4,25)           166.2479         -DE/DX =    0.0                 !
 ! D21   D(10,3,4,5)           175.9413         -DE/DX =    0.0                 !
 ! D22   D(10,3,4,25)           -9.302          -DE/DX =    0.0                 !
 ! D23   D(2,3,10,11)          139.5847         -DE/DX =    0.0                 !
 ! D24   D(2,3,10,12)          -36.0378         -DE/DX =    0.0                 !
 ! D25   D(4,3,10,11)          -44.7928         -DE/DX =    0.0                 !
 ! D26   D(4,3,10,12)          139.5847         -DE/DX =    0.0                 !
 ! D27   D(3,4,5,6)              2.5876         -DE/DX =    0.0                 !
 ! D28   D(3,4,5,8)           -179.2307         -DE/DX =    0.0                 !
 ! D29   D(25,4,5,6)          -172.5027         -DE/DX =    0.0                 !
 ! D30   D(25,4,5,8)             5.679          -DE/DX =    0.0                 !
 ! D31   D(3,4,25,26)         -132.7947         -DE/DX =    0.0                 !
 ! D32   D(3,4,25,28)          108.6411         -DE/DX =    0.0                 !
 ! D33   D(3,4,25,31)          -13.1244         -DE/DX =    0.0                 !
 ! D34   D(5,4,25,26)           42.0379         -DE/DX =    0.0                 !
 ! D35   D(5,4,25,28)          -76.5262         -DE/DX =    0.0                 !
 ! D36   D(5,4,25,31)          161.7083         -DE/DX =    0.0                 !
 ! D37   D(4,5,6,1)              3.5996         -DE/DX =    0.0                 !
 ! D38   D(4,5,6,9)           -179.7918         -DE/DX =    0.0                 !
 ! D39   D(8,5,6,1)           -174.5632         -DE/DX =    0.0                 !
 ! D40   D(8,5,6,9)              2.0454         -DE/DX =    0.0                 !
 ! D41   D(3,10,11,13)         175.9413         -DE/DX =    0.0                 !
 ! D42   D(3,10,11,29)          -9.302          -DE/DX =    0.0                 !
 ! D43   D(12,10,11,13)         -8.5087         -DE/DX =    0.0                 !
 ! D44   D(12,10,11,29)        166.2479         -DE/DX =    0.0                 !
 ! D45   D(3,10,12,14)        -175.5897         -DE/DX =    0.0                 !
 ! D46   D(3,10,12,22)           9.7561         -DE/DX =    0.0                 !
 ! D47   D(11,10,12,14)          8.5192         -DE/DX =    0.0                 !
 ! D48   D(11,10,12,22)       -166.135          -DE/DX =    0.0                 !
 ! D49   D(10,11,13,15)          2.5877         -DE/DX =    0.0                 !
 ! D50   D(10,11,13,16)       -179.2307         -DE/DX =    0.0                 !
 ! D51   D(29,11,13,15)       -172.5027         -DE/DX =    0.0                 !
 ! D52   D(29,11,13,16)          5.679          -DE/DX =    0.0                 !
 ! D53   D(10,11,29,27)        -13.1244         -DE/DX =    0.0                 !
 ! D54   D(10,11,29,30)       -132.7948         -DE/DX =    0.0                 !
 ! D55   D(10,11,29,32)        108.6411         -DE/DX =    0.0                 !
 ! D56   D(13,11,29,27)        161.7083         -DE/DX =    0.0                 !
 ! D57   D(13,11,29,30)         42.0378         -DE/DX =    0.0                 !
 ! D58   D(13,11,29,32)        -76.5262         -DE/DX =    0.0                 !
 ! D59   D(10,12,14,15)         -2.4011         -DE/DX =    0.0                 !
 ! D60   D(10,12,14,17)        179.1678         -DE/DX =    0.0                 !
 ! D61   D(22,12,14,15)        172.0751         -DE/DX =    0.0                 !
 ! D62   D(22,12,14,17)         -6.3561         -DE/DX =    0.0                 !
 ! D63   D(10,12,22,19)         38.4001         -DE/DX =    0.0                 !
 ! D64   D(10,12,22,23)        -81.2678         -DE/DX =    0.0                 !
 ! D65   D(10,12,22,24)        160.0045         -DE/DX =    0.0                 !
 ! D66   D(14,12,22,19)       -136.2152         -DE/DX =    0.0                 !
 ! D67   D(14,12,22,23)        104.1169         -DE/DX =    0.0                 !
 ! D68   D(14,12,22,24)        -14.6108         -DE/DX =    0.0                 !
 ! D69   D(11,13,15,14)          3.5995         -DE/DX =    0.0                 !
 ! D70   D(11,13,15,18)       -179.7918         -DE/DX =    0.0                 !
 ! D71   D(16,13,15,14)       -174.5632         -DE/DX =    0.0                 !
 ! D72   D(16,13,15,18)          2.0454         -DE/DX =    0.0                 !
 ! D73   D(12,14,15,13)         -3.6891         -DE/DX =    0.0                 !
 ! D74   D(12,14,15,18)        179.7051         -DE/DX =    0.0                 !
 ! D75   D(17,14,15,13)        174.7284         -DE/DX =    0.0                 !
 ! D76   D(17,14,15,18)         -1.8775         -DE/DX =    0.0                 !
 ! D77   D(2,19,22,12)         -61.2461         -DE/DX =    0.0                 !
 ! D78   D(2,19,22,23)          60.0085         -DE/DX =    0.0                 !
 ! D79   D(2,19,22,24)         177.9206         -DE/DX =    0.0                 !
 ! D80   D(20,19,22,12)         60.0085         -DE/DX =    0.0                 !
 ! D81   D(20,19,22,23)       -178.737          -DE/DX =    0.0                 !
 ! D82   D(20,19,22,24)        -60.8249         -DE/DX =    0.0                 !
 ! D83   D(21,19,22,12)        177.9206         -DE/DX =    0.0                 !
 ! D84   D(21,19,22,23)        -60.8248         -DE/DX =    0.0                 !
 ! D85   D(21,19,22,24)         57.0873         -DE/DX =    0.0                 !
 --------------------------------------------------------------------------------
 GradGradGradGradGradGradGradGradGradGradGradGradGradGradGradGradGradGrad

 Leave Link  103 at Tue May 20 08:13:01 2025, MaxMem=   104857600 cpu:              52.3 elap:               2.0
 (Enter /opt/linux/rocky/8/software/gaussian/16c01_avx2/g16/l9999.exe)

 ----------------------------------------------------------------------

 Electric dipole moment (input orientation):
 (Debye = 10**-18 statcoulomb cm , SI units = C m)
                  (au)            (Debye)         (10**-30 SI)
   Tot        0.104225D-01      0.264915D-01      0.883660D-01
   x          0.000000D+00      0.000000D+00      0.000000D+00
   y          0.104225D-01      0.264915D-01      0.883660D-01
   z          0.000000D+00      0.000000D+00      0.000000D+00

 Dipole polarizability, Alpha (input orientation).
 (esu units = cm**3 , SI units = C**2 m**2 J**-1)
 Alpha(0;0):
               (au)            (10**-24 esu)      (10**-40 SI)
   iso        0.163837D+03      0.242782D+02      0.270131D+02
   aniso      0.115831D+03      0.171644D+02      0.190980D+02
   xx         0.222961D+03      0.330395D+02      0.367614D+02
   yx         0.000000D+00      0.000000D+00      0.000000D+00
   yy         0.177189D+03      0.262567D+02      0.292145D+02
   zx        -0.300012D+01     -0.444571D+00     -0.494652D+00
   zy         0.000000D+00      0.000000D+00      0.000000D+00
   zz         0.913619D+02      0.135384D+02      0.150635D+02

 ----------------------------------------------------------------------

 Dipole orientation:
     6          5.23815409          0.97129630          2.29715641
     6          2.61950159          0.74598117          2.18359855
     6          1.41179319          0.00282546         -0.09364593
     6          2.92775539         -0.83419341         -2.13203155
     6          5.56279577         -0.57896278         -1.95702465
     6          6.71808446          0.37754180          0.19764505
     1          6.12349379          1.56779912          4.05215786
     1          6.71804696         -1.20274876         -3.53788995
     1          8.76072509          0.56158639          0.28220022
     6         -1.41178298         -0.00282591         -0.09379979
     6         -2.92752300          0.83418315         -2.13235465
     6         -2.61973957         -0.74597066          2.18331663
     6         -5.56258244          0.57895336         -1.95763372
     6         -5.23840632         -0.97128524          2.29658827
     6         -6.71810596         -0.37753896          0.19691465
     1         -6.71766132          1.20273173         -3.53862793
     1         -6.12393540         -1.56777773          4.05149798
     1         -8.76075580         -0.56158314          0.28124808
     6          1.00210669          1.05288898          4.51981210
     1          0.04210786          2.89495944          4.54141917
     1          2.18510628          0.95890541          6.21432996
     6         -1.00259930         -1.05286722          4.51970792
     1         -0.04260283         -2.89493759          4.54142849
     1         -2.18578358         -0.95887739          6.21409638
     6          1.89110795         -2.19743432         -4.42465704
     1          3.05750280         -3.85927109         -4.82317996
     1          0.04766681          2.83911388         -4.13751424
     1          1.92437667         -1.01902591         -6.12611644
     6         -1.89062380          2.19741302         -4.42487370
     1         -3.05697709          3.85924787         -4.82353363
     1         -0.04721586         -2.83913380         -4.13750574
     1         -1.92370708          1.01899642         -6.12633105

 Electric dipole moment (dipole orientation):
 (Debye = 10**-18 statcoulomb cm , SI units = C m)
                  (au)            (Debye)         (10**-30 SI)
   Tot        0.104225D-01      0.264915D-01      0.883660D-01
   x          0.000000D+00      0.000000D+00      0.000000D+00
   y          0.000000D+00      0.000000D+00      0.000000D+00
   z          0.104225D-01      0.264915D-01      0.883660D-01

 Dipole polarizability, Alpha (dipole orientation).
 (esu units = cm**3 , SI units = C**2 m**2 J**-1)
 Alpha(0;0):
               (au)            (10**-24 esu)      (10**-40 SI)
   iso        0.163837D+03      0.242782D+02      0.270131D+02
   aniso      0.115831D+03      0.171644D+02      0.190980D+02
   xx         0.222962D+03      0.330395D+02      0.367614D+02
   yx         0.299294D+01      0.443509D+00      0.493470D+00
   yy         0.913615D+02      0.135384D+02      0.150635D+02
   zx         0.248409D-02      0.368104D-03      0.409571D-03
   zy         0.361842D-03      0.536194D-04      0.596596D-04
   zz         0.177189D+03      0.262567D+02      0.292145D+02

 ----------------------------------------------------------------------
 Unable to Open any file for archive entry.
 1\1\GINC-A001\Freq\RB3LYP\6-31G(d,p)\C16H16\DJO04747\20-May-2025\0\\#P
  Geom=AllCheck Guess=TCheck SCRF=Check GenChk RB3LYP/6-31G(d,p) Freq\\
 Title Card Required\\0,1\C,2.77195,1.215453,-0.514136\C,1.386222,1.155
 436,-0.394829\C,0.747086,-0.049596,-0.001536\C,1.549264,-1.128308,0.44
 1349\C,2.943665,-1.035774,0.306211\C,3.555052,0.104396,-0.19998\H,3.24
 0485,2.144135,-0.829815\H,3.55497,-1.872366,0.636269\H,4.635968,0.1490
 82,-0.297431\C,-0.747086,-0.049596,0.001536\C,-1.549264,-1.128308,-0.4
 41349\C,-1.386222,1.155436,0.394829\C,-2.943665,-1.035774,-0.306211\C,
 -2.771951,1.215452,0.514136\C,-3.555052,0.104396,0.199979\H,-3.55497,-
 1.872366,-0.636269\H,-3.240485,2.144135,0.829814\H,-4.635968,0.149082,
 0.29743\C,0.530392,2.391754,-0.557188\H,0.02233,2.403218,-1.531942\H,1
 .15646,3.28842,-0.507486\C,-0.530392,2.391754,0.557188\H,-0.02233,2.40
 3218,1.531942\H,-1.15646,3.28842,0.507487\C,1.000667,-2.341485,1.16277
 2\H,1.617933,-2.55241,2.042144\H,0.025023,-2.189476,-1.502401\H,1.0181
 89,-3.241858,0.539182\C,-1.000666,-2.341485,-1.162772\H,-1.617933,-2.5
 52411,-2.042144\H,-0.025023,-2.189476,1.502401\H,-1.018188,-3.241858,-
 0.539182\\Version=ES64L-G16RevC.01\State=1-A\HF=-619.3833708\RMSD=0.00
 0e+00\RMSF=2.787e-07\ZeroPoint=0.2733885\Thermal=0.2863062\ETot=-619.0
 970646\HTot=-619.0961204\GTot=-619.1482068\Dipole=0.0000006,0.0104225,
 0.\DipoleDeriv=-0.0748119,0.1125833,-0.0395833,0.1060556,0.0129848,-0.
 0523812,-0.0465815,-0.0666207,-0.1038231,-0.0350422,-0.122747,0.025018
 7,-0.0928505,0.1251233,-0.014237,0.0209782,-0.0301962,-0.0455698,0.212
 8439,-0.0276017,0.0312612,0.0243698,-0.1390283,0.0272661,0.0816268,0.0
 482835,-0.0578173,-0.0199753,0.0895573,-0.0711323,-0.0181913,0.1654894
 ,-0.1427946,-0.0830511,-0.1337669,0.0366997,-0.0622756,-0.128138,0.074
 3049,-0.1119393,-0.0300495,-0.0298857,0.0652953,-0.0239996,-0.1312058,
 0.0698586,-0.0080275,-0.0157331,0.0108475,-0.0148767,-0.0395439,-0.041
 036,-0.0239059,-0.0765114,0.0237549,-0.0433831,0.0204296,-0.0849945,-0
 .0830154,0.0646111,0.0418966,0.0412282,0.0840244,-0.0089321,0.0689158,
 -0.0242261,0.1045653,-0.0458776,0.0552543,-0.0258487,0.0714041,0.06689
 03,-0.1417521,-0.0050738,0.0260873,-0.0057135,0.061052,0.0165077,0.018
 4635,0.0160658,0.0973555,0.2128441,0.0276019,0.0312613,-0.0243699,-0.1
 390287,-0.0272661,0.0816273,-0.0482836,-0.0578173,-0.0199751,-0.089557
 5,-0.0711324,0.0181919,0.1654897,0.1427946,-0.0830511,0.1337669,0.0366
 998,-0.0350427,0.1227473,0.0250188,0.0928503,0.1251233,0.014237,0.0209
 781,0.0301965,-0.0455697,-0.062276,0.128138,0.0743049,0.1119387,-0.030
 0497,0.0298856,0.0652957,0.0239997,-0.1312059,-0.0748117,-0.1125838,-0
 .0395833,-0.1060559,0.0129852,0.0523812,-0.0465804,0.0666198,-0.103823
 5,0.0698591,0.0080276,-0.015733,-0.0108472,-0.0148766,0.0395439,-0.041
 0375,0.0239061,-0.0765111,-0.0089322,-0.0689158,-0.0242261,-0.1045651,
 -0.0458775,-0.0552542,-0.0258488,-0.0714042,0.0668902,0.0237549,0.0433
 831,0.0204296,0.0849948,-0.0830158,-0.0646113,0.0418961,-0.0412278,0.0
 840245,-0.1417523,0.0050738,0.0260872,0.0057133,0.0610521,-0.0165076,0
 .0184641,-0.0160658,0.0973554,0.0959931,0.060515,0.0406379,0.0341781,0
 .105297,-0.009661,-0.0234143,-0.0430177,0.1248033,-0.0150357,0.0872211
 ,-0.0911757,0.0547678,0.0015336,-0.0062168,-0.0528423,0.0222969,-0.108
 2216,-0.0710883,-0.1352986,0.0139889,-0.061537,-0.1011154,0.0113973,0.
 0201329,0.0004303,0.0474279,0.0959928,-0.060515,0.0406379,-0.0341781,0
 .1052974,0.0096611,-0.0234142,0.0430176,0.1248031,-0.0150357,-0.087221
 1,-0.0911758,-0.0547679,0.0015335,0.0062168,-0.0528423,-0.0222969,-0.1
 082217,-0.0710883,0.1352986,0.013989,0.061537,-0.1011155,-0.0113973,0.
 020133,-0.0004304,0.0474279,0.0412415,0.0284625,0.0086918,-0.0282489,0
 .0105314,0.0555517,0.0090727,0.0418587,0.0898201,-0.0298219,0.0262486,
 -0.1053036,-0.0008662,0.018353,0.0369894,-0.0698497,0.0791926,-0.06922
 7,-0.0633371,0.0345961,0.0688714,-0.0041404,0.0318998,0.0154093,0.0650
 711,0.0098377,0.0565404,0.0783809,-0.0558732,0.0378621,-0.0320524,-0.1
 183015,-0.0380945,0.020086,-0.075905,-0.0111854,0.0412411,-0.0284621,0
 .0086924,0.028249,0.0105315,-0.0555515,0.0090731,-0.0418582,0.0898206,
 -0.0298221,-0.0262489,-0.1053038,0.0008661,0.0183529,-0.0369896,-0.069
 8498,-0.0791929,-0.0692274,-0.0633376,-0.0345962,0.0688716,0.0041405,0
 .0318999,-0.0154094,0.0650713,-0.0098377,0.0565404,0.0783808,0.0558733
 ,0.037862,0.0320526,-0.1183015,0.0380946,0.020086,0.0759051,-0.0111855
 \Polar=222.9613758,-0.0000031,177.1889671,-3.0001154,0.0000078,91.3618
 529\Quadrupole=1.3591228,2.9959078,-4.3550307,-0.0000003,0.3129596,-0.
 0000006\PG=C01 [X(C16H16)]\NImag=0\\0.68325135,0.00527929,0.67888599,-
 0.04313062,-0.17360103,0.18363603,-0.33620968,-0.04386989,0.03530559,0
 .69464162,0.02103142,-0.11888217,0.01876389,-0.00467285,0.56944554,0.0
 1506876,0.02078911,-0.07006860,-0.04346035,-0.10536704,0.20635813,-0.0
 2186329,-0.02821114,0.00922060,-0.14948878,-0.07915507,0.03473362,0.60
 727605,-0.06881529,0.02377839,-0.00391184,-0.03177940,-0.22900201,0.04
 280996,-0.02224854,0.59038802,0.02686476,-0.00449023,0.00739162,0.0131
 8427,0.05032488,-0.08070644,0.00379466,-0.13342757,0.20949173,-0.05599
 847,0.02757394,-0.00620652,0.06484916,0.02800780,-0.01720150,-0.174195
 59,0.04462729,-0.01926876,0.64223206,0.02197925,-0.01101076,0.00038965
 ,-0.01206023,-0.04678441,0.02189525,0.09217724,-0.20815311,0.05895656,
 -0.01649341,0.53802214,-0.00547301,0.00007530,-0.00507007,-0.00150080,
 0.01675445,-0.00189732,-0.04041914,0.07113746,-0.09031921,-0.02056434,
 -0.17473067,0.25736673,0.06336236,-0.01578017,0.00310619,-0.04697839,-
 0.02713968,0.01210795,-0.03385602,0.06379821,-0.02023910,-0.30887147,-
 0.03899239,0.03188741,0.66988448,0.03123585,-0.05160538,0.01978407,-0.
 02995433,-0.01804657,0.00676381,0.02204182,0.03212884,-0.01026284,0.02
 497360,-0.11330283,0.01944581,-0.02611977,0.64440271,-0.01373783,0.022
 55937,-0.00033709,0.01397611,0.00659902,-0.00835888,-0.00876038,-0.013
 85426,0.01118692,0.00761432,0.02245869,-0.07476591,-0.02602047,-0.2219
 1481,0.22501927,-0.19418784,0.12955422,-0.03390547,-0.03622134,0.02382
 778,-0.00466954,0.00147613,0.00401642,-0.00116082,-0.01808475,-0.02849
 019,0.01437277,-0.17158139,-0.11264096,0.05261394,0.74098920,0.0654676
 9,-0.25814216,0.05812566,0.07102031,0.03483852,-0.01413172,0.00218168,
 -0.05688320,0.01882647,-0.07695941,0.02198853,-0.00147175,-0.04913764,
 -0.26931925,0.09456864,-0.00879170,0.61439018,-0.01224154,0.05735483,-
 0.07436236,-0.02187667,-0.01165648,0.01050434,-0.00219816,0.01945556,-
 0.01146433,0.03185209,-0.00485985,0.00491534,0.02724428,0.09454646,-0.
 09885869,-0.04976289,-0.18011346,0.19878816,-0.10986203,-0.10046752,0.
 03675224,-0.01009845,-0.02780609,0.00973159,-0.00523446,0.00160793,0.0
 0016253,-0.00092797,0.00065718,-0.00017157,-0.00161898,0.00306021,-0.0
 0046555,0.01169516,0.01647696,-0.00578187,0.11407828,-0.10034676,-0.25
 818257,0.07478717,-0.00007233,-0.00039374,0.00080574,0.00026680,0.0023
 6268,0.00137007,0.00096424,0.00002933,-0.00035852,0.00436465,-0.001668
 95,0.00223372,-0.01411030,-0.01659676,0.00672403,0.10855270,0.27313455
 ,0.03867245,0.07331623,-0.05922425,-0.00188410,0.00118117,0.00236889,0
 .00072033,0.00292713,0.00583051,0.00118812,-0.00088208,-0.00036051,-0.
 00124961,0.00213323,0.00618137,0.00302034,0.00612997,-0.00046254,-0.03
 955144,-0.08312976,0.05291388,-0.00054782,-0.00241807,0.00139570,-0.00
 062048,-0.00084063,0.00030897,-0.00523419,-0.00192860,0.00138816,-0.01
 414322,0.02541403,-0.01033273,-0.14545356,0.11934635,-0.04456348,0.011
 33329,-0.01241926,0.00476023,0.00039245,-0.00071140,0.00008417,0.15311
 903,-0.00399536,-0.00144761,0.00412015,-0.00020070,0.00029434,-0.00039
 802,-0.00052495,0.00140210,0.00218281,-0.00352307,0.00338873,-0.000161
 26,0.12043165,-0.21586101,0.07272973,0.01703173,-0.01677504,0.00701555
 ,0.00080523,-0.00092491,0.00029360,-0.12829945,0.22902543,0.00158546,0
 .00417889,0.00538180,0.00160692,0.00032360,-0.00096949,0.00147442,0.00
 041405,0.00584770,-0.00082838,-0.00069993,0.00256011,-0.04312559,0.074
 77157,-0.06523647,-0.00852474,0.00677412,-0.00030795,-0.00050873,0.000
 70370,0.00029538,0.04827403,-0.08197569,0.05804798,-0.01322109,-0.0039
 7369,0.00235964,0.00049099,0.00356720,-0.00046741,0.00062650,0.0000761
 4,-0.00009165,0.00141923,-0.00211534,0.00145267,-0.00987985,0.00219995
 ,-0.00010675,-0.33500577,-0.01062246,0.02654312,0.00084004,0.00012228,
 -0.00040926,0.00086912,-0.00039068,-0.00022560,0.35541492,0.02594504,0
 .00584795,-0.00294894,0.00236402,-0.00357308,0.00316106,0.00003493,-0.
 00118990,0.00015116,-0.00108689,-0.00282511,0.00451500,-0.02729101,0.0
 0375506,0.00109323,-0.01074201,-0.05766045,0.00921683,-0.00059573,0.00
 059789,-0.00130445,0.00031292,0.00023274,-0.00177957,0.01137945,0.0545
 7096,-0.00770466,-0.00156913,0.00321690,-0.00044259,0.00273636,0.00619
 079,-0.00022689,0.00023245,-0.00096572,0.00070648,0.00481854,0.0057083
 7,0.01175433,-0.00022395,0.00149902,0.02574116,0.00924896,-0.04028399,
 -0.00007627,-0.00125719,-0.00317500,-0.00037240,-0.00186445,-0.0031931
 1,-0.02914490,-0.01180459,0.03157569,0.00504563,-0.00202868,0.00083896
 ,-0.02590880,-0.01967931,0.00099208,-0.19808377,-0.00068260,-0.0007736
 9,-0.02287710,0.01347925,-0.00047561,0.00294732,0.00191787,-0.00069770
 ,-0.00123637,0.00100688,-0.00024438,0.00005420,0.00046330,0.00020796,0
 .00004075,-0.00033386,0.00009430,0.00006556,0.00001519,-0.00000637,0.6
 0727605,-0.00104589,-0.00460883,0.00419556,-0.02996929,0.00478306,0.00
 069779,0.00068258,-0.10157453,0.00047432,0.02538503,0.00471350,-0.0017
 5529,0.00184169,-0.00279154,0.00462803,0.00045877,-0.00067545,-0.00035
 301,-0.00161513,-0.00000844,0.00032064,0.00137623,0.00012380,-0.000219
 99,-0.00005531,0.00004940,-0.00038155,0.02224860,0.59038801,0.00027372
 ,0.00272649,0.00548448,0.00928330,0.00191061,0.00364664,-0.00077370,-0
 .00047431,-0.06616118,-0.00686462,-0.00172947,0.00319925,-0.00050954,0
 .00445204,0.00482929,0.00065353,-0.00001717,-0.00080114,0.00031513,0.0
 0007608,0.00017524,-0.00055536,-0.00003857,0.00047568,-0.00008588,-0.0
 0042010,-0.00092383,0.00379467,0.13342756,0.20949173,-0.00054993,-0.00
 105074,0.00086490,-0.00313577,0.00413569,-0.00067416,-0.02287709,-0.02
 538503,-0.00686462,0.00311641,-0.00199485,0.00028431,-0.00111825,-0.00
 012901,0.00084019,0.00056769,0.00019465,-0.00032461,-0.00044224,-0.000
 09294,0.00010413,-0.00002855,0.00003595,0.00009608,-0.00003909,-0.0000
 0747,-0.00012827,-0.17419559,-0.04462732,-0.01926876,0.64223207,-0.001
 76130,0.00078055,-0.00064666,0.00475681,0.00214670,-0.00029186,-0.0134
 7924,0.00471351,0.00172947,0.00199486,-0.00187281,-0.00064276,0.000400
 07,-0.00018937,-0.00032670,0.00082070,-0.00089574,0.00036414,0.0001809
 5,0.00008229,-0.00001392,0.00017759,-0.00001529,0.00002753,0.00001990,
 -0.00002678,0.00003463,-0.09217728,-0.20815311,-0.05895656,0.01649354,
 0.53802182,0.00007554,0.00043718,-0.00011110,0.00154118,0.00128092,0.0
 0020630,-0.00047561,0.00175530,0.00319925,0.00028431,0.00064276,-0.000
 79601,0.00052052,-0.00045364,-0.00036997,-0.00012578,-0.00035629,0.000
 09923,0.00015647,-0.00005472,-0.00010987,0.00015533,-0.00003128,-0.000
 03697,0.00002349,0.00002395,0.00011203,-0.04041915,-0.07113745,-0.0903
 1919,-0.02056427,0.17473043,0.25736657,-0.00043962,-0.00008296,-0.0005
 8664,0.00022322,0.00169853,-0.00112292,-0.02590880,0.02996929,0.009283
 29,-0.00313577,-0.00475681,0.00154118,-0.00094591,0.00000800,-0.001206
 24,-0.00014032,0.00026196,0.00011610,0.00001435,0.00008089,-0.00008411
 ,-0.00046516,0.00011690,0.00007211,0.00003976,-0.00005106,0.00012508,-
 0.14948881,0.03177940,0.01318428,0.06484916,0.01206023,-0.00150079,0.6
 9463934,0.00083694,-0.00107577,0.00041661,-0.00169853,-0.00312972,-0.0
 0088754,0.01967932,0.00478306,-0.00191061,-0.00413569,0.00214670,-0.00
 128092,0.00083735,0.00039537,-0.00033293,-0.00066328,0.00005893,0.0001
 5693,-0.00021513,0.00008320,0.00011368,-0.00016825,0.00004259,0.000134
 52,0.00004659,-0.00009894,0.00000020,0.07915504,-0.22900202,-0.0503248
 7,-0.02800779,-0.04678440,-0.01675446,0.00467312,0.56944574,0.00002138
 ,-0.00045916,-0.00028544,-0.00112292,0.00088753,0.00027621,0.00099209,
 -0.00069779,0.00364665,-0.00067416,0.00029187,0.00020630,-0.00055016,-
 0.00010172,0.00010963,0.00004637,0.00008846,-0.00023809,-0.00029385,-0
 .00002437,0.00004294,-0.00009229,-0.00001086,0.00005064,0.00000141,0.0
 0003964,0.00012539,0.03473363,-0.04280995,-0.08070646,-0.01720150,-0.0
 2189524,-0.00189732,-0.04346009,0.10536704,0.20635826,0.00013259,0.000
 04801,0.00028852,-0.00094591,-0.00083735,-0.00055016,0.00294732,-0.001
 84169,-0.00050954,-0.00111825,-0.00040007,0.00052052,0.00052803,0.0002
 5649,-0.00003893,-0.00024022,-0.00011734,0.00012475,-0.00002748,0.0000
 5602,0.00001862,-0.00002103,0.00001921,-0.00007166,0.00000826,0.000002
 92,-0.00002380,-0.03385600,-0.06379822,-0.02023910,-0.30887146,0.03899
 236,0.03188741,-0.04697840,0.02713967,0.01210794,0.66988456,-0.0002131
 4,0.00004398,0.00053998,-0.00000800,0.00039537,0.00010172,-0.00191787,
 -0.00279155,-0.00445203,0.00012902,-0.00018937,0.00045364,-0.00025649,
 0.00030649,0.00010562,0.00022830,-0.00008395,-0.00010498,-0.00004651,-
 0.00000941,0.00000267,-0.00006167,-0.00000514,0.00000626,-0.00001434,0
 .00000229,-0.00005012,-0.02204182,0.03212885,0.01026284,-0.02497358,-0
 .11330287,-0.01944584,0.02995435,-0.01804656,-0.00676381,0.02611934,0.
 64440349,-0.00011195,-0.00050430,-0.00009912,-0.00120624,0.00033293,0.
 00010963,-0.00069769,-0.00462803,0.00482929,0.00084019,0.00032670,-0.0
 0036997,-0.00003893,-0.00010562,-0.00023004,0.00014227,-0.00000456,0.0
 0006302,-0.00011590,-0.00001896,0.00001822,0.00003148,-0.00000627,-0.0
 0002680,-0.00001332,0.00001626,0.00001679,-0.00876039,0.01385425,0.011
 18691,0.00761433,-0.02245868,-0.07476592,0.01397610,-0.00659901,-0.008
 35888,-0.02602053,0.22191502,0.22501919,0.00034232,-0.00017958,-0.0001
 7141,-0.00043962,-0.00083694,0.00002138,0.00504562,0.00104589,0.000273
 73,-0.00054993,0.00176130,0.00007554,0.00013259,0.00021314,-0.00011195
 ,-0.00002726,0.00007619,-0.00004325,0.00007364,-0.00003426,0.00005661,
 0.00000386,-0.00005116,-0.00002527,-0.00001123,0.00000724,-0.00000343,
 -0.02186327,0.06881524,0.02686474,-0.05599847,-0.02197923,-0.00547301,
 -0.33620737,-0.02103168,0.01506854,0.06336238,-0.03123587,-0.01373780,
 0.68324943,0.00017958,0.00015965,-0.00006955,0.00008296,-0.00107577,0.
 00045917,0.00202868,-0.00460882,-0.00272649,0.00105074,0.00078056,-0.0
 0043718,-0.00004801,0.00004398,0.00050430,0.00001835,0.00012141,-0.000
 15267,0.00012326,0.00002756,0.00001042,0.00008863,0.00000631,0.0000170
 0,-0.00002768,0.00002541,-0.00003319,0.02821114,0.02377845,0.00449025,
 -0.02757399,-0.01101078,-0.00007531,0.04386960,-0.11888233,-0.02078906
 ,0.01578021,-0.05160550,-0.02255945,-0.00527753,0.67888799,-0.00017141
 ,0.00006955,-0.00057103,-0.00058664,-0.00041661,-0.00028545,0.00083896
 ,-0.00419556,0.00548449,0.00086490,0.00064666,-0.00011110,0.00028852,-
 0.00053998,-0.00009913,-0.00023231,-0.00012806,0.00016363,0.00002078,-
 0.00004581,0.00000367,0.00011222,0.00000483,-0.00004953,0.00000567,0.0
 0002594,0.00004492,0.00922058,0.00391187,0.00739162,-0.00620655,-0.000
 38967,-0.00507007,0.03530532,-0.01876386,-0.07006877,0.00310625,-0.019
 78410,-0.00033710,-0.04312959,0.17360146,0.18363605,-0.00002727,-0.000
 01835,-0.00023231,-0.00014032,0.00066327,0.00004637,-0.00123637,-0.000
 45877,0.00065353,0.00056769,-0.00082070,-0.00012578,-0.00024022,-0.000
 22830,0.00014227,-0.00013502,0.00013007,-0.00004249,-0.00005188,-0.000
 02759,0.00000265,-0.00004107,0.00003479,0.00002997,-0.00000921,0.00000
 240,0.00001301,0.00147613,-0.00401641,-0.00116082,-0.01808476,0.028490
 21,0.01437275,-0.03622132,-0.02382778,-0.00466957,-0.17158152,0.112641
 40,0.05261403,-0.19418853,-0.12955548,-0.03390599,0.74098992,-0.000076
 19,0.00012141,0.00012806,-0.00026196,0.00005892,-0.00008846,-0.0010068
 8,-0.00067545,0.00001717,-0.00019465,-0.00089574,0.00035629,0.00011734
 ,-0.00008395,0.00000456,-0.00013007,-0.00003689,0.00006137,-0.00003774
 ,0.00004145,-0.00001493,-0.00000339,0.00002601,-0.00002824,0.00000894,
 -0.00000266,-0.00000051,-0.00218169,-0.05688323,-0.01882648,0.07695945
 ,0.02198854,0.00147177,-0.07102033,0.03483850,0.01413171,0.04913805,-0
 .26931992,-0.09456881,-0.06546891,-0.25814376,-0.05812634,0.00879251,0
 .61439252,-0.00004325,0.00015267,0.00016363,0.00011610,-0.00015693,-0.
 00023809,-0.00024438,0.00035301,-0.00080114,-0.00032461,-0.00036415,0.
 00009923,0.00012475,0.00010498,0.00006302,-0.00004249,-0.00006137,0.00
 001930,0.00001700,0.00001453,-0.00000932,-0.00001011,0.00000916,-0.000
 01634,-0.00000261,-0.00000402,-0.00001649,-0.00219816,-0.01945557,-0.0
 1146434,0.03185210,0.00485984,0.00491535,-0.02187669,0.01165649,0.0105
 0434,0.02724434,-0.09454663,-0.09885861,-0.01224203,-0.05735553,-0.074
 36236,-0.04976244,0.18011432,0.19878813,0.00000386,-0.00008863,0.00011
 222,-0.00046516,0.00016825,-0.00009229,0.00004075,-0.00137623,-0.00055
 536,-0.00002855,-0.00017759,0.00015533,-0.00002103,0.00006167,0.000031
 48,-0.00004107,0.00000339,-0.00001011,-0.00005721,-0.00001190,0.000017
 22,-0.00004237,0.00001256,-0.00000563,-0.00001222,-0.00000085,-0.00001
 085,-0.00523419,0.00192860,0.00138816,-0.01414322,-0.02541403,-0.01033
 274,-0.00062048,0.00084063,0.00030897,-0.14545357,-0.11934634,-0.04456
 349,-0.00054781,0.00241807,0.00139569,0.01133329,0.01241927,0.00476024
 ,0.15311902,0.00005116,0.00000631,-0.00000483,-0.00011690,0.00004259,0
 .00001086,0.00033386,0.00012380,0.00003857,-0.00003595,-0.00001529,0.0
 0003128,-0.00001921,-0.00000514,0.00000627,-0.00003479,0.00002601,-0.0
 0000916,-0.00000229,-0.00001560,-0.00000334,-0.00001256,0.00000933,-0.
 00000018,-0.00001051,0.00000147,-0.00000087,0.00052495,0.00140210,-0.0
 0218281,0.00352307,0.00338873,0.00016126,0.00020070,0.00029434,0.00039
 802,-0.12043161,-0.21586101,-0.07272973,0.00399536,-0.00144761,-0.0041
 2014,-0.01703175,-0.01677505,-0.00701557,0.12829943,0.22902545,-0.0000
 2527,-0.00001700,-0.00004953,0.00007211,-0.00013452,0.00005064,0.00009
 430,0.00021999,0.00047568,0.00009608,-0.00002753,-0.00003697,-0.000071
 66,-0.00000626,-0.00002680,0.00002997,0.00002824,-0.00001634,-0.000003
 38,0.00001313,0.00000074,-0.00000563,0.00000018,0.00000809,-0.00000173
 ,0.00000389,0.00000232,0.00147442,-0.00041406,0.00584771,-0.00082838,0
 .00069993,0.00256010,0.00160692,-0.00032359,-0.00096949,-0.04312560,-0
 .07477157,-0.06523647,0.00158545,-0.00417889,0.00538180,-0.00852473,-0
 .00677412,-0.00030795,0.04827404,0.08197569,0.05804797,0.00007364,-0.0
 0012326,0.00002078,0.00001435,0.00021513,-0.00029385,0.00005420,0.0016
 1513,0.00031513,-0.00044224,-0.00018095,0.00015647,-0.00002748,0.00004
 651,-0.00011590,-0.00005188,0.00003774,0.00001700,-0.00003567,-0.00001
 577,0.00000527,-0.00005721,0.00000229,-0.00000338,-0.00000096,-0.00000
 905,0.00000737,-0.00523447,-0.00160793,0.00016253,-0.00092797,-0.00065
 718,-0.00017158,-0.01009849,0.02780612,0.00973158,-0.00161898,-0.00306
 021,-0.00046555,-0.10986179,0.10046728,0.03675200,0.01169517,-0.016476
 96,-0.00578186,0.00039245,-0.00080523,-0.00050873,0.11407807,0.0000342
 6,0.00002756,0.00004581,-0.00008089,0.00008320,0.00002437,-0.00046330,
 -0.00000844,-0.00007608,0.00009294,0.00008229,0.00005472,-0.00005602,-
 0.00000941,0.00001896,0.00002759,0.00004145,-0.00001453,0.00001577,0.0
 0001245,-0.00000452,0.00001190,-0.00001560,-0.00001313,0.00000748,0.00
 000011,-0.00001173,-0.00026680,0.00236267,-0.00137006,-0.00096423,0.00
 002933,0.00035852,0.00007234,-0.00039375,-0.00080575,-0.00436465,-0.00
 166894,-0.00223373,0.10034652,-0.25818274,-0.07478694,0.01411031,-0.01
 659673,-0.00672400,0.00071140,-0.00092491,-0.00070370,-0.10855248,0.27
 313469,0.00005661,-0.00001042,0.00000367,-0.00008411,-0.00011368,0.000
 04294,0.00020796,-0.00032064,0.00017523,0.00010413,0.00001392,-0.00010
 987,0.00001862,-0.00000267,0.00001822,0.00000265,0.00001493,-0.0000093
 2,0.00000527,0.00000452,0.00000321,0.00001722,0.00000334,0.00000074,0.
 00000412,0.00000097,-0.00000372,0.00072034,-0.00292713,0.00583051,0.00
 118812,0.00088208,-0.00036051,-0.00188407,-0.00118119,0.00236889,-0.00
 124963,-0.00213324,0.00618138,0.03867218,-0.07331593,-0.05922409,0.003
 02035,-0.00613000,-0.00046255,0.00008417,-0.00029360,0.00029538,-0.039
 55120,0.08312951,0.05291374,-0.00001123,0.00002768,0.00000567,0.000039
 76,-0.00004659,0.00000141,0.00006556,0.00005531,-0.00008588,-0.0000390
 9,-0.00001990,0.00002349,0.00000826,0.00001434,-0.00001332,-0.00000921
 ,-0.00000894,-0.00000261,-0.00000096,-0.00000748,0.00000412,-0.0000122
 2,0.00001051,-0.00000173,-0.00001385,0.00000190,0.00000026,0.00062650,
 -0.00007614,-0.00009164,0.00141923,0.00211534,0.00145266,0.00049100,-0
 .00356720,-0.00046741,-0.00987987,-0.00219994,-0.00010675,-0.01322115,
 0.00397367,0.00235964,-0.33500569,0.01062245,0.02654308,0.00086912,0.0
 0039067,-0.00022560,0.00084005,-0.00012228,-0.00040926,0.35541490,-0.0
 0000724,0.00002541,-0.00002594,0.00005106,-0.00009894,-0.00003964,-0.0
 0001519,0.00004940,0.00042010,0.00000747,-0.00002678,-0.00002395,-0.00
 000292,0.00000229,-0.00001626,-0.00000240,-0.00000266,0.00000402,0.000
 00905,0.00000011,-0.00000097,0.00000085,0.00000147,-0.00000389,-0.0000
 0190,0.00000396,-0.00000043,-0.00003493,-0.00118990,-0.00015116,0.0010
 8690,-0.00282511,-0.00451499,-0.00236402,-0.00357306,-0.00316107,0.027
 29103,0.00375506,-0.00109323,-0.02594508,0.00584794,0.00294893,0.01074
 200,-0.05766048,-0.00921682,-0.00031292,0.00023275,0.00177957,0.000595
 73,0.00059789,0.00130446,-0.01137943,0.05457099,-0.00000343,0.00003319
 ,0.00004492,0.00012509,-0.00000020,0.00012539,-0.00000637,0.00038155,-
 0.00092384,-0.00012827,-0.00003463,0.00011203,-0.00002380,0.00005012,0
 .00001679,0.00001301,0.00000051,-0.00001649,0.00000737,0.00001173,-0.0
 0000372,-0.00001085,0.00000087,0.00000232,0.00000026,0.00000043,-0.000
 00140,-0.00022689,-0.00023245,-0.00096572,0.00070648,-0.00481853,0.005
 70837,-0.00044259,-0.00273638,0.00619080,0.01175431,0.00022395,0.00149
 903,-0.00770471,0.00156910,0.00321693,0.02574119,-0.00924894,-0.040284
 04,-0.00037239,0.00186445,-0.00319311,-0.00007626,0.00125719,-0.003175
 01,-0.02914487,0.01180460,0.03157571,-0.01984843,0.02906927,-0.0054360
 4,-0.12340909,0.04639435,-0.01034806,0.01314187,-0.00352036,0.00111423
 ,-0.00076265,-0.00429602,0.00288287,-0.00192690,0.00003661,-0.00007072
 ,-0.00345929,-0.00145042,0.00141479,0.00105667,0.00112825,-0.00069294,
 0.00012825,0.00003834,0.00000493,-0.00055274,0.00091539,-0.00047888,0.
 00034718,0.00110804,0.00070840,-0.00109488,-0.00035945,0.00025399,-0.0
 2208902,-0.01097566,0.01584571,0.00070335,-0.00009782,-0.00013495,-0.0
 0028565,-0.00235258,-0.00046719,-0.00069172,0.00078169,-0.00045479,-0.
 00000976,0.00001368,-0.00008767,0.00019254,-0.00006240,0.00038135,-0.0
 0010199,-0.00014103,-0.00000604,0.51376095,0.00577458,0.00110944,-0.00
 152328,0.05379398,-0.16659200,0.01791898,0.01336642,-0.02830698,0.0075
 5010,-0.00376965,-0.00129624,0.00180159,-0.00049545,-0.00042585,-0.000
 05939,-0.00250962,0.00140499,-0.00026469,-0.00222085,0.00071701,0.0003
 4849,0.00004897,0.00001027,-0.00006040,-0.00058055,0.00063410,0.000075
 70,0.00097759,-0.00191005,0.00015856,0.00005897,0.00062451,-0.00042509
 ,-0.02228447,-0.00156581,0.02129113,-0.00034426,-0.00038877,0.00008212
 ,-0.00068608,-0.00401784,-0.00066991,-0.00066472,0.00058086,-0.0010800
 6,0.00006398,-0.00002728,0.00010070,-0.00022588,0.00000681,0.00048178,
 -0.00023195,-0.00022356,-0.00017087,0.06847944,0.54973285,0.00000553,-
 0.00117024,0.00553975,-0.00600904,0.00956821,-0.07269444,-0.00305553,0
 .00902965,0.00027110,0.00065077,0.00288353,0.00525355,-0.00007110,0.00
 044639,-0.00104704,0.00158877,0.00154345,0.00776128,-0.00047001,-0.001
 90061,-0.00405638,-0.00004170,-0.00047728,-0.00087616,0.00016659,-0.00
 015555,0.00020985,-0.00097252,-0.00418173,-0.00276903,0.00071289,0.000
 89489,-0.00004931,0.00310420,0.00641424,0.00327155,-0.00111129,-0.0000
 8108,0.00023256,-0.00069510,-0.00124381,-0.00022557,-0.00036871,-0.000
 78426,-0.00073701,-0.00005787,-0.00009375,0.00010030,0.00015161,-0.000
 21204,0.00021059,-0.00015232,-0.00009454,-0.00010723,0.05215699,-0.010
 35187,0.50530284,-0.00010349,0.00229843,-0.00013285,-0.01100310,0.0023
 0926,-0.01536636,-0.00062263,-0.00113933,0.00074652,-0.00077930,0.0005
 4037,0.00054758,0.00018131,0.00032182,-0.00021416,-0.00009604,0.000319
 56,0.00119842,-0.00018308,-0.00022907,-0.00063245,-0.00000696,-0.00003
 253,-0.00016134,-0.00014277,0.00010276,-0.00005773,0.00029035,-0.00012
 615,-0.00065071,-0.00005104,-0.00021705,-0.00006857,0.00204812,0.00084
 084,0.00023877,0.00014342,-0.00007231,0.00001105,-0.00023315,0.0001338
 7,0.00009498,0.00008345,0.00010140,0.00009271,0.00001801,0.00001685,-0
 .00001136,0.00003354,-0.00002195,0.00000144,0.00001699,0.00002488,-0.0
 0003072,-0.10058552,-0.00272332,-0.10749515,0.11142073,-0.00062313,-0.
 00105473,0.00034108,0.01390430,0.00032758,0.02409687,0.00048236,-0.001
 06889,-0.00017822,-0.00012072,-0.00009389,-0.00120175,0.00074282,-0.00
 003533,0.00013049,0.00016286,-0.00100308,-0.00072220,0.00019503,0.0002
 9427,0.00025215,-0.00000048,0.00002513,0.00006617,0.00013015,-0.000125
 84,0.00000661,0.00069809,0.00042471,0.00049087,-0.00046982,-0.00026899
 ,-0.00021216,0.00006685,0.00004822,0.00075814,0.00023528,-0.00013289,-
 0.00003666,-0.00028522,0.00010831,0.00013260,0.00003788,0.00021909,0.0
 0007600,-0.00000324,0.00000795,-0.00000167,-0.00000349,-0.00001584,-0.
 00000350,0.00001934,0.00002475,-0.00001434,-0.00084983,-0.04937996,0.0
 0192320,-0.00173199,0.05034968,0.00128603,-0.00014450,-0.00041566,-0.0
 0231275,0.00278339,0.00079583,-0.00121097,0.00003146,0.00033743,0.0003
 9196,-0.00010884,-0.00006382,-0.00041248,-0.00038333,0.00013979,-0.000
 21122,0.00076425,-0.00033824,0.00004484,0.00002381,-0.00005742,-0.0000
 0066,0.00002528,0.00002457,-0.00001696,0.00006028,0.00004666,0.0003500
 2,0.00037998,0.00059504,-0.00011538,-0.00001503,0.00006301,-0.00120294
 ,-0.00133800,0.00053530,0.00016186,-0.00000823,-0.00002728,0.00024577,
 0.00010259,0.00024364,0.00007872,0.00011169,-0.00002266,0.00000300,0.0
 0000639,-0.00001234,-0.00003096,0.00000128,-0.00004104,0.00001133,0.00
 001414,-0.00000134,-0.10339523,-0.00081459,-0.24144256,0.11240941,-0.0
 0062188,0.26651662,0.00061163,0.00187899,-0.00035099,0.01077409,0.0177
 0006,0.00097139,-0.00314154,0.00219928,-0.00008019,0.00052210,0.000518
 97,-0.00064033,0.00010514,0.00024203,-0.00002728,0.00041836,-0.0001193
 5,0.00024742,-0.00008550,-0.00029662,-0.00003693,-0.00000588,-0.000036
 97,-0.00005511,0.00002961,-0.00003537,0.00003796,-0.00030113,-0.000046
 92,0.00044478,0.00010324,0.00019474,-0.00005588,-0.00250810,0.00128216
 ,0.00429674,-0.00014800,-0.00012998,0.00001082,-0.00002682,-0.00111939
 ,0.00003735,-0.00013217,0.00009544,-0.00037993,0.00000312,-0.00003995,
 0.00001574,0.00001363,-0.00001284,0.00014483,-0.00009255,-0.00007256,-
 0.00005260,-0.13426177,-0.12530689,-0.00853229,-0.00823264,-0.01167041
 ,-0.00050908,0.14797800,-0.00256337,0.00128842,0.00044856,-0.01512940,
 -0.02316560,-0.00086764,0.00387674,-0.00253457,-0.00002246,-0.00138860
 ,-0.00048047,0.00073170,0.00019242,0.00024379,-0.00023783,0.00036428,-
 0.00005691,0.00047679,0.00118604,0.00050988,-0.00065989,0.00007129,0.0
 0001378,-0.00009452,0.00001537,-0.00002167,-0.00004619,0.00074708,0.00
 039691,-0.00017811,-0.00015637,0.00001208,0.00005022,0.00019921,0.0005
 9444,-0.00047477,0.00003768,0.00000006,0.00000666,0.00022443,0.0000208
 2,0.00017043,-0.00003753,-0.00001764,0.00001128,-0.00002203,-0.0000058
 3,-0.00000869,-0.00002134,0.00001867,-0.00001140,-0.00000163,0.0000062
 7,0.00000126,-0.12196729,-0.22228244,-0.01253760,0.00032862,0.00056589
 ,-0.00062876,0.13207300,0.24219203,0.00023220,-0.00044853,0.00012347,0
 .00061192,0.00493796,-0.00099931,-0.00027682,0.00017294,0.00077480,-0.
 00009116,0.00037409,0.00011664,0.00022465,-0.00004374,0.00008136,-0.00
 004723,-0.00006019,-0.00018209,0.00014926,-0.00002347,0.00026316,-0.00
 000511,0.00002168,0.00002153,0.00000273,-0.00002164,-0.00003112,-0.000
 01461,-0.00024226,0.00013234,0.00014904,0.00010018,0.00009676,0.003104
 23,-0.00163218,-0.00357289,-0.00009615,0.00017251,0.00001842,0.0006541
 0,0.00132316,0.00053596,0.00026383,-0.00039464,0.00017249,-0.00000800,
 0.00001941,0.00000037,-0.00002616,-0.00000183,-0.00013276,0.00008309,0
 .00010092,0.00000451,-0.00912255,-0.01417336,-0.05035479,-0.01628840,-
 0.02391131,-0.00079784,0.00822136,0.01273420,0.05064456,-0.00028566,0.
 00235258,-0.00046719,-0.02208902,0.01097564,0.01584572,0.00034718,-0.0
 0110804,0.00070840,-0.00109488,0.00035945,0.00025399,0.00070335,0.0000
 9782,-0.00013495,-0.00069172,-0.00078169,-0.00045479,0.00019254,0.0000
 6240,0.00038135,-0.00000976,-0.00001368,-0.00008767,-0.00010199,0.0001
 4103,-0.00000604,0.01314187,0.00352036,0.00111423,-0.00076265,0.004296
 02,0.00288287,-0.12340908,-0.04639437,-0.01034805,-0.00192689,-0.00003
 661,-0.00007072,-0.01984835,-0.02906921,-0.00543604,-0.00345929,0.0014
 5043,0.00141479,0.00012825,-0.00003834,0.00000493,0.00105667,-0.001128
 25,-0.00069294,-0.00055274,-0.00091538,-0.00047889,-0.11816083,-0.0001
 0982,0.05063781,0.00968980,-0.00112608,-0.00949121,-0.01267481,0.00198
 151,0.01380664,0.51376091,0.00068608,-0.00401784,0.00066991,0.02228448
 ,-0.00156580,-0.02129114,-0.00097759,-0.00191005,-0.00015856,-0.000058
 97,0.00062450,0.00042509,0.00034426,-0.00038878,-0.00008211,0.00066472
 ,0.00058086,0.00108006,0.00022588,0.00000682,-0.00048178,-0.00006398,-
 0.00002728,-0.00010070,0.00023195,-0.00022356,0.00017087,-0.01336642,-
 0.02830698,-0.00755010,0.00376966,-0.00129624,-0.00180159,-0.05379396,
 -0.16659201,-0.01791899,0.00049545,-0.00042585,0.00005939,-0.00577454,
 0.00110946,0.00152328,0.00250962,0.00140498,0.00026469,-0.00004897,0.0
 0001027,0.00006040,0.00222085,0.00071702,-0.00034848,0.00058055,0.0006
 3410,-0.00007570,0.00010982,-0.08058846,-0.00044344,-0.00060433,-0.000
 08782,0.00015805,-0.01801828,0.00247593,0.02114130,-0.06847952,0.54973
 290,-0.00069509,0.00124381,-0.00022557,0.00310420,-0.00641424,0.003271
 55,-0.00097252,0.00418173,-0.00276903,0.00071289,-0.00089489,-0.000049
 31,-0.00111129,0.00008108,0.00023256,-0.00036872,0.00078427,-0.0007370
 1,0.00015160,0.00021204,0.00021059,-0.00005787,0.00009375,0.00010030,-
 0.00015231,0.00009454,-0.00010723,-0.00305552,-0.00902966,0.00027109,0
 .00065077,-0.00288354,0.00525355,-0.00600904,-0.00956822,-0.07269441,-
 0.00007110,-0.00044640,-0.00104705,0.00000553,0.00117025,0.00553972,0.
 00158877,-0.00154344,0.00776127,-0.00004170,0.00047728,-0.00087615,-0.
 00047000,0.00190060,-0.00405637,0.00016659,0.00015555,0.00020985,0.050
 63782,0.00044346,-0.13108596,0.02258440,-0.00113955,-0.02423711,-0.002
 65240,0.00005837,0.00151159,0.05215681,0.01035202,0.50530278,-0.000233
 15,-0.00013387,0.00009498,0.00204812,-0.00084084,0.00023877,0.00029035
 ,0.00012615,-0.00065071,-0.00005104,0.00021705,-0.00006857,0.00014342,
 0.00007231,0.00001105,0.00008345,-0.00010140,0.00009271,0.00003354,0.0
 0002195,0.00000144,0.00001801,-0.00001685,-0.00001136,0.00001699,-0.00
 002488,-0.00003072,-0.00062263,0.00113933,0.00074652,-0.00077930,-0.00
 054037,0.00054758,-0.01100310,-0.00230926,-0.01536635,0.00018131,-0.00
 032182,-0.00021416,-0.00010349,-0.00229843,-0.00013286,-0.00009604,-0.
 00031955,0.00119842,-0.00000696,0.00003253,-0.00016134,-0.00018308,0.0
 0022907,-0.00063245,-0.00014277,-0.00010276,-0.00005773,0.00968980,0.0
 0060433,0.02258440,-0.00300654,0.00057707,0.00416497,0.00108267,-0.000
 08101,-0.00094964,-0.10058552,0.00272332,-0.10749514,0.11142075,0.0002
 8522,0.00010832,-0.00013260,-0.00006685,0.00004822,-0.00075814,-0.0006
 9809,0.00042471,-0.00049087,0.00046982,-0.00026899,0.00021216,-0.00023
 528,-0.00013289,0.00003666,-0.00003788,0.00021909,-0.00007600,0.000003
 49,-0.00001584,0.00000350,0.00000324,0.00000795,0.00000167,-0.00001934
 ,0.00002475,0.00001434,-0.00048235,-0.00106889,0.00017822,0.00012072,-
 0.00009389,0.00120175,-0.01390430,0.00032757,-0.02409687,-0.00074282,-
 0.00003533,-0.00013049,0.00062313,-0.00105473,-0.00034108,-0.00016286,
 -0.00100308,0.00072220,0.00000048,0.00002513,-0.00006617,-0.00019503,0
 .00029427,-0.00025215,-0.00013015,-0.00012584,-0.00000661,0.00112609,-
 0.00008782,0.00113955,-0.00057707,0.00080613,0.00001785,0.00031383,0.0
 0001525,0.00024012,0.00084982,-0.04937994,-0.00192319,0.00173196,0.050
 34968,0.00024577,-0.00010259,0.00024364,-0.00120295,0.00133800,0.00053
 530,0.00035002,-0.00037998,0.00059504,-0.00011538,0.00001503,0.0000630
 1,0.00016186,0.00000823,-0.00002728,0.00007872,-0.00011169,-0.00002266
 ,-0.00003096,-0.00000128,-0.00004104,0.00000300,-0.00000639,-0.0000123
 4,0.00001133,-0.00001414,-0.00000134,-0.00121097,-0.00003146,0.0003374
 3,0.00039195,0.00010884,-0.00006382,-0.00231275,-0.00278340,0.00079583
 ,-0.00041248,0.00038333,0.00013979,0.00128603,0.00014450,-0.00041566,-
 0.00021122,-0.00076425,-0.00033824,-0.00000066,-0.00002528,0.00002457,
 0.00004484,-0.00002381,-0.00005742,-0.00001696,-0.00006028,0.00004666,
 -0.00949121,-0.00015804,-0.02423711,0.00416497,-0.00001785,-0.00277144
 ,-0.00024926,0.00043043,0.00094732,-0.10339522,0.00081461,-0.24144254,
 0.11240941,0.00062185,0.26651660,-0.00002682,0.00111939,0.00003735,-0.
 00250810,-0.00128216,0.00429674,-0.00030113,0.00004692,0.00044478,0.00
 010324,-0.00019474,-0.00005588,-0.00014799,0.00012998,0.00001082,-0.00
 013217,-0.00009544,-0.00037992,0.00001363,0.00001284,0.00014483,0.0000
 0312,0.00003995,0.00001574,-0.00009255,0.00007256,-0.00005260,-0.00314
 155,-0.00219928,-0.00008020,0.00052210,-0.00051897,-0.00064033,0.01077
 410,-0.01770006,0.00097138,0.00010514,-0.00024203,-0.00002728,0.000611
 64,-0.00187898,-0.00035099,0.00041835,0.00011935,0.00024742,-0.0000058
 8,0.00003697,-0.00005511,-0.00008550,0.00029662,-0.00003693,0.00002961
 ,0.00003537,0.00003796,-0.01267479,0.01801827,-0.00265241,0.00108267,-
 0.00031383,-0.00024926,0.00011981,-0.00028418,-0.00052947,-0.13426180,
 0.12530693,-0.00853215,-0.00823265,0.01167044,-0.00050909,0.14797801,-
 0.00022443,0.00002082,-0.00017043,-0.00019921,0.00059444,0.00047478,-0
 .00074708,0.00039691,0.00017811,0.00015637,0.00001208,-0.00005022,-0.0
 0003768,0.00000006,-0.00000666,0.00003753,-0.00001764,-0.00001128,0.00
 002134,0.00001867,0.00001140,0.00002203,-0.00000583,0.00000869,0.00000
 163,0.00000627,-0.00000126,-0.00387674,-0.00253457,0.00002246,0.001388
 60,-0.00048047,-0.00073170,0.01512940,-0.02316560,0.00086763,-0.000192
 42,0.00024379,0.00023783,0.00256337,0.00128843,-0.00044856,-0.00036428
 ,-0.00005691,-0.00047679,-0.00007129,0.00001378,0.00009452,-0.00118604
 ,0.00050988,0.00065989,-0.00001537,-0.00002167,0.00004619,-0.00198153,
 0.00247594,-0.00005838,0.00008102,0.00001525,-0.00043043,0.00028418,0.
 00043194,-0.00038309,0.12196735,-0.22228252,0.01253744,-0.00032860,0.0
 0056587,0.00062876,-0.13207307,0.24219210,0.00065410,-0.00132316,0.000
 53596,0.00310423,0.00163218,-0.00357290,-0.00001461,0.00024226,0.00013
 234,0.00014904,-0.00010018,0.00009676,-0.00009615,-0.00017251,0.000018
 42,0.00026382,0.00039464,0.00017249,-0.00002616,0.00000183,-0.00013276
 ,-0.00000800,-0.00001941,0.00000037,0.00008309,-0.00010092,0.00000451,
 -0.00027682,-0.00017294,0.00077480,-0.00009116,-0.00037409,0.00011664,
 0.00061192,-0.00493796,-0.00099931,0.00022465,0.00004374,0.00008136,0.
 00023220,0.00044853,0.00012347,-0.00004724,0.00006019,-0.00018209,-0.0
 0000511,-0.00002168,0.00002153,0.00014925,0.00002347,0.00026316,0.0000
 0273,0.00002164,-0.00003112,0.01380662,-0.02114130,0.00151159,-0.00094
 964,-0.00024012,0.00094732,-0.00052947,0.00038309,0.00076653,-0.009122
 40,0.01417318,-0.05035474,-0.01628841,0.02391132,-0.00079784,0.0082212
 5,-0.01273403,0.05064452,-0.00010034,0.00027305,-0.00031297,-0.0027842
 4,0.00318937,0.00018233,0.01301695,0.01172752,-0.00566537,-0.10538504,
 -0.03290564,0.02125536,-0.01526021,-0.03250497,0.01617448,-0.00546181,
 0.00144628,-0.00044158,0.00016863,-0.00010464,0.00004651,0.00104539,-0
 .00112270,0.00095665,-0.00061917,-0.00129307,0.00046871,-0.00046091,0.
 00092766,-0.00071578,-0.00075702,0.00092229,-0.00138511,0.00022677,-0.
 00019849,-0.00009247,0.00033318,-0.00019984,0.00012644,-0.00039636,-0.
 00020183,-0.00000161,-0.00017124,0.00041887,0.00016097,-0.00001199,0.0
 0001162,-0.00009276,-0.00000976,-0.00000384,0.00001434,-0.00000497,-0.
 00000182,0.00001575,0.00098019,0.00090588,-0.00001737,-0.00000047,-0.0
 0002571,-0.00001171,-0.00022152,0.00037602,-0.00005836,0.00008106,-0.0
 0006695,-0.00014788,0.00001444,-0.00001678,0.00001351,-0.00003318,-0.0
 0000331,0.00002719,0.58858440,0.00117402,-0.00219237,0.00040274,0.0016
 8155,0.00036006,0.00357019,-0.00449844,-0.01936335,0.01305299,-0.03323
 022,-0.15713333,0.04694165,-0.01015659,-0.00437719,0.00670779,0.002260
 10,0.00539745,0.00136001,-0.00005857,-0.00005457,-0.00049159,0.0009541
 0,-0.00015927,-0.00207057,0.00030102,0.00036471,-0.00022391,-0.0023720
 9,-0.00039517,-0.00129039,0.00046596,0.00032373,0.00086158,0.00027531,
 -0.00049340,-0.00002473,0.00022253,-0.00016871,-0.00014335,-0.00032241
 ,-0.00016898,0.00009426,0.00003805,0.00026736,0.00007870,-0.00001921,0
 .00000772,0.00001278,-0.00002625,0.00000336,0.00000337,0.00000465,0.00
 000056,0.00000079,-0.00062801,-0.00010901,0.00004830,-0.00002987,0.000
 09873,-0.00001581,0.00007447,-0.00007251,-0.00006888,0.00005229,0.0001
 0755,-0.00011570,0.00001359,-0.00001400,0.00000534,-0.00000301,0.00001
 412,0.00000315,-0.02554356,0.50256084,-0.00204182,0.00034303,-0.000619
 59,-0.00017692,0.00289139,0.00533213,0.00427802,0.00673756,-0.00120829
 ,0.02352622,0.05682073,-0.10127073,0.00745775,0.00785548,-0.00124995,-
 0.00005329,-0.00079890,0.00484238,-0.00005451,-0.00011797,-0.00057611,
 -0.00138786,-0.00057632,-0.00158851,-0.00009704,-0.00002432,0.00017383
 ,-0.00052590,-0.00110818,-0.00257382,-0.00140449,0.00020466,-0.0006307
 5,0.00078315,-0.00037502,-0.00012678,0.00055179,-0.00028683,-0.0003079
 9,-0.00032873,-0.00018750,0.00008351,0.00012345,0.00033925,0.00014850,
 -0.00001547,-0.00001816,0.00001474,0.00002433,0.00001050,-0.00002508,-
 0.00001173,0.00001775,0.00000224,0.00054795,0.00058776,0.00018488,0.00
 000344,-0.00005603,0.00000104,-0.00016584,0.00020059,-0.00017600,0.000
 10448,-0.00001723,-0.00003955,0.00000381,0.00003394,0.00002668,0.00002
 249,0.00000300,0.00001345,0.00923873,0.02799493,0.52754659,0.00073472,
 -0.00071166,0.00039625,-0.00058581,-0.00073669,-0.00031380,-0.00085189
 ,-0.00023915,0.00056085,0.00734960,-0.00263300,0.01069098,-0.00065955,
 -0.00211523,0.00189766,0.00054150,0.00130383,-0.00014154,0.00000145,-0
 .00001046,-0.00013833,-0.00017461,-0.00009466,-0.00029949,0.00001392,0
 .00005471,-0.00006045,-0.00057832,0.00030778,0.00002616,-0.00010220,-0
 .00008195,-0.00048756,0.00030266,-0.00032121,-0.00016265,0.00041563,-0
 .00000742,-0.00015487,-0.00029814,-0.00006904,0.00001281,0.00001295,0.
 00026732,0.00013051,0.00001880,-0.00001128,-0.00000659,-0.00001017,0.0
 0002241,-0.00000836,-0.00002025,0.00001477,0.00001563,-0.00014607,-0.0
 0006545,-0.00005991,-0.00000499,0.00000900,0.00001008,0.00006616,-0.00
 001907,0.00001269,-0.00002435,-0.00000430,-0.00000280,0.00003352,0.000
 04871,0.00002437,0.00001931,0.00001739,-0.00000494,-0.13538496,0.02807
 974,-0.12050461,0.14416479,0.00011144,0.00002076,0.00016074,0.00062408
 ,-0.00102418,-0.00068991,-0.00313874,-0.00113508,0.00168352,0.01469782
 ,-0.01014388,0.02347545,0.00144562,0.00072574,-0.00064839,0.00012085,-
 0.00045425,-0.00046800,-0.00003798,0.00002429,0.00008231,-0.00031572,0
 .00059806,0.00019691,-0.00001396,0.00003702,0.00003020,-0.00001305,-0.
 00001897,0.00040056,0.00021807,-0.00041350,-0.00012046,-0.00009723,0.0
 0028082,0.00002819,-0.00017085,0.00013695,0.00011704,0.00017467,0.0000
 7763,0.00000862,0.00002863,-0.00015927,-0.00007250,0.00004678,0.000008
 56,0.00000878,0.00002210,-0.00000835,0.00000139,0.00000285,0.00000614,
 -0.00000009,-0.00036214,-0.00029910,-0.00007451,0.00000897,0.00000786,
 -0.00000296,0.00008109,-0.00014356,0.00004018,-0.00001506,0.00002904,0
 .00009406,-0.00001877,-0.00001860,-0.00001935,0.00001539,-0.00000852,-
 0.00002118,0.02801976,-0.05194758,0.03742899,-0.02716709,0.05994873,0.
 00033238,-0.00013182,-0.00009149,-0.00059704,0.00013177,0.00057736,0.0
 0182680,0.00059063,-0.00123578,-0.00782543,0.00411584,-0.01102449,-0.0
 0156741,0.00010792,0.00154626,0.00019322,0.00052175,0.00028114,0.00004
 756,-0.00006105,-0.00007605,0.00088432,-0.00047623,-0.00037101,0.00001
 654,-0.00000733,-0.00004479,0.00030352,-0.00016161,0.00001468,0.000201
 50,-0.00019774,0.00005003,-0.00016535,0.00004359,0.00005514,-0.0002139
 4,0.00008678,0.00016469,0.00011282,0.00007150,0.00001203,-0.00001988,-
 0.00013482,-0.00006187,-0.00000531,-0.00000708,-0.00000613,-0.00001169
 ,0.00001182,0.00000464,-0.00001524,0.00000697,-0.00000697,0.00020769,0
 .00011410,0.00002898,-0.00000003,-0.00001202,-0.00000523,-0.00003714,0
 .00007306,-0.00002527,0.00000744,-0.00003726,-0.00004644,0.00001314,-0
 .00000845,0.00000747,-0.00000917,0.00001166,0.00000643,-0.11974046,0.0
 3809136,-0.21640369,0.13220326,-0.04396584,0.23264339,-0.00003789,-0.0
 0000653,-0.00001183,0.00025235,0.00007276,-0.00015355,0.00050068,-0.00
 094932,-0.00062704,-0.00047436,0.00000504,-0.00080099,-0.00020599,-0.0
 0003744,-0.00016222,0.00002054,-0.00002613,0.00002567,0.00000770,0.000
 01213,0.00000961,0.00002489,0.00000396,0.00003623,0.00000785,0.0000049
 2,0.00001089,-0.00055639,-0.00103077,-0.00095779,-0.00978917,-0.000572
 11,0.00224686,-0.00011293,0.00020410,-0.00003797,0.00015353,0.00179570
 ,0.00185722,0.00004079,-0.00002518,-0.00001152,-0.00040687,-0.00022450
 ,0.00001476,0.00036346,0.00005459,-0.00001487,0.00002137,0.00005497,0.
 00001286,-0.00009343,0.00020660,-0.00002477,0.00002661,0.00001283,0.00
 009726,-0.00002954,0.00000800,-0.00001082,0.00001928,0.00000118,-0.000
 02860,-0.00001725,-0.00003528,0.00000418,0.00003358,0.00003769,0.00000
 383,0.00001578,0.00001044,0.00000776,-0.00052629,0.00022296,-0.0007853
 1,0.00003452,-0.00020236,-0.00016799,0.31405871,0.00019268,-0.00016602
 ,-0.00002287,-0.00036539,-0.00038487,0.00023775,-0.00000142,-0.0005434
 0,-0.00035329,-0.00049698,0.00046568,-0.00081762,-0.00034588,-0.000063
 04,0.00000886,0.00003738,0.00021160,-0.00011760,0.00001045,0.00000518,
 -0.00001755,0.00006052,-0.00001431,0.00005175,0.00001313,0.00001049,0.
 00001155,0.00017239,0.00118050,0.00030723,0.02706542,0.00510647,-0.007
 53068,0.00031810,0.00004210,0.00028612,0.00089000,-0.00478615,-0.00285
 521,-0.00010437,0.00001623,-0.00004245,0.00136142,0.00023637,0.0003296
 3,0.00011880,0.00006545,-0.00010062,-0.00003755,-0.00002222,-0.0000329
 6,0.00021891,-0.00038772,-0.00005890,0.00001975,-0.00003952,-0.0000215
 6,0.00000769,0.00000116,-0.00000381,-0.00002904,0.00002199,0.00002755,
 -0.00000838,0.00009508,-0.00001764,-0.00002395,-0.00003364,-0.00001024
 ,-0.00002814,0.00002073,0.00000277,-0.00015601,0.00037266,-0.00001975,
 -0.00006448,-0.00022689,-0.00008122,0.04097804,0.05866843,0.00038494,-
 0.00002583,-0.00009210,-0.00035499,-0.00036432,0.00023479,0.00042281,-
 0.00030533,-0.00040422,-0.00061660,-0.00068022,-0.00026942,-0.00061719
 ,-0.00003931,0.00024352,-0.00006773,0.00035847,-0.00014508,0.00001221,
 0.00002851,0.00000174,-0.00001807,-0.00001886,0.00002085,0.00003387,0.
 00002231,-0.00001609,0.00009719,0.00067291,0.00058919,0.01402635,0.004
 26690,-0.00472238,0.00041357,-0.00007050,0.00012511,0.00051250,-0.0033
 9630,-0.00087037,-0.00031350,-0.00030990,-0.00017894,0.00061328,0.0005
 6939,0.00088192,0.00011347,0.00023393,-0.00021661,-0.00002776,-0.00000
 457,-0.00002421,0.00010706,-0.00017000,-0.00016456,0.00005294,-0.00001
 840,-0.00001288,-0.00003880,0.00007377,-0.00002864,-0.00003883,0.00002
 077,0.00000535,0.00000758,0.00010591,-0.00007627,-0.00001916,-0.000054
 40,-0.00002401,-0.00003308,0.00002687,0.00000470,0.00004153,-0.0000099
 9,-0.00084708,0.00008689,0.00014934,0.00020845,-0.08530546,-0.01098942
 ,0.07682401,0.00046115,-0.00058284,0.00007356,-0.00067334,-0.00028596,
 0.00056832,-0.00107046,0.00080967,-0.00066177,-0.00066471,-0.01021009,
 -0.00643547,0.00008958,-0.00099051,0.00134721,0.00016880,0.00098347,0.
 00011128,-0.00000692,0.00001377,-0.00004583,-0.00045221,0.00011156,-0.
 00021248,-0.00003699,-0.00001299,-0.00002815,0.00073251,0.00004413,-0.
 00061294,0.00011329,0.00009898,0.00058958,-0.00004476,0.00011198,-0.00
 010835,-0.00019500,-0.00003261,-0.00004052,0.00018848,0.00004329,0.000
 07202,0.00007450,-0.00018222,-0.00010768,-0.00003211,0.00000309,0.0000
 1555,0.00000915,-0.00002286,0.00002044,0.00001540,-0.00001257,-0.00001
 688,-0.00004869,0.00004149,0.00005004,0.00002287,0.00000051,-0.0000094
 6,-0.00001449,0.00000935,0.00000669,0.00004294,0.00003432,0.00000195,-
 0.00003151,-0.00002406,-0.00000863,-0.00000184,-0.00001210,-0.00001019
 ,-0.04520646,0.00358220,0.00326266,0.00056476,-0.01637175,-0.01161345,
 0.00000190,0.00004747,-0.00020511,0.04670327,-0.00076602,0.00011411,-0
 .00012717,0.00054586,0.00035726,0.00129178,-0.00255359,-0.00142286,0.0
 0051206,-0.00067728,-0.02190363,-0.01082481,0.00237020,0.00090137,0.00
 045170,0.00003006,-0.00089071,0.00141078,-0.00004660,-0.00005211,-0.00
 015635,-0.00041646,-0.00005158,-0.00070598,-0.00007869,-0.00006679,0.0
 0001942,-0.00027195,-0.00014559,-0.00049832,0.00020999,-0.00087407,-0.
 00055557,0.00010704,0.00011354,0.00000846,-0.00016957,0.00021870,0.000
 24782,0.00007848,0.00012223,0.00007408,0.00008034,-0.00012934,-0.00003
 235,0.00008234,0.00001310,0.00000270,0.00002305,0.00000251,-0.00000637
 ,-0.00000966,0.00003122,-0.00001102,-0.00017044,-0.00000494,-0.0000063
 3,0.00003779,-0.00002951,0.00002893,0.00002483,-0.00004475,-0.00002273
 ,-0.00002312,0.00001717,0.00004211,-0.00000172,0.00003831,0.00001746,0
 .00004426,-0.00000854,-0.00000638,0.00573058,-0.21839298,-0.12641086,-
 0.00037939,0.00548940,0.00315666,-0.00031434,-0.00050559,0.00066470,-0
 .00299710,0.23920826,0.00000104,0.00034401,-0.00003706,0.00000549,-0.0
 0000398,-0.00090432,0.00012475,0.00106936,-0.00104513,-0.00121578,0.01
 469478,0.01218961,0.00013898,0.00004234,0.00033325,-0.00027373,-0.0002
 9827,-0.00028666,-0.00000675,-0.00000064,0.00001586,-0.00004218,-0.000
 22800,0.00005353,0.00002149,0.00000359,0.00002632,0.00037863,0.0001436
 0,0.00030449,0.00012062,-0.00004166,-0.00006915,-0.00024977,0.00015220
 ,0.00001492,-0.00018167,-0.00006050,0.00010223,0.00014861,0.00005160,-
 0.00002240,-0.00003146,-0.00015445,-0.00004588,-0.00000322,0.00000336,
 0.00000110,-0.00000178,-0.00000149,0.00000419,0.00000933,-0.00001122,-
 0.00002027,0.00007077,-0.00001093,-0.00000412,-0.00000816,-0.00000108,
 0.00000115,-0.00000645,0.00000627,0.00001966,-0.00002030,-0.00001918,-
 0.00001699,0.00001493,0.00000652,0.00000506,-0.00000865,-0.00000570,0.
 00001068,0.00567840,-0.12398439,-0.13372594,0.00176843,-0.02119572,-0.
 01567777,-0.00028942,0.00044120,-0.00060189,-0.00339865,0.13520147,0.1
 4675192,-0.00039636,0.00020183,-0.00000161,0.00022677,0.00019849,-0.00
 009247,-0.00046091,-0.00092766,-0.00071578,-0.00075702,-0.00092229,-0.
 00138512,0.00033318,0.00019984,0.00012644,-0.00017124,-0.00041887,0.00
 016097,-0.00000976,0.00000384,0.00001434,-0.00001199,-0.00001162,-0.00
 009276,-0.00000497,0.00000182,0.00001575,0.01301694,-0.01172752,-0.005
 66537,-0.10538506,0.03290554,0.02125534,-0.00278424,-0.00318937,0.0001
 8233,-0.01526019,0.03250495,0.01617446,-0.00010034,-0.00027304,-0.0003
 1297,-0.00546181,-0.00144629,-0.00044159,0.00104539,0.00112269,0.00095
 665,0.00016863,0.00010464,0.00004651,-0.00061917,0.00129307,0.00046871
 ,0.00008106,0.00006695,-0.00014788,0.00001444,0.00001678,0.00001351,-0
 .00003318,0.00000331,0.00002719,0.00098019,-0.00090588,-0.00001737,-0.
 00000047,0.00002571,-0.00001171,-0.00022152,-0.00037602,-0.00005836,-0
 .00167535,0.00070468,-0.00185119,-0.00048703,-0.00042317,-0.00004208,-
 0.28914074,-0.04021405,0.07751820,-0.00035362,-0.00046803,-0.00134167,
 0.58858592,0.00032241,-0.00016898,-0.00009426,-0.00027531,-0.00049340,
 0.00002473,0.00237208,-0.00039517,0.00129039,-0.00046596,0.00032373,-0
 .00086158,-0.00022253,-0.00016871,0.00014335,-0.00003805,0.00026736,-0
 .00007870,0.00002626,0.00000336,-0.00000337,0.00001921,0.00000772,-0.0
 0001277,-0.00000465,0.00000056,-0.00000079,0.00449846,-0.01936336,-0.0
 1305299,0.03323006,-0.15713300,-0.04694143,-0.00168156,0.00036005,-0.0
 0357018,0.01015657,-0.00437716,-0.00670777,-0.00117402,-0.00219237,-0.
 00040275,-0.00226010,0.00539745,-0.00136002,-0.00095410,-0.00015927,0.
 00207058,0.00005857,-0.00005457,0.00049159,-0.00030102,0.00036471,0.00
 022391,-0.00005229,0.00010755,0.00011570,-0.00001359,-0.00001400,-0.00
 000534,0.00000301,0.00001412,-0.00000315,0.00062801,-0.00010901,-0.000
 04830,0.00002987,0.00009873,0.00001581,-0.00007447,-0.00007251,0.00006
 888,-0.00070468,-0.00074961,-0.00025730,-0.00016071,-0.00025644,-0.000
 03369,-0.03755701,-0.05399829,0.01086504,0.00093640,0.00016807,0.00021
 668,0.02554398,0.50256047,-0.00032873,0.00018750,0.00008351,0.00078315
 ,0.00037502,-0.00012679,-0.00052590,0.00110817,-0.00257382,-0.00140449
 ,-0.00020466,-0.00063074,0.00055179,0.00028683,-0.00030799,0.00012345,
 -0.00033925,0.00014850,0.00002433,-0.00001050,-0.00002508,-0.00001547,
 0.00001816,0.00001474,-0.00001173,-0.00001775,0.00000224,0.00427802,-0
 .00673758,-0.00120829,0.02352617,-0.05682049,-0.10127060,-0.00017693,-
 0.00289139,0.00533213,0.00745773,-0.00785545,-0.00124995,-0.00204182,-
 0.00034303,-0.00061959,-0.00005329,0.00079890,0.00484238,-0.00138786,0
 .00057633,-0.00158851,-0.00005451,0.00011797,-0.00057611,-0.00009704,0
 .00002432,0.00017383,0.00010448,0.00001723,-0.00003955,0.00000381,-0.0
 0003394,0.00002668,0.00002249,-0.00000300,0.00001345,0.00054795,-0.000
 58775,0.00018488,0.00000344,0.00005603,0.00000104,-0.00016584,-0.00020
 059,-0.00017600,-0.00185118,0.00025729,-0.00157797,-0.00006095,-0.0004
 8802,-0.00037924,0.08025639,0.01253385,-0.07428492,-0.00071827,-0.0008
 3056,-0.00075799,0.00923726,-0.02799541,0.52754529,-0.00029814,0.00006
 904,0.00001281,0.00030266,0.00032121,-0.00016265,-0.00057832,-0.000307
 78,0.00002616,-0.00010220,0.00008195,-0.00048756,0.00041563,0.00000742
 ,-0.00015487,0.00001295,-0.00026732,0.00013050,-0.00001017,-0.00002241
 ,-0.00000836,0.00001880,0.00001128,-0.00000659,-0.00002025,-0.00001477
 ,0.00001563,-0.00085189,0.00023915,0.00056085,0.00734960,0.00263300,0.
 01069096,-0.00058581,0.00073669,-0.00031380,-0.00065955,0.00211522,0.0
 0189766,0.00073472,0.00071166,0.00039625,0.00054150,-0.00130383,-0.000
 14154,-0.00017461,0.00009465,-0.00029949,0.00000145,0.00001046,-0.0001
 3833,0.00001392,-0.00005471,-0.00006045,-0.00002435,0.00000430,-0.0000
 0280,0.00003352,-0.00004871,0.00002437,0.00001931,-0.00001739,-0.00000
 494,-0.00014607,0.00006545,-0.00005991,-0.00000499,-0.00000900,0.00001
 008,0.00006616,0.00001907,0.00001269,-0.00048703,0.00016071,-0.0000609
 5,0.00000020,-0.00018224,-0.00014502,-0.01503294,-0.00412486,-0.025346
 73,0.00008682,-0.00045947,0.00006203,-0.13538477,-0.02807970,-0.120503
 82,0.14416459,-0.00017467,0.00007763,-0.00000862,0.00009723,0.00028082
 ,-0.00002819,0.00001306,-0.00001897,-0.00040056,-0.00021807,-0.0004135
 0,0.00012046,0.00017085,0.00013695,-0.00011704,-0.00002863,-0.00015927
 ,0.00007250,-0.00002210,-0.00000835,-0.00000139,-0.00004678,0.00000856
 ,-0.00000878,-0.00000285,0.00000614,0.00000009,0.00313874,-0.00113508,
 -0.00168352,-0.01469780,-0.01014388,-0.02347542,-0.00062408,-0.0010241
 8,0.00068991,-0.00144563,0.00072574,0.00064839,-0.00011144,0.00002076,
 -0.00016074,-0.00012085,-0.00045425,0.00046800,0.00031572,0.00059806,-
 0.00019691,0.00003798,0.00002429,-0.00008231,0.00001396,0.00003702,-0.
 00003020,0.00001506,0.00002904,-0.00009406,0.00001877,-0.00001860,0.00
 001935,-0.00001539,-0.00000852,0.00002118,0.00036214,-0.00029910,0.000
 07451,-0.00000897,0.00000786,0.00000296,-0.00008109,-0.00014356,-0.000
 04018,0.00042317,-0.00025644,0.00048802,0.00018224,0.00025814,0.000107
 76,-0.00264668,-0.00178892,-0.00414927,-0.00026530,0.00039795,0.000180
 84,-0.02801973,-0.05194773,-0.03742886,0.02716705,0.05994889,0.0001128
 2,-0.00007150,0.00001203,-0.00016535,-0.00004359,0.00005514,0.00030352
 ,0.00016161,0.00001468,0.00020150,0.00019774,0.00005003,-0.00021394,-0
 .00008678,0.00016469,-0.00001988,0.00013482,-0.00006187,-0.00001169,-0
 .00001182,0.00000464,-0.00000531,0.00000707,-0.00000613,-0.00001524,-0
 .00000697,-0.00000697,0.00182680,-0.00059063,-0.00123578,-0.00782543,-
 0.00411585,-0.01102448,-0.00059704,-0.00013177,0.00057735,-0.00156741,
 -0.00010792,0.00154626,0.00033238,0.00013182,-0.00009149,0.00019322,-0
 .00052175,0.00028114,0.00088432,0.00047623,-0.00037101,0.00004756,0.00
 006105,-0.00007605,0.00001654,0.00000733,-0.00004479,0.00000744,0.0000
 3726,-0.00004645,0.00001314,0.00000845,0.00000747,-0.00000917,-0.00001
 166,0.00000643,0.00020769,-0.00011410,0.00002898,-0.00000003,0.0000120
 2,-0.00000523,-0.00003714,-0.00007306,-0.00002527,-0.00004208,0.000033
 69,-0.00037924,-0.00014502,-0.00010776,0.00001875,0.00567723,0.0020655
 3,0.00996638,0.00014920,-0.00013851,-0.00012960,-0.11973970,-0.0380912
 4,-0.21640253,0.13220253,0.04396571,0.23264226,0.00004079,0.00002518,-
 0.00001152,-0.00011293,-0.00020410,-0.00003798,-0.00055639,0.00103078,
 -0.00095779,-0.00978919,0.00057210,0.00224687,0.00015353,-0.00179571,0
 .00185722,-0.00040687,0.00022451,0.00001476,0.00002137,-0.00005497,0.0
 0001286,0.00036346,-0.00005459,-0.00001487,-0.00009343,-0.00020660,-0.
 00002477,0.00050069,0.00094932,-0.00062704,-0.00047436,-0.00000504,-0.
 00080099,0.00025235,-0.00007276,-0.00015355,-0.00020599,0.00003744,-0.
 00016222,-0.00003788,0.00000653,-0.00001183,0.00002054,0.00002613,0.00
 002567,0.00002489,-0.00000396,0.00003623,0.00000769,-0.00001213,0.0000
 0961,0.00000785,-0.00000492,0.00001089,-0.00001725,0.00003528,0.000004
 18,0.00003358,-0.00003769,0.00000383,0.00001578,-0.00001044,0.00000776
 ,0.00002661,-0.00001283,0.00009726,-0.00002954,-0.00000800,-0.00001082
 ,0.00001928,-0.00000118,-0.00002860,-0.28913906,0.03755668,0.08025566,
 -0.01503297,0.00264668,0.00567723,0.00002753,-0.00000946,0.00004864,0.
 00081271,0.00006772,-0.00091922,-0.00052630,-0.00022296,-0.00078531,0.
 00003452,0.00020236,-0.00016799,0.31405712,0.00010437,0.00001623,0.000
 04245,-0.00031810,0.00004210,-0.00028612,-0.00017239,0.00118050,-0.000
 30723,-0.02706541,0.00510645,0.00753067,-0.00089000,-0.00478615,0.0028
 5521,-0.00136142,0.00023637,-0.00032963,0.00003755,-0.00002222,0.00003
 296,-0.00011880,0.00006545,0.00010062,-0.00021891,-0.00038772,0.000058
 90,0.00000142,-0.00054340,0.00035329,0.00049698,0.00046568,0.00081762,
 0.00036539,-0.00038487,-0.00023775,0.00034588,-0.00006305,-0.00000886,
 -0.00019268,-0.00016602,0.00002287,-0.00003738,0.00021160,0.00011760,-
 0.00006052,-0.00001431,-0.00005175,-0.00001045,0.00000518,0.00001755,-
 0.00001313,0.00001049,-0.00001155,0.00000838,0.00009508,0.00001764,0.0
 0002395,-0.00003364,0.00001024,0.00002814,0.00002073,-0.00000277,-0.00
 001975,-0.00003952,0.00002156,-0.00000769,0.00000116,0.00000381,0.0000
 2904,0.00002199,-0.00002755,0.04021374,-0.05399845,-0.01253374,0.00412
 485,-0.00178891,-0.00206552,0.00000946,-0.00014379,0.00003199,0.025502
 15,-0.00341571,-0.00682157,0.00015601,0.00037266,0.00001975,0.00006448
 ,-0.00022689,0.00008122,-0.04097770,0.05866859,-0.00031350,0.00030990,
 -0.00017894,0.00041357,0.00007050,0.00012511,0.00009719,-0.00067291,0.
 00058919,0.01402637,-0.00426689,-0.00472238,0.00051251,0.00339630,-0.0
 0087037,0.00061328,-0.00056939,0.00088192,-0.00002776,0.00000457,-0.00
 002421,0.00011347,-0.00023393,-0.00021661,0.00010706,0.00017000,-0.000
 16456,0.00042281,0.00030533,-0.00040422,-0.00061660,0.00068022,-0.0002
 6941,-0.00035499,0.00036432,0.00023479,-0.00061719,0.00003931,0.000243
 52,0.00038494,0.00002583,-0.00009210,-0.00006773,-0.00035847,-0.000145
 08,-0.00001807,0.00001886,0.00002085,0.00001221,-0.00002851,0.00000174
 ,0.00003387,-0.00002231,-0.00001609,0.00000758,-0.00010591,-0.00007627
 ,-0.00001916,0.00005440,-0.00002401,-0.00003308,-0.00002687,0.00000470
 ,0.00005294,0.00001840,-0.00001288,-0.00003880,-0.00007377,-0.00002864
 ,-0.00003883,-0.00002077,0.00000535,0.07751748,-0.01086492,-0.07428489
 ,-0.02534673,0.00414926,0.00996638,0.00004864,-0.00003199,0.00006905,0
 .01850996,-0.00251582,-0.00619539,0.00004153,0.00000999,-0.00084709,0.
 00008689,-0.00014934,0.00020845,-0.08530475,0.01098930,0.07682399,0.00
 018848,-0.00004329,0.00007201,-0.00004476,-0.00011198,-0.00010835,0.00
 073251,-0.00004413,-0.00061294,0.00011329,-0.00009898,0.00058958,-0.00
 019500,0.00003261,-0.00004052,0.00007450,0.00018221,-0.00010768,0.0000
 0915,0.00002286,0.00002044,-0.00003211,-0.00000309,0.00001555,0.000015
 40,0.00001257,-0.00001688,-0.00107046,-0.00080966,-0.00066176,-0.00066
 471,0.01021010,-0.00643549,-0.00067334,0.00028596,0.00056832,0.0000895
 8,0.00099051,0.00134721,0.00046115,0.00058284,0.00007356,0.00016880,-0
 .00098347,0.00011128,-0.00045221,-0.00011156,-0.00021249,-0.00000692,-
 0.00001377,-0.00004583,-0.00003699,0.00001298,-0.00002815,0.00004293,-
 0.00003432,0.00000195,-0.00003151,0.00002406,-0.00000863,-0.00000184,0
 .00001210,-0.00001019,-0.00004869,-0.00004149,0.00005004,0.00002287,-0
 .00000051,-0.00000946,-0.00001449,-0.00000935,0.00000669,-0.00035362,-
 0.00093639,-0.00071827,0.00008682,0.00026530,0.00014920,0.00081274,-0.
 02550217,0.01850998,-0.00125501,0.00037088,-0.00054464,-0.04520649,-0.
 00358217,0.00326268,0.00056474,0.01637174,-0.01161348,0.00000190,-0.00
 004747,-0.00020511,0.04670329,-0.00007848,0.00012223,-0.00007407,-0.00
 010704,0.00011354,-0.00000846,0.00027195,-0.00014559,0.00049832,-0.000
 20999,-0.00087407,0.00055557,0.00016957,0.00021870,-0.00024782,-0.0000
 8034,-0.00012934,0.00003235,-0.00002305,0.00000251,0.00000637,-0.00008
 234,0.00001310,-0.00000270,0.00000966,0.00003122,0.00001102,0.00255359
 ,-0.00142286,-0.00051206,0.00067729,-0.02190361,0.01082481,-0.00054586
 ,0.00035726,-0.00129178,-0.00237020,0.00090137,-0.00045170,0.00076602,
 0.00011411,0.00012717,-0.00003006,-0.00089070,-0.00141078,0.00041646,-
 0.00005159,0.00070598,0.00004660,-0.00005211,0.00015635,0.00007869,-0.
 00006679,-0.00001942,0.00002312,0.00001717,-0.00004211,0.00000172,0.00
 003831,-0.00001746,-0.00004426,-0.00000854,0.00000638,0.00017044,-0.00
 000494,0.00000633,-0.00003779,-0.00002951,-0.00002893,-0.00002483,-0.0
 0004475,0.00002273,0.00046802,0.00016807,0.00083056,0.00045947,0.00039
 795,0.00013850,-0.00006771,-0.00341572,0.00251583,-0.00037088,0.000745
 49,0.00028099,-0.00573059,-0.21839295,0.12641087,0.00037939,0.00548940
 ,-0.00315666,0.00031434,-0.00050559,-0.00066470,0.00299709,0.23920823,
 0.00014861,-0.00005160,-0.00002240,-0.00024977,-0.00015220,0.00001492,
 0.00037863,-0.00014360,0.00030449,0.00012062,0.00004166,-0.00006915,-0
 .00018167,0.00006050,0.00010223,-0.00003146,0.00015445,-0.00004588,-0.
 00000178,0.00000149,0.00000419,-0.00000322,-0.00000336,0.00000110,0.00
 000933,0.00001122,-0.00002028,0.00012475,-0.00106936,-0.00104514,-0.00
 121577,-0.01469477,0.01218961,0.00000549,0.00000397,-0.00090432,0.0001
 3898,-0.00004233,0.00033325,0.00000104,-0.00034401,-0.00003706,-0.0002
 7373,0.00029827,-0.00028666,-0.00004218,0.00022800,0.00005353,-0.00000
 675,0.00000064,0.00001587,0.00002149,-0.00000359,0.00002632,-0.0000203
 0,0.00001918,-0.00001699,0.00001493,-0.00000652,0.00000506,-0.00000865
 ,0.00000570,0.00001068,0.00007077,0.00001093,-0.00000412,-0.00000816,0
 .00000108,0.00000115,-0.00000645,-0.00000627,0.00001966,-0.00134167,-0
 .00021668,-0.00075799,0.00006203,-0.00018084,-0.00012960,-0.00091923,0
 .00682159,-0.00619540,-0.00054464,-0.00028099,-0.00029344,0.00567845,0
 .12398440,-0.13372591,0.00176839,0.02119570,-0.01567780,-0.00028942,-0
 .00044120,-0.00060189,-0.00339865,-0.13520148,0.14675194\\-0.00000079,
 0.00000049,-0.00000006,0.00000002,-0.00000023,0.00000010,0.00000002,0.
 00000049,-0.00000024,0.00000037,-0.00000055,0.00000028,-0.00000082,0.0
 0000005,-0.00000006,0.00000063,-0.00000019,-0.00000017,0.00000011,0.,-
 0.00000012,0.00000025,-0.00000027,0.00000004,-0.00000001,0.00000003,-0
 .00000010,-0.00000002,0.00000033,0.00000019,-0.00000045,-0.00000039,-0
 .00000022,0.00000058,0.,-0.00000014,0.00000057,0.00000045,0.00000033,-
 0.00000053,-0.00000053,0.00000006,0.00000001,0.00000011,0.,-0.00000026
 ,-0.00000026,-0.00000003,0.,0.00000015,0.00000009,0.00000004,0.0000000
 6,0.00000013,0.,-0.00000011,-0.00000049,0.00000001,-0.00000007,0.00000
 002,0.00000007,0.00000011,0.00000008,0.00000011,-0.00000004,0.00000039
 ,-0.00000004,-0.00000002,-0.00000002,-0.00000005,0.00000008,0.,0.00000
 057,-0.00000013,-0.00000046,-0.00000005,0.00000008,-0.00000009,-0.0000
 0030,-0.00000011,0.00000006,-0.00000004,0.00000026,0.00000015,0.000000
 51,0.00000002,0.00000055,-0.00000026,-0.00000006,-0.00000024,-0.000000
 24,0.,0.00000013,0.,0.00000024,-0.00000019\\\@
 The archive entry for this job was punched.


 A COMPUTER IS LIKE A HORSE, IT WILL SENSE WEAKNESS.
     -- GREG WETTSTEIN
 Job cpu time:       0 days  1 hours  7 minutes  4.9 seconds.
 Elapsed time:       0 days  0 hours  2 minutes 10.9 seconds.
 File lengths (MBytes):  RWF=    321 Int=      0 D2E=      0 Chk=     10 Scr=      1
 Normal termination of Gaussian 16 at Tue May 20 08:13:01 2025.
