 Entering Gaussian System, Link 0=g16
 Input=/bigdata/rhome/djo04747/Documents/Gaussian/biphenyl_diketone_mislow/biphenyldiketone_ts.gjf
 Output=/bigdata/rhome/djo04747/Documents/Gaussian/biphenyl_diketone_mislow/biphenyldiketone_ts.log
 Initial command:
 /opt/linux/rocky/8/software/gaussian/16c01_avx2/g16/l1.exe "/scratch/djo04747/19745/Gau-46796.inp" -scrdir="/scratch/djo04747/19745/"
 Entering Link 1 = /opt/linux/rocky/8/software/gaussian/16c01_avx2/g16/l1.exe PID=     46798.
  
 Copyright (c) 1988-2019, Gaussian, Inc.  All Rights Reserved.
  
 This is part of the Gaussian(R) 16 program.  It is based on
 the Gaussian(R) 09 system (copyright 2009, Gaussian, Inc.),
 the Gaussian(R) 03 system (copyright 2003, Gaussian, Inc.),
 the Gaussian(R) 98 system (copyright 1998, Gaussian, Inc.),
 the Gaussian(R) 94 system (copyright 1995, Gaussian, Inc.),
 the Gaussian 92(TM) system (copyright 1992, Gaussian, Inc.),
 the Gaussian 90(TM) system (copyright 1990, Gaussian, Inc.),
 the Gaussian 88(TM) system (copyright 1988, Gaussian, Inc.),
 the Gaussian 86(TM) system (copyright 1986, Carnegie Mellon
 University), and the Gaussian 82(TM) system (copyright 1983,
 Carnegie Mellon University). Gaussian is a federally registered
 trademark of Gaussian, Inc.
  
 This software contains proprietary and confidential information,
 including trade secrets, belonging to Gaussian, Inc.
  
 This software is provided under written license and may be
 used, copied, transmitted, or stored only in accord with that
 written license.
  
 The following legend is applicable only to US Government
 contracts under FAR:
  
                    RESTRICTED RIGHTS LEGEND
  
 Use, reproduction and disclosure by the US Government is
 subject to restrictions as set forth in subparagraphs (a)
 and (c) of the Commercial Computer Software - Restricted
 Rights clause in FAR 52.227-19.
  
 Gaussian, Inc.
 340 Quinnipiac St., Bldg. 40, Wallingford CT 06492
  
  
 ---------------------------------------------------------------
 Warning -- This program may not be used in any manner that
 competes with the business of Gaussian, Inc. or will provide
 assistance to any competitor of Gaussian, Inc.  The licensee
 of this program is prohibited from giving any competitor of
 Gaussian, Inc. access to this program.  By using this program,
 the user acknowledges that Gaussian, Inc. is engaged in the
 business of creating and licensing software in the field of
 computational chemistry and represents and warrants to the
 licensee that it is not a competitor of Gaussian, Inc. and that
 it will not use this program in any manner prohibited above.
 ---------------------------------------------------------------
  

 Cite this work as:
 Gaussian 16, Revision C.01,
 M. J. Frisch, G. W. Trucks, H. B. Schlegel, G. E. Scuseria, 
 M. A. Robb, J. R. Cheeseman, G. Scalmani, V. Barone, 
 G. A. Petersson, H. Nakatsuji, X. Li, M. Caricato, A. V. Marenich, 
 J. Bloino, B. G. Janesko, R. Gomperts, B. Mennucci, H. P. Hratchian, 
 J. V. Ortiz, A. F. Izmaylov, J. L. Sonnenberg, D. Williams-Young, 
 F. Ding, F. Lipparini, F. Egidi, J. Goings, B. Peng, A. Petrone, 
 T. Henderson, D. Ranasinghe, V. G. Zakrzewski, J. Gao, N. Rega, 
 G. Zheng, W. Liang, M. Hada, M. Ehara, K. Toyota, R. Fukuda, 
 J. Hasegawa, M. Ishida, T. Nakajima, Y. Honda, O. Kitao, H. Nakai, 
 T. Vreven, K. Throssell, J. A. Montgomery, Jr., J. E. Peralta, 
 F. Ogliaro, M. J. Bearpark, J. J. Heyd, E. N. Brothers, K. N. Kudin, 
 V. N. Staroverov, T. A. Keith, R. Kobayashi, J. Normand, 
 K. Raghavachari, A. P. Rendell, J. C. Burant, S. S. Iyengar, 
 J. Tomasi, M. Cossi, J. M. Millam, M. Klene, C. Adamo, R. Cammi, 
 J. W. Ochterski, R. L. Martin, K. Morokuma, O. Farkas, 
 J. B. Foresman, and D. J. Fox, Gaussian, Inc., Wallingford CT, 2019.
 
 ******************************************
 Gaussian 16:  ES64L-G16RevC.01  3-Jul-2019
                20-May-2025 
 ******************************************
 %chk=biphenyldiketone_ts.chk
 %nprocshared=32
 Will use up to   32 processors via shared memory.
 ----------------------------------------------------------------------
 #P opt=(calcall,ts,vtight) freq rb3lyp/6-31g(d,p) integral=grid=ultraf
 ine scf=conver=10
 ----------------------------------------------------------------------
 1/5=1,7=1,10=4,18=20,26=4,38=1/1,3;
 2/9=110,12=2,17=6,18=5,40=1/2;
 3/5=1,6=6,7=101,11=2,25=1,30=1,71=2,74=-5,75=-5,116=1,140=1/1,2,3;
 4//1;
 5/5=2,6=10,38=5/2;
 8/6=4,10=90,11=11/1;
 11/6=1,8=1,9=11,15=111,16=1/1,2,10;
 10/6=1/2;
 6/7=2,8=2,9=2,10=2,18=1,28=1/1;
 7/10=1,25=1/1,2,3,16;
 1/5=1,7=1,10=4,18=20,26=4/3(3);
 2/9=110/2;
 7/8=1,9=1,25=1,44=-1/16;
 99//99;
 2/9=110/2;
 3/5=1,6=6,7=101,11=2,25=1,30=1,71=2,74=-5,75=-5,116=1,140=1/1,2,3;
 4/5=5,16=3,69=1/1;
 5/5=2,6=10,38=5/2;
 8/6=4,10=90,11=11/1;
 11/6=1,8=1,9=11,15=111,16=1/1,2,10;
 10/6=1/2;
 7/10=1,25=1/1,2,3,16;
 1/5=1,7=1,10=4,18=20,26=4/3(-8);
 2/9=110/2;
 6/7=2,8=2,9=2,10=2,18=1,19=2,28=1/1;
 7/8=1,9=1,25=1,44=-1/16;
 99//99;
 Leave Link    1 at Tue May 20 08:39:02 2025, MaxMem=           0 cpu:               3.4 elap:               0.1
 (Enter /opt/linux/rocky/8/software/gaussian/16c01_avx2/g16/l101.exe)
 -------------------
 Title Card Required
 -------------------
 Symbolic Z-matrix:
 Charge =  0 Multiplicity = 1
 C                     0.00045   0.76476  -0.03025 
 C                     0.09151  -0.72012  -0.11861 
 C                     1.1173    1.66708  -0.12999 
 C                     1.32424  -1.43794  -0.22726 
 C                    -1.26006   1.40217   0.22699 
 C                    -1.08611  -1.53428  -0.23983 
 C                     0.88274   3.00818  -0.4616 
 C                     1.36311  -2.81948  -0.01433 
 C                    -1.44807   2.75588  -0.06982 
 C                    -1.01382  -2.91657  -0.03638 
 C                    -0.39764   3.54602  -0.51735 
 C                     0.20095  -3.55954   0.16378 
 C                     2.51353   1.42151   0.42327 
 C                     2.60635  -0.82502  -0.759 
 C                    -2.3863    0.73336   0.99545 
 C                    -2.41244  -1.02797  -0.77886 
 C                     3.25769   0.12166   0.21106 
 C                    -3.24451  -0.21774   0.19026 
 O                     4.30026  -0.11653   0.78629 
 O                    -4.44677  -0.31656   0.3061 
 H                     1.74003   3.6607   -0.60365 
 H                     2.32621  -3.32033  -0.04199 
 H                    -2.42982   3.19247   0.09085 
 H                    -1.93141  -3.49593  -0.08594 
 H                    -0.55423   4.58509  -0.78904 
 H                     0.24357  -4.62891   0.3444 
 H                     3.18408   2.21247   0.06593 
 H                     2.46457   1.56893   1.51098 
 H                     3.31604  -1.61636  -1.00502 
 H                     2.37256  -0.26301  -1.67403 
 H                    -1.95522   0.13029   1.80713 
 H                    -3.02938   1.48687   1.45494 
 H                    -2.21558  -0.35858  -1.62895 
 H                    -3.01297  -1.86077  -1.14978 
 
 ITRead=  0  0  0  0  0  0  0  0  0  0  0  0  0  0  0  0  0  0  0  0
 ITRead=  0  0  0  0  0  0  0  0  0  0  0  0  0  0
 MicOpt= -1 -1 -1 -1 -1 -1 -1 -1 -1 -1 -1 -1 -1 -1 -1 -1 -1 -1 -1 -1
 MicOpt= -1 -1 -1 -1 -1 -1 -1 -1 -1 -1 -1 -1 -1 -1
 NAtoms=     34 NQM=       34 NQMF=       0 NMMI=      0 NMMIF=      0
                NMic=       0 NMicF=      0.
                    Isotopes and Nuclear Properties:
 (Nuclear quadrupole moments (NQMom) in fm**2, nuclear magnetic moments (NMagM)
  in nuclear magnetons)

  Atom         1           2           3           4           5           6           7           8           9          10
 IAtWgt=          12          12          12          12          12          12          12          12          12          12
 AtmWgt=  12.0000000  12.0000000  12.0000000  12.0000000  12.0000000  12.0000000  12.0000000  12.0000000  12.0000000  12.0000000
 NucSpn=           0           0           0           0           0           0           0           0           0           0
 AtZEff=  -0.0000000  -0.0000000  -0.0000000  -0.0000000  -0.0000000  -0.0000000  -0.0000000  -0.0000000  -0.0000000  -0.0000000
 NQMom=    0.0000000   0.0000000   0.0000000   0.0000000   0.0000000   0.0000000   0.0000000   0.0000000   0.0000000   0.0000000
 NMagM=    0.0000000   0.0000000   0.0000000   0.0000000   0.0000000   0.0000000   0.0000000   0.0000000   0.0000000   0.0000000
 AtZNuc=   6.0000000   6.0000000   6.0000000   6.0000000   6.0000000   6.0000000   6.0000000   6.0000000   6.0000000   6.0000000

  Atom        11          12          13          14          15          16          17          18          19          20
 IAtWgt=          12          12          12          12          12          12          12          12          16          16
 AtmWgt=  12.0000000  12.0000000  12.0000000  12.0000000  12.0000000  12.0000000  12.0000000  12.0000000  15.9949146  15.9949146
 NucSpn=           0           0           0           0           0           0           0           0           0           0
 AtZEff=  -0.0000000  -0.0000000  -0.0000000  -0.0000000  -0.0000000  -0.0000000  -0.0000000  -0.0000000  -0.0000000  -0.0000000
 NQMom=    0.0000000   0.0000000   0.0000000   0.0000000   0.0000000   0.0000000   0.0000000   0.0000000   0.0000000   0.0000000
 NMagM=    0.0000000   0.0000000   0.0000000   0.0000000   0.0000000   0.0000000   0.0000000   0.0000000   0.0000000   0.0000000
 AtZNuc=   6.0000000   6.0000000   6.0000000   6.0000000   6.0000000   6.0000000   6.0000000   6.0000000   8.0000000   8.0000000

  Atom        21          22          23          24          25          26          27          28          29          30
 IAtWgt=           1           1           1           1           1           1           1           1           1           1
 AtmWgt=   1.0078250   1.0078250   1.0078250   1.0078250   1.0078250   1.0078250   1.0078250   1.0078250   1.0078250   1.0078250
 NucSpn=           1           1           1           1           1           1           1           1           1           1
 AtZEff=  -0.0000000  -0.0000000  -0.0000000  -0.0000000  -0.0000000  -0.0000000  -0.0000000  -0.0000000  -0.0000000  -0.0000000
 NQMom=    0.0000000   0.0000000   0.0000000   0.0000000   0.0000000   0.0000000   0.0000000   0.0000000   0.0000000   0.0000000
 NMagM=    2.7928460   2.7928460   2.7928460   2.7928460   2.7928460   2.7928460   2.7928460   2.7928460   2.7928460   2.7928460
 AtZNuc=   1.0000000   1.0000000   1.0000000   1.0000000   1.0000000   1.0000000   1.0000000   1.0000000   1.0000000   1.0000000

  Atom        31          32          33          34
 IAtWgt=           1           1           1           1
 AtmWgt=   1.0078250   1.0078250   1.0078250   1.0078250
 NucSpn=           1           1           1           1
 AtZEff=  -0.0000000  -0.0000000  -0.0000000  -0.0000000
 NQMom=    0.0000000   0.0000000   0.0000000   0.0000000
 NMagM=    2.7928460   2.7928460   2.7928460   2.7928460
 AtZNuc=   1.0000000   1.0000000   1.0000000   1.0000000
 Leave Link  101 at Tue May 20 08:39:03 2025, MaxMem=   104857600 cpu:               2.5 elap:               0.1
 (Enter /opt/linux/rocky/8/software/gaussian/16c01_avx2/g16/l103.exe)

 GradGradGradGradGradGradGradGradGradGradGradGradGradGradGradGradGradGrad
 Berny optimization.
 Initialization pass.
                           ----------------------------
                           !    Initial Parameters    !
                           ! (Angstroms and Degrees)  !
 --------------------------                            --------------------------
 ! Name  Definition              Value          Derivative Info.                !
 --------------------------------------------------------------------------------
 ! R1    R(1,2)                  1.4903         calculate D2E/DX2 analytically  !
 ! R2    R(1,3)                  1.4393         calculate D2E/DX2 analytically  !
 ! R3    R(1,5)                  1.4357         calculate D2E/DX2 analytically  !
 ! R4    R(2,4)                  1.4306         calculate D2E/DX2 analytically  !
 ! R5    R(2,6)                  1.4368         calculate D2E/DX2 analytically  !
 ! R6    R(3,7)                  1.4013         calculate D2E/DX2 analytically  !
 ! R7    R(3,13)                 1.5218         calculate D2E/DX2 analytically  !
 ! R8    R(4,8)                  1.3984         calculate D2E/DX2 analytically  !
 ! R9    R(4,14)                 1.5173         calculate D2E/DX2 analytically  !
 ! R10   R(5,9)                  1.3986         calculate D2E/DX2 analytically  !
 ! R11   R(5,15)                 1.5186         calculate D2E/DX2 analytically  !
 ! R12   R(6,10)                 1.3991         calculate D2E/DX2 analytically  !
 ! R13   R(6,16)                 1.5186         calculate D2E/DX2 analytically  !
 ! R14   R(7,11)                 1.3899         calculate D2E/DX2 analytically  !
 ! R15   R(7,21)                 1.0867         calculate D2E/DX2 analytically  !
 ! R16   R(8,12)                 1.3893         calculate D2E/DX2 analytically  !
 ! R17   R(8,22)                 1.0859         calculate D2E/DX2 analytically  !
 ! R18   R(9,11)                 1.3885         calculate D2E/DX2 analytically  !
 ! R19   R(9,23)                 1.0864         calculate D2E/DX2 analytically  !
 ! R20   R(10,12)                1.3889         calculate D2E/DX2 analytically  !
 ! R21   R(10,24)                1.0863         calculate D2E/DX2 analytically  !
 ! R22   R(11,25)                1.0854         calculate D2E/DX2 analytically  !
 ! R23   R(12,26)                1.0853         calculate D2E/DX2 analytically  !
 ! R24   R(13,17)                1.5128         calculate D2E/DX2 analytically  !
 ! R25   R(13,27)                1.0968         calculate D2E/DX2 analytically  !
 ! R26   R(13,28)                1.0987         calculate D2E/DX2 analytically  !
 ! R27   R(14,17)                1.5038         calculate D2E/DX2 analytically  !
 ! R28   R(14,29)                1.091          calculate D2E/DX2 analytically  !
 ! R29   R(14,30)                1.099          calculate D2E/DX2 analytically  !
 ! R30   R(15,18)                1.5131         calculate D2E/DX2 analytically  !
 ! R31   R(15,31)                1.0992         calculate D2E/DX2 analytically  !
 ! R32   R(15,32)                1.092          calculate D2E/DX2 analytically  !
 ! R33   R(16,18)                1.5126         calculate D2E/DX2 analytically  !
 ! R34   R(16,33)                1.0998         calculate D2E/DX2 analytically  !
 ! R35   R(16,34)                1.0917         calculate D2E/DX2 analytically  !
 ! R36   R(17,19)                1.2143         calculate D2E/DX2 analytically  !
 ! R37   R(18,20)                1.2119         calculate D2E/DX2 analytically  !
 ! A1    A(2,1,3)              124.9686         calculate D2E/DX2 analytically  !
 ! A2    A(2,1,5)              120.4386         calculate D2E/DX2 analytically  !
 ! A3    A(3,1,5)              114.5424         calculate D2E/DX2 analytically  !
 ! A4    A(1,2,4)              123.8542         calculate D2E/DX2 analytically  !
 ! A5    A(1,2,6)              121.2998         calculate D2E/DX2 analytically  !
 ! A6    A(4,2,6)              114.5523         calculate D2E/DX2 analytically  !
 ! A7    A(1,3,7)              119.1121         calculate D2E/DX2 analytically  !
 ! A8    A(1,3,13)             125.8456         calculate D2E/DX2 analytically  !
 ! A9    A(7,3,13)             113.2069         calculate D2E/DX2 analytically  !
 ! A10   A(2,4,8)              120.5363         calculate D2E/DX2 analytically  !
 ! A11   A(2,4,14)             123.5072         calculate D2E/DX2 analytically  !
 ! A12   A(8,4,14)             115.4015         calculate D2E/DX2 analytically  !
 ! A13   A(1,5,9)              120.6447         calculate D2E/DX2 analytically  !
 ! A14   A(1,5,15)             123.1098         calculate D2E/DX2 analytically  !
 ! A15   A(9,5,15)             115.7204         calculate D2E/DX2 analytically  !
 ! A16   A(2,6,10)             120.3479         calculate D2E/DX2 analytically  !
 ! A17   A(2,6,16)             123.8405         calculate D2E/DX2 analytically  !
 ! A18   A(10,6,16)            115.2243         calculate D2E/DX2 analytically  !
 ! A19   A(3,7,11)             122.2798         calculate D2E/DX2 analytically  !
 ! A20   A(3,7,21)             118.2656         calculate D2E/DX2 analytically  !
 ! A21   A(11,7,21)            119.2845         calculate D2E/DX2 analytically  !
 ! A22   A(4,8,12)             121.5042         calculate D2E/DX2 analytically  !
 ! A23   A(4,8,22)             118.4536         calculate D2E/DX2 analytically  !
 ! A24   A(12,8,22)            119.9665         calculate D2E/DX2 analytically  !
 ! A25   A(5,9,11)             121.1655         calculate D2E/DX2 analytically  !
 ! A26   A(5,9,23)             118.6248         calculate D2E/DX2 analytically  !
 ! A27   A(11,9,23)            120.1732         calculate D2E/DX2 analytically  !
 ! A28   A(6,10,12)            121.569          calculate D2E/DX2 analytically  !
 ! A29   A(6,10,24)            118.4676         calculate D2E/DX2 analytically  !
 ! A30   A(12,10,24)           119.897          calculate D2E/DX2 analytically  !
 ! A31   A(7,11,9)             117.6308         calculate D2E/DX2 analytically  !
 ! A32   A(7,11,25)            120.8916         calculate D2E/DX2 analytically  !
 ! A33   A(9,11,25)            121.0857         calculate D2E/DX2 analytically  !
 ! A34   A(8,12,10)            117.8108         calculate D2E/DX2 analytically  !
 ! A35   A(8,12,26)            120.8871         calculate D2E/DX2 analytically  !
 ! A36   A(10,12,26)           120.9598         calculate D2E/DX2 analytically  !
 ! A37   A(3,13,17)            122.6149         calculate D2E/DX2 analytically  !
 ! A38   A(3,13,27)            109.0332         calculate D2E/DX2 analytically  !
 ! A39   A(3,13,28)            107.2997         calculate D2E/DX2 analytically  !
 ! A40   A(17,13,27)           105.8553         calculate D2E/DX2 analytically  !
 ! A41   A(17,13,28)           106.0263         calculate D2E/DX2 analytically  !
 ! A42   A(27,13,28)           104.6562         calculate D2E/DX2 analytically  !
 ! A43   A(4,14,17)            113.217          calculate D2E/DX2 analytically  !
 ! A44   A(4,14,29)            109.6134         calculate D2E/DX2 analytically  !
 ! A45   A(4,14,30)            108.5786         calculate D2E/DX2 analytically  !
 ! A46   A(17,14,29)           108.6821         calculate D2E/DX2 analytically  !
 ! A47   A(17,14,30)           107.8962         calculate D2E/DX2 analytically  !
 ! A48   A(29,14,30)           108.756          calculate D2E/DX2 analytically  !
 ! A49   A(5,15,18)            115.3524         calculate D2E/DX2 analytically  !
 ! A50   A(5,15,31)            108.931          calculate D2E/DX2 analytically  !
 ! A51   A(5,15,32)            110.2288         calculate D2E/DX2 analytically  !
 ! A52   A(18,15,31)           105.6944         calculate D2E/DX2 analytically  !
 ! A53   A(18,15,32)           108.8829         calculate D2E/DX2 analytically  !
 ! A54   A(31,15,32)           107.3861         calculate D2E/DX2 analytically  !
 ! A55   A(6,16,18)            115.5702         calculate D2E/DX2 analytically  !
 ! A56   A(6,16,33)            108.7216         calculate D2E/DX2 analytically  !
 ! A57   A(6,16,34)            110.2865         calculate D2E/DX2 analytically  !
 ! A58   A(18,16,33)           105.5261         calculate D2E/DX2 analytically  !
 ! A59   A(18,16,34)           108.8872         calculate D2E/DX2 analytically  !
 ! A60   A(33,16,34)           107.4676         calculate D2E/DX2 analytically  !
 ! A61   A(13,17,14)           114.7306         calculate D2E/DX2 analytically  !
 ! A62   A(13,17,19)           121.6306         calculate D2E/DX2 analytically  !
 ! A63   A(14,17,19)           123.6385         calculate D2E/DX2 analytically  !
 ! A64   A(15,18,16)           111.447          calculate D2E/DX2 analytically  !
 ! A65   A(15,18,20)           124.2693         calculate D2E/DX2 analytically  !
 ! A66   A(16,18,20)           124.2836         calculate D2E/DX2 analytically  !
 ! D1    D(3,1,2,4)              4.2858         calculate D2E/DX2 analytically  !
 ! D2    D(3,1,2,6)           -169.1463         calculate D2E/DX2 analytically  !
 ! D3    D(5,1,2,4)           -172.9889         calculate D2E/DX2 analytically  !
 ! D4    D(5,1,2,6)             13.579          calculate D2E/DX2 analytically  !
 ! D5    D(2,1,3,7)            159.5797         calculate D2E/DX2 analytically  !
 ! D6    D(2,1,3,13)           -36.941          calculate D2E/DX2 analytically  !
 ! D7    D(5,1,3,7)            -23.0033         calculate D2E/DX2 analytically  !
 ! D8    D(5,1,3,13)           140.476          calculate D2E/DX2 analytically  !
 ! D9    D(2,1,5,9)           -161.1106         calculate D2E/DX2 analytically  !
 ! D10   D(2,1,5,15)            27.5615         calculate D2E/DX2 analytically  !
 ! D11   D(3,1,5,9)             21.3444         calculate D2E/DX2 analytically  !
 ! D12   D(3,1,5,15)          -149.9836         calculate D2E/DX2 analytically  !
 ! D13   D(1,2,4,8)            165.9849         calculate D2E/DX2 analytically  !
 ! D14   D(1,2,4,14)           -22.9577         calculate D2E/DX2 analytically  !
 ! D15   D(6,2,4,8)            -20.1834         calculate D2E/DX2 analytically  !
 ! D16   D(6,2,4,14)           150.874          calculate D2E/DX2 analytically  !
 ! D17   D(1,2,6,10)          -166.3279         calculate D2E/DX2 analytically  !
 ! D18   D(1,2,6,16)            22.887          calculate D2E/DX2 analytically  !
 ! D19   D(4,2,6,10)            19.6665         calculate D2E/DX2 analytically  !
 ! D20   D(4,2,6,16)          -151.1186         calculate D2E/DX2 analytically  !
 ! D21   D(1,3,7,11)             9.1237         calculate D2E/DX2 analytically  !
 ! D22   D(1,3,7,21)          -175.6555         calculate D2E/DX2 analytically  !
 ! D23   D(13,3,7,11)         -156.3518         calculate D2E/DX2 analytically  !
 ! D24   D(13,3,7,21)           18.8691         calculate D2E/DX2 analytically  !
 ! D25   D(1,3,13,17)           47.3168         calculate D2E/DX2 analytically  !
 ! D26   D(1,3,13,27)          171.6402         calculate D2E/DX2 analytically  !
 ! D27   D(1,3,13,28)          -75.5435         calculate D2E/DX2 analytically  !
 ! D28   D(7,3,13,17)         -148.3658         calculate D2E/DX2 analytically  !
 ! D29   D(7,3,13,27)          -24.0424         calculate D2E/DX2 analytically  !
 ! D30   D(7,3,13,28)           88.7739         calculate D2E/DX2 analytically  !
 ! D31   D(2,4,8,12)             7.0665         calculate D2E/DX2 analytically  !
 ! D32   D(2,4,8,22)          -176.1012         calculate D2E/DX2 analytically  !
 ! D33   D(14,4,8,12)         -164.684          calculate D2E/DX2 analytically  !
 ! D34   D(14,4,8,22)           12.1483         calculate D2E/DX2 analytically  !
 ! D35   D(2,4,14,17)           74.1518         calculate D2E/DX2 analytically  !
 ! D36   D(2,4,14,29)         -164.3235         calculate D2E/DX2 analytically  !
 ! D37   D(2,4,14,30)          -45.6455         calculate D2E/DX2 analytically  !
 ! D38   D(8,4,14,17)         -114.3717         calculate D2E/DX2 analytically  !
 ! D39   D(8,4,14,29)            7.1531         calculate D2E/DX2 analytically  !
 ! D40   D(8,4,14,30)          125.8311         calculate D2E/DX2 analytically  !
 ! D41   D(1,5,9,11)            -5.2651         calculate D2E/DX2 analytically  !
 ! D42   D(1,5,9,23)           176.9291         calculate D2E/DX2 analytically  !
 ! D43   D(15,5,9,11)          166.6764         calculate D2E/DX2 analytically  !
 ! D44   D(15,5,9,23)          -11.1295         calculate D2E/DX2 analytically  !
 ! D45   D(1,5,15,18)          -81.6182         calculate D2E/DX2 analytically  !
 ! D46   D(1,5,15,31)           36.9995         calculate D2E/DX2 analytically  !
 ! D47   D(1,5,15,32)          154.5836         calculate D2E/DX2 analytically  !
 ! D48   D(9,5,15,18)          106.6605         calculate D2E/DX2 analytically  !
 ! D49   D(9,5,15,31)         -134.7218         calculate D2E/DX2 analytically  !
 ! D50   D(9,5,15,32)          -17.1377         calculate D2E/DX2 analytically  !
 ! D51   D(2,6,10,12)           -6.0276         calculate D2E/DX2 analytically  !
 ! D52   D(2,6,10,24)          176.9404         calculate D2E/DX2 analytically  !
 ! D53   D(16,6,10,12)         165.5176         calculate D2E/DX2 analytically  !
 ! D54   D(16,6,10,24)         -11.5144         calculate D2E/DX2 analytically  !
 ! D55   D(2,6,16,18)          -78.6794         calculate D2E/DX2 analytically  !
 ! D56   D(2,6,16,33)           39.711          calculate D2E/DX2 analytically  !
 ! D57   D(2,6,16,34)          157.3027         calculate D2E/DX2 analytically  !
 ! D58   D(10,6,16,18)         110.1075         calculate D2E/DX2 analytically  !
 ! D59   D(10,6,16,33)        -131.502          calculate D2E/DX2 analytically  !
 ! D60   D(10,6,16,34)         -13.9104         calculate D2E/DX2 analytically  !
 ! D61   D(3,7,11,9)             7.8899         calculate D2E/DX2 analytically  !
 ! D62   D(3,7,11,25)         -179.2196         calculate D2E/DX2 analytically  !
 ! D63   D(21,7,11,9)         -167.2839         calculate D2E/DX2 analytically  !
 ! D64   D(21,7,11,25)           5.6066         calculate D2E/DX2 analytically  !
 ! D65   D(4,8,12,10)            7.6551         calculate D2E/DX2 analytically  !
 ! D66   D(4,8,12,26)         -178.9996         calculate D2E/DX2 analytically  !
 ! D67   D(22,8,12,10)        -169.1301         calculate D2E/DX2 analytically  !
 ! D68   D(22,8,12,26)           4.2153         calculate D2E/DX2 analytically  !
 ! D69   D(5,9,11,7)            -9.8497         calculate D2E/DX2 analytically  !
 ! D70   D(5,9,11,25)          177.2743         calculate D2E/DX2 analytically  !
 ! D71   D(23,9,11,7)          167.9224         calculate D2E/DX2 analytically  !
 ! D72   D(23,9,11,25)          -4.9536         calculate D2E/DX2 analytically  !
 ! D73   D(6,10,12,8)           -8.1422         calculate D2E/DX2 analytically  !
 ! D74   D(6,10,12,26)         178.5176         calculate D2E/DX2 analytically  !
 ! D75   D(24,10,12,8)         168.8481         calculate D2E/DX2 analytically  !
 ! D76   D(24,10,12,26)         -4.4921         calculate D2E/DX2 analytically  !
 ! D77   D(3,13,17,14)           8.9202         calculate D2E/DX2 analytically  !
 ! D78   D(3,13,17,19)        -171.296          calculate D2E/DX2 analytically  !
 ! D79   D(27,13,17,14)       -116.8277         calculate D2E/DX2 analytically  !
 ! D80   D(27,13,17,19)         62.9561         calculate D2E/DX2 analytically  !
 ! D81   D(28,13,17,14)        132.3641         calculate D2E/DX2 analytically  !
 ! D82   D(28,13,17,19)        -47.8522         calculate D2E/DX2 analytically  !
 ! D83   D(4,14,17,13)         -70.2074         calculate D2E/DX2 analytically  !
 ! D84   D(4,14,17,19)         110.0137         calculate D2E/DX2 analytically  !
 ! D85   D(29,14,17,13)        167.746          calculate D2E/DX2 analytically  !
 ! D86   D(29,14,17,19)        -12.0329         calculate D2E/DX2 analytically  !
 ! D87   D(30,14,17,13)         49.9795         calculate D2E/DX2 analytically  !
 ! D88   D(30,14,17,19)       -129.7994         calculate D2E/DX2 analytically  !
 ! D89   D(5,15,18,16)          39.0922         calculate D2E/DX2 analytically  !
 ! D90   D(5,15,18,20)        -140.8213         calculate D2E/DX2 analytically  !
 ! D91   D(31,15,18,16)        -81.3084         calculate D2E/DX2 analytically  !
 ! D92   D(31,15,18,20)         98.7781         calculate D2E/DX2 analytically  !
 ! D93   D(32,15,18,16)        163.5952         calculate D2E/DX2 analytically  !
 ! D94   D(32,15,18,20)        -16.3183         calculate D2E/DX2 analytically  !
 ! D95   D(6,16,18,15)          41.1178         calculate D2E/DX2 analytically  !
 ! D96   D(6,16,18,20)        -138.9687         calculate D2E/DX2 analytically  !
 ! D97   D(33,16,18,15)        -79.0295         calculate D2E/DX2 analytically  !
 ! D98   D(33,16,18,20)        100.884          calculate D2E/DX2 analytically  !
 ! D99   D(34,16,18,15)        165.8634         calculate D2E/DX2 analytically  !
 ! D100  D(34,16,18,20)        -14.2231         calculate D2E/DX2 analytically  !
 --------------------------------------------------------------------------------
 Trust Radius=3.00D-01 FncErr=1.00D-07 GrdErr=1.00D-06 EigMax=2.50D+02 EigMin=1.00D-04
 Number of steps in this run=    204 maximum allowed number of steps=    204.
 Search for a saddle point of order  1.
 GradGradGradGradGradGradGradGradGradGradGradGradGradGradGradGradGradGrad

 Leave Link  103 at Tue May 20 08:39:03 2025, MaxMem=   104857600 cpu:               0.2 elap:               0.0
 (Enter /opt/linux/rocky/8/software/gaussian/16c01_avx2/g16/l202.exe)
                          Input orientation:                          
 ---------------------------------------------------------------------
 Center     Atomic      Atomic             Coordinates (Angstroms)
 Number     Number       Type             X           Y           Z
 ---------------------------------------------------------------------
      1          6           0        0.000448    0.764759   -0.030251
      2          6           0        0.091512   -0.720124   -0.118612
      3          6           0        1.117301    1.667077   -0.129990
      4          6           0        1.324244   -1.437937   -0.227263
      5          6           0       -1.260063    1.402166    0.226994
      6          6           0       -1.086105   -1.534279   -0.239828
      7          6           0        0.882741    3.008184   -0.461597
      8          6           0        1.363108   -2.819475   -0.014334
      9          6           0       -1.448065    2.755880   -0.069823
     10          6           0       -1.013820   -2.916569   -0.036382
     11          6           0       -0.397637    3.546024   -0.517351
     12          6           0        0.200948   -3.559544    0.163779
     13          6           0        2.513529    1.421513    0.423268
     14          6           0        2.606353   -0.825024   -0.759000
     15          6           0       -2.386297    0.733359    0.995450
     16          6           0       -2.412439   -1.027966   -0.778864
     17          6           0        3.257686    0.121662    0.211062
     18          6           0       -3.244505   -0.217744    0.190259
     19          8           0        4.300257   -0.116525    0.786289
     20          8           0       -4.446768   -0.316563    0.306096
     21          1           0        1.740031    3.660696   -0.603653
     22          1           0        2.326210   -3.320331   -0.041991
     23          1           0       -2.429816    3.192471    0.090845
     24          1           0       -1.931406   -3.495929   -0.085940
     25          1           0       -0.554225    4.585094   -0.789042
     26          1           0        0.243569   -4.628910    0.344397
     27          1           0        3.184080    2.212467    0.065932
     28          1           0        2.464566    1.568932    1.510978
     29          1           0        3.316035   -1.616357   -1.005016
     30          1           0        2.372563   -0.263009   -1.674033
     31          1           0       -1.955221    0.130286    1.807128
     32          1           0       -3.029384    1.486873    1.454939
     33          1           0       -2.215579   -0.358582   -1.628945
     34          1           0       -3.012970   -1.860766   -1.149779
 ---------------------------------------------------------------------
                    Distance matrix (angstroms):
                    1          2          3          4          5
     1  C    0.000000
     2  C    1.490295   0.000000
     3  C    1.439266   2.598288   0.000000
     4  C    2.577425   1.430625   3.113422   0.000000
     5  C    1.435740   2.539747   2.418569   3.866675   0.000000
     6  C    2.551489   1.436775   3.887897   2.412306   2.978405
     7  C    2.448970   3.826743   1.401267   4.474129   2.764970
     8  C    3.834557   2.456645   4.494769   1.398391   4.976095
     9  C    2.462584   3.802010   2.787510   5.029770   1.398566
    10  C    3.818501   2.460262   5.055715   2.772964   4.333760
    11  C    2.851521   4.312572   2.444489   5.280994   2.427747
    12  C    4.333295   2.855526   5.314468   2.432267   5.172728
    13  C    2.636775   3.278172   1.521791   3.164497   3.778742
    14  C    3.138348   2.597215   2.970437   1.517304   4.569653
    15  C    2.597999   3.081117   3.796530   4.469638   1.518628
    16  C    3.097791   2.607771   4.488135   3.799360   2.871456
    17  C    3.328874   3.292711   2.661930   2.522435   4.695743
    18  C    3.397596   3.387742   4.762401   4.747280   2.561927
    19  O    4.464500   4.347035   3.761916   3.410289   5.791061
    20  O    4.589130   4.575940   5.923163   5.903095   3.621516
    21  H    3.426571   4.705790   2.141650   5.129387   3.845971
    22  H    4.700773   3.429406   5.132586   2.140483   5.935965
    23  H    3.437242   4.659331   3.867510   5.969492   2.142907
    24  H    4.678528   3.434874   5.996098   3.854161   4.953783
    25  H    3.934258   5.386259   3.426831   6.334125   3.414904
    26  H    5.412128   3.939049   6.374002   3.417157   6.216797
    27  H    3.498660   4.265926   2.146488   4.107360   4.520280
    28  H    3.015619   3.677870   2.125449   3.655554   3.943258
    29  H    4.196784   3.462152   4.047350   2.145685   5.618719
    30  H    3.063537   2.798479   2.772180   2.138357   4.425233
    31  H    2.757383   2.936118   3.943925   4.165689   2.144236
    32  H    3.450669   4.133629   4.442912   5.508030   2.155347
    33  H    2.954402   2.781095   4.178307   3.957280   2.730889
    34  H    4.150592   3.464416   5.526734   4.454351   3.951571
                    6          7          8          9         10
     6  C    0.000000
     7  C    4.955755   0.000000
     8  C    2.775107   5.864504   0.000000
     9  C    4.308756   2.376931   6.244226   0.000000
    10  C    1.399050   6.235419   2.379012   5.689144   0.000000
    11  C    5.134246   1.389873   6.623657   1.388527   6.509694
    12  C    2.433332   6.632570   1.389260   6.531339   1.388936
    13  C    4.704654   2.441307   4.415987   4.209264   5.610029
    14  C    3.795633   4.213404   2.465364   5.453086   4.242922
    15  C    2.891123   4.240805   5.263110   2.470967   4.033652
    16  C    1.518576   5.220094   4.248384   3.968658   2.464597
    17  C    4.670542   3.798005   3.505783   5.400194   5.247651
    18  C    2.564553   5.278796   5.295372   3.483860   3.508700
    19  O    5.663553   4.795878   4.071091   6.482811   6.062710
    20  O    3.615926   6.328267   6.334185   4.309691   4.320006
    21  H    5.925131   1.086691   6.517820   3.356728   7.153035
    22  H    3.856555   6.504596   1.085904   7.153060   3.364351
    23  H    4.925147   3.363360   7.109207   1.086398   6.272288
    24  H    2.141562   7.096762   3.364007   6.270486   1.086314
    25  H    6.166949   2.158411   7.687911   2.159224   7.553322
    26  H    3.418493   7.706061   2.157802   7.587379   2.158270
    27  H    5.689119   2.491508   5.351899   4.665886   6.628714
    28  H    5.030160   2.909410   4.774715   4.383658   5.883299
    29  H    4.468902   5.253818   2.498573   6.533582   4.623467
    30  H    3.954169   3.793452   3.210782   5.126829   4.603354
    31  H    2.777799   4.635023   4.798971   3.267093   3.683489
    32  H    3.971892   4.614349   6.324348   2.536897   5.067232
    33  H    2.141873   4.722012   4.633569   3.566485   3.244037
    34  H    2.155786   6.273502   4.621517   4.992860   2.520114
                   11         12         13         14         15
    11  C    0.000000
    12  C    7.163193   0.000000
    13  C    3.724674   5.497845   0.000000
    14  C    5.309276   3.757006   2.540335   0.000000
    15  C    3.762236   5.080800   4.980888   5.516630   0.000000
    16  C    5.004918   3.758624   5.631184   5.022933   2.500228
    17  C    5.061445   4.785098   1.512750   1.503818   5.730967
    18  C    4.771930   4.799945   5.991361   5.958391   1.513093
    19  O    6.097864   5.389456   2.385318   2.399833   6.743594
    20  O    5.656245   5.669078   7.174982   7.151187   2.413107
    21  H    2.142480   7.422236   2.582016   4.571250   5.305941
    22  H    7.402171   2.148558   4.768295   2.611348   6.302096
    23  H    2.150501   7.246789   5.261507   6.498115   2.620579
    24  H    7.219949   2.147869   6.648156   5.308295   4.388987
    25  H    1.085358   8.234882   4.570455   6.265743   4.623501
    26  H    8.245199   1.085349   6.462705   4.611917   6.007828
    27  H    3.866173   6.498058   1.096784   3.200099   5.837882
    28  H    4.026812   5.765430   1.098746   3.302110   4.949225
    29  H    6.378037   3.853028   3.451473   1.091046   6.483797
    30  H    4.849810   4.354378   2.693726   1.099001   5.546678
    31  H    4.415488   4.578701   4.853047   5.320300   1.099247
    32  H    3.880222   6.129312   5.638484   6.481352   1.092005
    33  H    4.448202   4.393133   5.453877   4.921931   2.847618
    34  H    6.039314   3.865301   6.617403   5.727326   3.424064
                   16         17         18         19         20
    16  C    0.000000
    17  C    5.869575   0.000000
    18  C    1.512611   6.511076   0.000000
    19  O    6.952749   1.214320   7.568945   0.000000
    20  O    2.412826   7.717492   1.211866   8.762479   0.000000
    21  H    6.265561   3.935962   6.365390   4.770125   7.410986
    22  H    5.315328   3.574773   6.380662   3.853217   7.417346
    23  H    4.309151   6.464673   3.507587   7.531732   4.053116
    24  H    2.608137   6.332602   3.542176   7.142463   4.072973
    25  H    5.912656   5.954250   5.591412   6.939228   6.354326
    26  H    4.613338   5.627665   5.625727   6.083881   6.371583
    27  H    6.521895   2.097128   6.873724   2.681225   8.042606
    28  H    5.981006   2.100812   6.126173   2.595323   7.264528
    29  H    5.763052   2.122018   6.813625   2.535145   7.979323
    30  H    4.927751   2.117781   5.918538   3.129001   7.101201
    31  H    2.870183   5.451780   2.097056   6.343030   2.942886
    32  H    3.419782   6.552731   2.133404   7.532703   2.565385
    33  H    1.099757   5.794212   2.094762   6.953277   2.953702
    34  H    1.091683   6.715879   2.132799   7.763635   2.561232
                   21         22         23         24         25
    21  H    0.000000
    22  H    7.028073   0.000000
    23  H    4.253138   8.065607   0.000000
    24  H    8.060072   4.261462   6.709274   0.000000
    25  H    2.480422   8.446936   2.496286   8.227631   0.000000
    26  H    8.476778   2.489793   8.269539   2.489850   9.317673
    27  H    2.151973   5.599950   5.698847   7.666619   4.509464
    28  H    3.061387   5.131837   5.348610   6.894022   4.847724
    29  H    5.521971   2.193330   7.572354   5.649171   7.313245
    30  H    4.115978   3.465967   6.173976   5.612304   5.731789
    31  H    5.650712   5.801435   3.542294   4.090686   5.343052
    32  H    5.631219   7.350673   2.264796   5.329932   4.556406
    33  H    5.731725   5.649622   3.951399   3.507786   5.282562
    34  H    7.305875   5.644853   5.235878   2.230536   6.908304
                   26         27         28         29         30
    26  H    0.000000
    27  H    7.451751   0.000000
    28  H    6.686328   1.737813   0.000000
    29  H    4.509594   3.977969   4.147444   0.000000
    30  H    5.260016   3.132734   3.675428   1.780245   0.000000
    31  H    5.442812   5.812027   4.657459   6.224553   5.568023
    32  H    7.024836   6.408039   5.494849   7.479690   6.483331
    33  H    5.308219   6.216045   5.956357   5.707017   4.589359
    34  H    4.527718   7.514826   6.988981   6.335377   5.641953
                   31         32         33         34
    31  H    0.000000
    32  H    1.765840   0.000000
    33  H    3.480428   3.684878   0.000000
    34  H    3.718389   4.241640   1.766915   0.000000
 Stoichiometry    C18H14O2
 Framework group  C1[X(C18H14O2)]
 Deg. of freedom    96
 Full point group                 C1      NOp   1
 Largest Abelian subgroup         C1      NOp   1
 Largest concise Abelian subgroup C1      NOp   1
                         Standard orientation:                         
 ---------------------------------------------------------------------
 Center     Atomic      Atomic             Coordinates (Angstroms)
 Number     Number       Type             X           Y           Z
 ---------------------------------------------------------------------
      1          6           0        0.000448    0.764759   -0.030251
      2          6           0        0.091512   -0.720124   -0.118612
      3          6           0        1.117301    1.667077   -0.129990
      4          6           0        1.324244   -1.437937   -0.227263
      5          6           0       -1.260063    1.402166    0.226994
      6          6           0       -1.086105   -1.534279   -0.239828
      7          6           0        0.882741    3.008184   -0.461597
      8          6           0        1.363108   -2.819475   -0.014334
      9          6           0       -1.448065    2.755880   -0.069823
     10          6           0       -1.013820   -2.916569   -0.036382
     11          6           0       -0.397637    3.546024   -0.517351
     12          6           0        0.200948   -3.559544    0.163779
     13          6           0        2.513529    1.421513    0.423268
     14          6           0        2.606353   -0.825024   -0.759000
     15          6           0       -2.386297    0.733359    0.995450
     16          6           0       -2.412439   -1.027966   -0.778864
     17          6           0        3.257686    0.121662    0.211062
     18          6           0       -3.244505   -0.217744    0.190259
     19          8           0        4.300257   -0.116525    0.786289
     20          8           0       -4.446768   -0.316563    0.306096
     21          1           0        1.740031    3.660696   -0.603653
     22          1           0        2.326210   -3.320331   -0.041991
     23          1           0       -2.429816    3.192471    0.090845
     24          1           0       -1.931406   -3.495929   -0.085940
     25          1           0       -0.554225    4.585094   -0.789042
     26          1           0        0.243569   -4.628910    0.344397
     27          1           0        3.184080    2.212467    0.065932
     28          1           0        2.464566    1.568932    1.510978
     29          1           0        3.316035   -1.616357   -1.005016
     30          1           0        2.372563   -0.263009   -1.674033
     31          1           0       -1.955221    0.130286    1.807128
     32          1           0       -3.029384    1.486873    1.454939
     33          1           0       -2.215579   -0.358582   -1.628945
     34          1           0       -3.012970   -1.860766   -1.149779
 ---------------------------------------------------------------------
 Rotational constants (GHZ):           0.4816773           0.3493254           0.2137402
 Leave Link  202 at Tue May 20 08:39:03 2025, MaxMem=   104857600 cpu:               0.1 elap:               0.0
 (Enter /opt/linux/rocky/8/software/gaussian/16c01_avx2/g16/l301.exe)
 Standard basis: 6-31G(d,p) (6D, 7F)
 Ernie: Thresh=  0.10000D-02 Tol=  0.10000D-05 Strict=F.
 There are   370 symmetry adapted cartesian basis functions of A   symmetry.
 There are   370 symmetry adapted basis functions of A   symmetry.
   370 basis functions,   658 primitive gaussians,   370 cartesian basis functions
    69 alpha electrons       69 beta electrons
       nuclear repulsion energy      1467.2161128507 Hartrees.
 IExCor=  402 DFT=T Ex+Corr=B3LYP ExCW=0 ScaHFX=  0.200000
 ScaDFX=  0.800000  0.720000  1.000000  0.810000 ScalE2=  1.000000  1.000000
 IRadAn=      5 IRanWt=     -1 IRanGd=            0 ICorTp=0 IEmpDi=  4
 NAtoms=   34 NActive=   34 NUniq=   34 SFac= 1.00D+00 NAtFMM=   60 NAOKFM=F Big=F
 Integral buffers will be    131072 words long.
 Raffenetti 2 integral format.
 Two-electron integral symmetry is turned on.
 Leave Link  301 at Tue May 20 08:39:03 2025, MaxMem=   104857600 cpu:               0.5 elap:               0.0
 (Enter /opt/linux/rocky/8/software/gaussian/16c01_avx2/g16/l302.exe)
 NPDir=0 NMtPBC=     1 NCelOv=     1 NCel=       1 NClECP=     1 NCelD=      1
         NCelK=      1 NCelE2=     1 NClLst=     1 CellRange=     0.0.
 One-electron integrals computed using PRISM.
 One-electron integral symmetry used in STVInt
 PrsmSu:  requested number of processors reduced to:  28 ShMem   1 Linda.
 NBasis=   370 RedAO= T EigKep=  4.11D-04  NBF=   370
 NBsUse=   370 1.00D-06 EigRej= -1.00D+00 NBFU=   370
 Precomputing XC quadrature grid using
 IXCGrd= 4 IRadAn=           5 IRanWt=          -1 IRanGd=           0 AccXCQ= 0.00D+00.
 Generated NRdTot=       0 NPtTot=           0 NUsed=           0 NTot=          32
 NSgBfM=   369   369   369   369   369 MxSgAt=    34 MxSgA2=    34.
 Leave Link  302 at Tue May 20 08:39:03 2025, MaxMem=   104857600 cpu:               6.0 elap:               0.2
 (Enter /opt/linux/rocky/8/software/gaussian/16c01_avx2/g16/l303.exe)
 DipDrv:  MaxL=1.
 Leave Link  303 at Tue May 20 08:39:03 2025, MaxMem=   104857600 cpu:               0.5 elap:               0.0
 (Enter /opt/linux/rocky/8/software/gaussian/16c01_avx2/g16/l401.exe)
 ExpMin= 1.61D-01 ExpMax= 5.48D+03 ExpMxC= 8.25D+02 IAcc=3 IRadAn=         5 AccDes= 0.00D+00
 Harris functional with IExCor=  402 and IRadAn=       5 diagonalized for initial guess.
 HarFok:  IExCor=  402 AccDes= 0.00D+00 IRadAn=         5 IDoV= 1 UseB2=F ITyADJ=14
 ICtDFT=  3500011 ScaDFX=  1.000000  1.000000  1.000000  1.000000
 FoFCou: FMM=F IPFlag=           0 FMFlag=      100000 FMFlg1=           0
         NFxFlg=           0 DoJE=T BraDBF=F KetDBF=T FulRan=T
         wScrn=  0.000000 ICntrl=       500 IOpCl=  0 I1Cent=   200000004 NGrid=           0
         NMat0=    1 NMatS0=      1 NMatT0=    0 NMatD0=    1 NMtDS0=    0 NMtDT0=    0
 Petite list used in FoFCou.
 Harris En= -844.805739556474    
 JPrj=0 DoOrth=F DoCkMO=F.
 Leave Link  401 at Tue May 20 08:39:04 2025, MaxMem=   104857600 cpu:              12.7 elap:               0.4
 (Enter /opt/linux/rocky/8/software/gaussian/16c01_avx2/g16/l502.exe)
 Integral symmetry usage will be decided dynamically.
 Closed shell SCF:
 Using DIIS extrapolation, IDIIS=  1040.
 NGot=   104857600 LenX=   104567246 LenY=   104429905
 Requested convergence on RMS density matrix=1.00D-10 within 128 cycles.
 Requested convergence on MAX density matrix=1.00D-08.
 Requested convergence on             energy=1.00D-08.
 No special actions if energy rises.
 Fock matrices will be formed incrementally for  20 cycles.
 Integral accuracy reduced to 1.0D-05 until final iterations.

 Cycle   1  Pass 0  IDiag  1:
 FoFJK:  IHMeth= 1 ICntrl=       0 DoSepK=F KAlg= 0 I1Cent=           0 FoldK=F
 IRaf= 830000000 NMat=       1 IRICut=       1 DoRegI=T DoRafI=F ISym2E= 0 IDoP0=0 IntGTp=1.
 FoFCou: FMM=F IPFlag=           0 FMFlag=      100000 FMFlg1=           0
         NFxFlg=           0 DoJE=F BraDBF=F KetDBF=F FulRan=T
         wScrn=  0.000000 ICntrl=         0 IOpCl=  0 I1Cent=           0 NGrid=           0
         NMat0=    1 NMatS0=      1 NMatT0=    0 NMatD0=    1 NMtDS0=    0 NMtDT0=    0
 Symmetry not used in FoFCou.
 E= -844.350271092228    
 DIIS: error= 2.56D-02 at cycle   1 NSaved=   1.
 NSaved= 1 IEnMin= 1 EnMin= -844.350271092228     IErMin= 1 ErrMin= 2.56D-02
 ErrMax= 2.56D-02  0.00D+00 EMaxC= 1.00D-01 BMatC= 4.51D-01 BMatP= 4.51D-01
 IDIUse=3 WtCom= 7.44D-01 WtEn= 2.56D-01
 Coeff-Com:  0.100D+01
 Coeff-En:   0.100D+01
 Coeff:      0.100D+01
 Gap=     0.164 Goal=   None    Shift=    0.000
 GapD=    0.164 DampG=1.000 DampE=0.500 DampFc=0.5000 IDamp=-1.
 Damping current iteration by 5.00D-01
 RMSDP=4.50D-03 MaxDP=1.57D-01              OVMax= 2.08D-01

 Cycle   2  Pass 0  IDiag  1:
 RMSU=  2.22D-03    CP:  9.78D-01
 E= -844.515259130711     Delta-E=       -0.164988038483 Rises=F Damp=T
 DIIS: error= 7.01D-03 at cycle   2 NSaved=   2.
 NSaved= 2 IEnMin= 2 EnMin= -844.515259130711     IErMin= 2 ErrMin= 7.01D-03
 ErrMax= 7.01D-03  0.00D+00 EMaxC= 1.00D-01 BMatC= 5.98D-02 BMatP= 4.51D-01
 IDIUse=3 WtCom= 9.30D-01 WtEn= 7.01D-02
 Coeff-Com:  0.151D+00 0.849D+00
 Coeff-En:   0.211D+00 0.789D+00
 Coeff:      0.155D+00 0.845D+00
 Gap=     0.194 Goal=   None    Shift=    0.000
 RMSDP=1.48D-03 MaxDP=6.79D-02 DE=-1.65D-01 OVMax= 1.55D-01

 Cycle   3  Pass 0  IDiag  1:
 RMSU=  1.40D-03    CP:  9.65D-01  8.15D-01
 E= -844.703995017782     Delta-E=       -0.188735887071 Rises=F Damp=F
 DIIS: error= 1.02D-02 at cycle   3 NSaved=   3.
 NSaved= 3 IEnMin= 3 EnMin= -844.703995017782     IErMin= 2 ErrMin= 7.01D-03
 ErrMax= 1.02D-02  0.00D+00 EMaxC= 1.00D-01 BMatC= 9.17D-02 BMatP= 5.98D-02
 IDIUse=2 WtCom= 0.00D+00 WtEn= 1.00D+00
 Coeff-En:   0.000D+00 0.000D+00 0.100D+01
 Coeff:      0.000D+00 0.000D+00 0.100D+01
 Gap=     0.169 Goal=   None    Shift=    0.000
 RMSDP=2.88D-03 MaxDP=1.24D-01 DE=-1.89D-01 OVMax= 2.42D-01

 Cycle   4  Pass 0  IDiag  1:
 RMSU=  1.44D-03    CP:  9.71D-01  1.36D+00 -5.48D-01
 E= -844.254325564390     Delta-E=        0.449669453392 Rises=F Damp=F
 DIIS: error= 2.63D-02 at cycle   4 NSaved=   4.
 NSaved= 4 IEnMin= 3 EnMin= -844.703995017782     IErMin= 2 ErrMin= 7.01D-03
 ErrMax= 2.63D-02  0.00D+00 EMaxC= 1.00D-01 BMatC= 6.08D-01 BMatP= 5.98D-02
 IDIUse=2 WtCom= 0.00D+00 WtEn= 1.00D+00
 Coeff-En:   0.000D+00 0.000D+00 0.806D+00 0.194D+00
 Coeff:      0.000D+00 0.000D+00 0.806D+00 0.194D+00
 Gap=     0.157 Goal=   None    Shift=    0.000
 RMSDP=1.55D-03 MaxDP=7.93D-02 DE= 4.50D-01 OVMax= 1.11D-01

 Cycle   5  Pass 0  IDiag  1:
 RMSU=  2.28D-04    CP:  9.69D-01  1.01D+00  2.45D-01  5.13D-01
 E= -844.745718800943     Delta-E=       -0.491393236553 Rises=F Damp=F
 DIIS: error= 7.33D-03 at cycle   5 NSaved=   5.
 NSaved= 5 IEnMin= 5 EnMin= -844.745718800943     IErMin= 2 ErrMin= 7.01D-03
 ErrMax= 7.33D-03  0.00D+00 EMaxC= 1.00D-01 BMatC= 4.79D-02 BMatP= 5.98D-02
 IDIUse=3 WtCom= 9.27D-01 WtEn= 7.33D-02
 Coeff-Com: -0.510D-02 0.339D-01 0.304D+00-0.112D+00 0.780D+00
 Coeff-En:   0.000D+00 0.000D+00 0.378D+00 0.000D+00 0.622D+00
 Coeff:     -0.472D-02 0.314D-01 0.309D+00-0.104D+00 0.768D+00
 Gap=     0.163 Goal=   None    Shift=    0.000
 RMSDP=5.91D-04 MaxDP=2.20D-02 DE=-4.91D-01 OVMax= 3.95D-02

 Cycle   6  Pass 0  IDiag  1:
 RMSU=  5.16D-05    CP:  9.68D-01  9.12D-01  5.61D-01  2.92D-01  7.78D-01
 E= -844.788777670000     Delta-E=       -0.043058869058 Rises=F Damp=F
 DIIS: error= 2.05D-04 at cycle   6 NSaved=   6.
 NSaved= 6 IEnMin= 6 EnMin= -844.788777670000     IErMin= 6 ErrMin= 2.05D-04
 ErrMax= 2.05D-04  0.00D+00 EMaxC= 1.00D-01 BMatC= 3.74D-05 BMatP= 4.79D-02
 IDIUse=3 WtCom= 9.98D-01 WtEn= 2.05D-03
 Coeff-Com: -0.213D-02 0.923D-02 0.128D+00-0.489D-01 0.341D+00 0.573D+00
 Coeff-En:   0.000D+00 0.000D+00 0.000D+00 0.000D+00 0.000D+00 0.100D+01
 Coeff:     -0.212D-02 0.921D-02 0.127D+00-0.488D-01 0.340D+00 0.574D+00
 Gap=     0.160 Goal=   None    Shift=    0.000
 RMSDP=3.21D-05 MaxDP=9.33D-04 DE=-4.31D-02 OVMax= 2.72D-03

 Cycle   7  Pass 0  IDiag  1:
 RMSU=  1.80D-05    CP:  9.68D-01  9.16D-01  5.57D-01  2.97D-01  8.23D-01
                    CP:  5.99D-01
 E= -844.788800340246     Delta-E=       -0.000022670246 Rises=F Damp=F
 DIIS: error= 2.11D-04 at cycle   7 NSaved=   7.
 NSaved= 7 IEnMin= 7 EnMin= -844.788800340246     IErMin= 6 ErrMin= 2.05D-04
 ErrMax= 2.11D-04  0.00D+00 EMaxC= 1.00D-01 BMatC= 1.58D-05 BMatP= 3.74D-05
 IDIUse=3 WtCom= 9.98D-01 WtEn= 2.05D-03
 Coeff-Com: -0.472D-03 0.991D-03 0.414D-01-0.172D-01 0.114D+00 0.369D+00
 Coeff-Com:  0.492D+00
 Coeff-En:   0.000D+00 0.000D+00 0.000D+00 0.000D+00 0.000D+00 0.322D+00
 Coeff-En:   0.678D+00
 Coeff:     -0.471D-03 0.989D-03 0.413D-01-0.171D-01 0.114D+00 0.369D+00
 Coeff:      0.492D+00
 Gap=     0.160 Goal=   None    Shift=    0.000
 RMSDP=1.35D-05 MaxDP=6.20D-04 DE=-2.27D-05 OVMax= 1.48D-03

 Cycle   8  Pass 0  IDiag  1:
 RMSU=  5.93D-06    CP:  9.68D-01  9.15D-01  5.60D-01  2.95D-01  8.11D-01
                    CP:  7.09D-01  5.48D-01
 E= -844.788816449110     Delta-E=       -0.000016108864 Rises=F Damp=F
 DIIS: error= 3.64D-05 at cycle   8 NSaved=   8.
 NSaved= 8 IEnMin= 8 EnMin= -844.788816449110     IErMin= 8 ErrMin= 3.64D-05
 ErrMax= 3.64D-05  0.00D+00 EMaxC= 1.00D-01 BMatC= 1.28D-06 BMatP= 1.58D-05
 IDIUse=1 WtCom= 1.00D+00 WtEn= 0.00D+00
 Coeff-Com:  0.141D-03-0.875D-03 0.137D-01-0.496D-02 0.349D-01 0.166D+00
 Coeff-Com:  0.300D+00 0.491D+00
 Coeff:      0.141D-03-0.875D-03 0.137D-01-0.496D-02 0.349D-01 0.166D+00
 Coeff:      0.300D+00 0.491D+00
 Gap=     0.160 Goal=   None    Shift=    0.000
 RMSDP=3.58D-06 MaxDP=1.10D-04 DE=-1.61D-05 OVMax= 2.45D-04

 Initial convergence to 1.0D-05 achieved.  Increase integral accuracy.
 Cycle   9  Pass 1  IDiag  1:
 E= -844.788810131801     Delta-E=        0.000006317309 Rises=F Damp=F
 DIIS: error= 8.44D-05 at cycle   1 NSaved=   1.
 NSaved= 1 IEnMin= 1 EnMin= -844.788810131801     IErMin= 1 ErrMin= 8.44D-05
 ErrMax= 8.44D-05  0.00D+00 EMaxC= 1.00D-01 BMatC= 7.86D-07 BMatP= 7.86D-07
 IDIUse=1 WtCom= 1.00D+00 WtEn= 0.00D+00
 Coeff-Com:  0.100D+01
 Coeff:      0.100D+01
 Gap=     0.160 Goal=   None    Shift=    0.000
 RMSDP=3.58D-06 MaxDP=1.10D-04 DE= 6.32D-06 OVMax= 1.41D-04

 Cycle  10  Pass 1  IDiag  1:
 RMSU=  3.62D-05    CP:  1.00D+00
 E= -844.788810603641     Delta-E=       -0.000000471840 Rises=F Damp=F
 DIIS: error= 1.52D-05 at cycle   2 NSaved=   2.
 NSaved= 2 IEnMin= 2 EnMin= -844.788810603641     IErMin= 2 ErrMin= 1.52D-05
 ErrMax= 1.52D-05  0.00D+00 EMaxC= 1.00D-01 BMatC= 1.52D-07 BMatP= 7.86D-07
 IDIUse=1 WtCom= 1.00D+00 WtEn= 0.00D+00
 Coeff-Com:  0.202D+00 0.798D+00
 Coeff:      0.202D+00 0.798D+00
 Gap=     0.160 Goal=   None    Shift=    0.000
 RMSDP=3.20D-06 MaxDP=1.02D-04 DE=-4.72D-07 OVMax= 2.49D-04

 Cycle  11  Pass 1  IDiag  1:
 RMSU=  3.18D-06    CP:  1.00D+00  1.01D+00
 E= -844.788810325069     Delta-E=        0.000000278572 Rises=F Damp=F
 DIIS: error= 2.70D-05 at cycle   3 NSaved=   3.
 NSaved= 3 IEnMin= 2 EnMin= -844.788810603641     IErMin= 2 ErrMin= 1.52D-05
 ErrMax= 2.70D-05  0.00D+00 EMaxC= 1.00D-01 BMatC= 4.34D-07 BMatP= 1.52D-07
 IDIUse=1 WtCom= 1.00D+00 WtEn= 0.00D+00
 Coeff-Com:  0.129D-02 0.629D+00 0.370D+00
 Coeff:      0.129D-02 0.629D+00 0.370D+00
 Gap=     0.160 Goal=   None    Shift=    0.000
 RMSDP=1.99D-06 MaxDP=6.75D-05 DE= 2.79D-07 OVMax= 1.63D-04

 Cycle  12  Pass 1  IDiag  1:
 RMSU=  3.58D-07    CP:  1.00D+00  1.01D+00  3.88D-01
 E= -844.788810752008     Delta-E=       -0.000000426939 Rises=F Damp=F
 DIIS: error= 1.96D-06 at cycle   4 NSaved=   4.
 NSaved= 4 IEnMin= 4 EnMin= -844.788810752008     IErMin= 4 ErrMin= 1.96D-06
 ErrMax= 1.96D-06  0.00D+00 EMaxC= 1.00D-01 BMatC= 4.02D-09 BMatP= 1.52D-07
 IDIUse=1 WtCom= 1.00D+00 WtEn= 0.00D+00
 Coeff-Com: -0.350D-02 0.353D+00 0.217D+00 0.433D+00
 Coeff:     -0.350D-02 0.353D+00 0.217D+00 0.433D+00
 Gap=     0.160 Goal=   None    Shift=    0.000
 RMSDP=2.08D-07 MaxDP=6.31D-06 DE=-4.27D-07 OVMax= 1.41D-05

 Cycle  13  Pass 1  IDiag  1:
 RMSU=  7.94D-08    CP:  1.00D+00  1.01D+00  3.90D-01  4.63D-01
 E= -844.788810755942     Delta-E=       -0.000000003934 Rises=F Damp=F
 DIIS: error= 2.18D-07 at cycle   5 NSaved=   5.
 NSaved= 5 IEnMin= 5 EnMin= -844.788810755942     IErMin= 5 ErrMin= 2.18D-07
 ErrMax= 2.18D-07  0.00D+00 EMaxC= 1.00D-01 BMatC= 5.87D-11 BMatP= 4.02D-09
 IDIUse=1 WtCom= 1.00D+00 WtEn= 0.00D+00
 Coeff-Com: -0.181D-02 0.165D+00 0.102D+00 0.222D+00 0.512D+00
 Coeff:     -0.181D-02 0.165D+00 0.102D+00 0.222D+00 0.512D+00
 Gap=     0.160 Goal=   None    Shift=    0.000
 RMSDP=3.20D-08 MaxDP=1.44D-06 DE=-3.93D-09 OVMax= 2.96D-06

 Cycle  14  Pass 1  IDiag  1:
 RMSU=  2.75D-08    CP:  1.00D+00  1.01D+00  3.90D-01  4.81D-01  8.09D-01
 E= -844.788810756001     Delta-E=       -0.000000000059 Rises=F Damp=F
 DIIS: error= 1.05D-07 at cycle   6 NSaved=   6.
 NSaved= 6 IEnMin= 6 EnMin= -844.788810756001     IErMin= 6 ErrMin= 1.05D-07
 ErrMax= 1.05D-07  0.00D+00 EMaxC= 1.00D-01 BMatC= 1.06D-11 BMatP= 5.87D-11
 IDIUse=1 WtCom= 1.00D+00 WtEn= 0.00D+00
 Coeff-Com: -0.600D-03 0.500D-01 0.309D-01 0.741D-01 0.314D+00 0.532D+00
 Coeff:     -0.600D-03 0.500D-01 0.309D-01 0.741D-01 0.314D+00 0.532D+00
 Gap=     0.160 Goal=   None    Shift=    0.000
 RMSDP=1.19D-08 MaxDP=4.77D-07 DE=-5.91D-11 OVMax= 1.16D-06

 Cycle  15  Pass 1  IDiag  1:
 RMSU=  7.66D-09    CP:  1.00D+00  1.01D+00  3.89D-01  4.84D-01  8.41D-01
                    CP:  6.98D-01
 E= -844.788810756000     Delta-E=        0.000000000001 Rises=F Damp=F
 DIIS: error= 2.61D-08 at cycle   7 NSaved=   7.
 NSaved= 7 IEnMin= 6 EnMin= -844.788810756001     IErMin= 7 ErrMin= 2.61D-08
 ErrMax= 2.61D-08  0.00D+00 EMaxC= 1.00D-01 BMatC= 7.52D-13 BMatP= 1.06D-11
 IDIUse=1 WtCom= 1.00D+00 WtEn= 0.00D+00
 Coeff-Com: -0.111D-03 0.794D-02 0.492D-02 0.139D-01 0.101D+00 0.273D+00
 Coeff-Com:  0.600D+00
 Coeff:     -0.111D-03 0.794D-02 0.492D-02 0.139D-01 0.101D+00 0.273D+00
 Coeff:      0.600D+00
 Gap=     0.160 Goal=   None    Shift=    0.000
 RMSDP=3.78D-09 MaxDP=1.78D-07 DE= 9.09D-13 OVMax= 3.42D-07

 Cycle  16  Pass 1  IDiag  1:
 RMSU=  2.78D-09    CP:  1.00D+00  1.01D+00  3.90D-01  4.84D-01  8.49D-01
                    CP:  7.40D-01  7.24D-01
 E= -844.788810756012     Delta-E=       -0.000000000013 Rises=F Damp=F
 DIIS: error= 1.42D-08 at cycle   8 NSaved=   8.
 NSaved= 8 IEnMin= 8 EnMin= -844.788810756012     IErMin= 8 ErrMin= 1.42D-08
 ErrMax= 1.42D-08  0.00D+00 EMaxC= 1.00D-01 BMatC= 2.33D-13 BMatP= 7.52D-13
 IDIUse=1 WtCom= 1.00D+00 WtEn= 0.00D+00
 Coeff-Com:  0.128D-04-0.202D-02-0.125D-02-0.164D-02 0.199D-01 0.107D+00
 Coeff-Com:  0.406D+00 0.473D+00
 Coeff:      0.128D-04-0.202D-02-0.125D-02-0.164D-02 0.199D-01 0.107D+00
 Coeff:      0.406D+00 0.473D+00
 Gap=     0.160 Goal=   None    Shift=    0.000
 RMSDP=1.61D-09 MaxDP=7.53D-08 DE=-1.27D-11 OVMax= 1.56D-07

 Cycle  17  Pass 1  IDiag  1:
 RMSU=  8.83D-10    CP:  1.00D+00  1.01D+00  3.90D-01  4.84D-01  8.52D-01
                    CP:  7.49D-01  7.45D-01  5.43D-01
 E= -844.788810756008     Delta-E=        0.000000000005 Rises=F Damp=F
 DIIS: error= 4.44D-09 at cycle   9 NSaved=   9.
 NSaved= 9 IEnMin= 8 EnMin= -844.788810756012     IErMin= 9 ErrMin= 4.44D-09
 ErrMax= 4.44D-09  0.00D+00 EMaxC= 1.00D-01 BMatC= 1.98D-14 BMatP= 2.33D-13
 IDIUse=1 WtCom= 1.00D+00 WtEn= 0.00D+00
 Coeff-Com:  0.177D-04-0.199D-02-0.123D-02-0.224D-02 0.443D-02 0.475D-01
 Coeff-Com:  0.215D+00 0.300D+00 0.439D+00
 Coeff:      0.177D-04-0.199D-02-0.123D-02-0.224D-02 0.443D-02 0.475D-01
 Coeff:      0.215D+00 0.300D+00 0.439D+00
 Gap=     0.160 Goal=   None    Shift=    0.000
 RMSDP=4.58D-10 MaxDP=2.17D-08 DE= 4.55D-12 OVMax= 3.78D-08

 Cycle  18  Pass 1  IDiag  1:
 RMSU=  2.80D-10    CP:  1.00D+00  1.01D+00  3.90D-01  4.84D-01  8.51D-01
                    CP:  7.48D-01  7.57D-01  5.79D-01  6.29D-01
 E= -844.788810756003     Delta-E=        0.000000000005 Rises=F Damp=F
 DIIS: error= 7.98D-10 at cycle  10 NSaved=  10.
 NSaved=10 IEnMin= 8 EnMin= -844.788810756012     IErMin=10 ErrMin= 7.98D-10
 ErrMax= 7.98D-10  0.00D+00 EMaxC= 1.00D-01 BMatC= 8.93D-16 BMatP= 1.98D-14
 IDIUse=1 WtCom= 1.00D+00 WtEn= 0.00D+00
 Coeff-Com:  0.714D-05-0.736D-03-0.456D-03-0.904D-03-0.228D-03 0.117D-01
 Coeff-Com:  0.601D-01 0.905D-01 0.213D+00 0.627D+00
 Coeff:      0.714D-05-0.736D-03-0.456D-03-0.904D-03-0.228D-03 0.117D-01
 Coeff:      0.601D-01 0.905D-01 0.213D+00 0.627D+00
 Gap=     0.160 Goal=   None    Shift=    0.000
 RMSDP=1.21D-10 MaxDP=4.51D-09 DE= 4.55D-12 OVMax= 1.40D-08

 Cycle  19  Pass 1  IDiag  1:
 RMSU=  9.44D-11    CP:  1.00D+00  1.01D+00  3.90D-01  4.84D-01  8.51D-01
                    CP:  7.48D-01  7.59D-01  5.84D-01  6.85D-01  8.40D-01
 E= -844.788810755998     Delta-E=        0.000000000005 Rises=F Damp=F
 DIIS: error= 5.12D-10 at cycle  11 NSaved=  11.
 NSaved=11 IEnMin= 8 EnMin= -844.788810756012     IErMin=11 ErrMin= 5.12D-10
 ErrMax= 5.12D-10  0.00D+00 EMaxC= 1.00D-01 BMatC= 1.88D-16 BMatP= 8.93D-16
 IDIUse=1 WtCom= 1.00D+00 WtEn= 0.00D+00
 Coeff-Com:  0.151D-05-0.137D-03-0.858D-04-0.193D-03-0.795D-03 0.187D-03
 Coeff-Com:  0.430D-02 0.828D-02 0.581D-01 0.361D+00 0.569D+00
 Coeff:      0.151D-05-0.137D-03-0.858D-04-0.193D-03-0.795D-03 0.187D-03
 Coeff:      0.430D-02 0.828D-02 0.581D-01 0.361D+00 0.569D+00
 Gap=     0.160 Goal=   None    Shift=    0.000
 RMSDP=5.16D-11 MaxDP=1.83D-09 DE= 5.46D-12 OVMax= 5.00D-09

 SCF Done:  E(RB3LYP) =  -844.788810756     A.U. after   19 cycles
            NFock= 19  Conv=0.52D-10     -V/T= 2.0095
 KE= 8.368469835599D+02 PE=-4.895964888835D+03 EE= 1.747112981668D+03
 Leave Link  502 at Tue May 20 08:39:17 2025, MaxMem=   104857600 cpu:             431.1 elap:              13.6
 (Enter /opt/linux/rocky/8/software/gaussian/16c01_avx2/g16/l801.exe)
 DoSCS=F DFT=T ScalE2(SS,OS)=  1.000000  1.000000
 Range of M.O.s used for correlation:     1   370
 NBasis=   370 NAE=    69 NBE=    69 NFC=     0 NFV=     0
 NROrb=    370 NOA=    69 NOB=    69 NVA=   301 NVB=   301
 Leave Link  801 at Tue May 20 08:39:18 2025, MaxMem=   104857600 cpu:               1.5 elap:               0.1
 (Enter /opt/linux/rocky/8/software/gaussian/16c01_avx2/g16/l1101.exe)
 Using compressed storage, NAtomX=    34.
 Will process     35 centers per pass.
 PrsmSu:  requested number of processors reduced to:  25 ShMem   1 Linda.
 PrsmSu:  requested number of processors reduced to:  11 ShMem   1 Linda.
 Leave Link 1101 at Tue May 20 08:39:18 2025, MaxMem=   104857600 cpu:               7.9 elap:               0.4
 (Enter /opt/linux/rocky/8/software/gaussian/16c01_avx2/g16/l1102.exe)
 Symmetrizing basis deriv contribution to polar:
 IMax=3 JMax=2 DiffMx= 0.00D+00
 Leave Link 1102 at Tue May 20 08:39:18 2025, MaxMem=   104857600 cpu:               0.6 elap:               0.0
 (Enter /opt/linux/rocky/8/software/gaussian/16c01_avx2/g16/l1110.exe)
 Forming Gx(P) for the SCF density, NAtomX=    34.
 Integral derivatives from FoFJK, PRISM(SPDF).
 Do as many integral derivatives as possible in FoFJK.
 G2DrvN: MDV=     104853962.
 G2DrvN: will do     4 centers at a time, making    9 passes.
 G2DrvN:  IPasSy=1 do centers    0 through    3.
 Calling FoFCou, ICntrl=  3107 FMM=F I1Cent=   0 AccDes= 0.00D+00.
 FoFJK:  IHMeth= 1 ICntrl=    3107 DoSepK=F KAlg= 0 I1Cent=           0 FoldK=F
 IRaf=         0 NMat=       1 IRICut=       1 DoRegI=T DoRafI=F ISym2E= 0 IDoP0=0 IntGTp=1.
 FoFCou: FMM=F IPFlag=           0 FMFlag=      100000 FMFlg1=           0
         NFxFlg=           0 DoJE=F BraDBF=F KetDBF=F FulRan=T
         wScrn=  0.000000 ICntrl=      3107 IOpCl=  0 I1Cent=           0 NGrid=           0
         NMat0=    1 NMatS0=      1 NMatT0=    0 NMatD0=    1 NMtDS0=    0 NMtDT0=    0
 Symmetry not used in FoFCou.
 CoulSu:  requested number of processors reduced to:  31 ShMem   1 Linda.
 G2DrvN:  IPasSy=1 do centers    4 through    7.
 Calling FoFCou, ICntrl=  3107 FMM=F I1Cent=   0 AccDes= 0.00D+00.
 CoulSu:  requested number of processors reduced to:  31 ShMem   1 Linda.
 G2DrvN:  IPasSy=1 do centers    8 through   11.
 Calling FoFCou, ICntrl=  3107 FMM=F I1Cent=   0 AccDes= 0.00D+00.
 CoulSu:  requested number of processors reduced to:  31 ShMem   1 Linda.
 G2DrvN:  IPasSy=1 do centers   12 through   15.
 Calling FoFCou, ICntrl=  3107 FMM=F I1Cent=   0 AccDes= 0.00D+00.
 CoulSu:  requested number of processors reduced to:  31 ShMem   1 Linda.
 G2DrvN:  IPasSy=1 do centers   16 through   19.
 Calling FoFCou, ICntrl=  3107 FMM=F I1Cent=   0 AccDes= 0.00D+00.
 CoulSu:  requested number of processors reduced to:  31 ShMem   1 Linda.
 G2DrvN:  IPasSy=1 do centers   20 through   23.
 Calling FoFCou, ICntrl=  3107 FMM=F I1Cent=   0 AccDes= 0.00D+00.
 CoulSu:  requested number of processors reduced to:  31 ShMem   1 Linda.
 G2DrvN:  IPasSy=1 do centers   24 through   27.
 Calling FoFCou, ICntrl=  3107 FMM=F I1Cent=   0 AccDes= 0.00D+00.
 CoulSu:  requested number of processors reduced to:  31 ShMem   1 Linda.
 G2DrvN:  IPasSy=1 do centers   28 through   31.
 Calling FoFCou, ICntrl=  3107 FMM=F I1Cent=   0 AccDes= 0.00D+00.
 CoulSu:  requested number of processors reduced to:  31 ShMem   1 Linda.
 G2DrvN:  IPasSy=1 do centers   32 through   34.
 Calling FoFCou, ICntrl=  3107 FMM=F I1Cent=   0 AccDes= 0.00D+00.
 End of G2Drv F.D. properties file   721 does not exist.
 End of G2Drv F.D. properties file   722 does not exist.
 End of G2Drv F.D. properties file   788 does not exist.
 Leave Link 1110 at Tue May 20 08:40:06 2025, MaxMem=   104857600 cpu:            1492.1 elap:              47.3
 (Enter /opt/linux/rocky/8/software/gaussian/16c01_avx2/g16/l1002.exe)
 Minotr:  Closed shell wavefunction.
          IDoAtm=1111111111111111111111111111111111
          Direct CPHF calculation.
          Differentiating once with respect to electric field.
                with respect to dipole field.
          Differentiating once with respect to nuclear coordinates.
          Requested convergence is 1.0D-08 RMS, and 1.0D-07 maximum.
          Secondary convergence is 1.0D-12 RMS, and 1.0D-12 maximum.
          NewPWx=T KeepS1=F KeepF1=F KeepIn=T MapXYZ=F SortEE=F KeepMc=T.
        10189 words used for storage of precomputed grid.
 Two-electron integrals replicated using symmetry.
          MDV=     104857600 using IRadAn=       1.
          Solving linear equations simultaneously, MaxMat=     384.
 FoF2E skips out because all densities are zero.
 CalDSu exits because no D1Ps are significant.
 FoFJK:  IHMeth= 1 ICntrl=       0 DoSepK=F KAlg= 0 I1Cent=           0 FoldK=F
 IRaf= 770000000 NMat=      12 IRICut=       1 DoRegI=T DoRafI=F ISym2E= 2 IDoP0=0 IntGTp=1.
 FoFCou: FMM=F IPFlag=           0 FMFlag=      100000 FMFlg1=           0
         NFxFlg=           0 DoJE=F BraDBF=F KetDBF=F FulRan=T
         wScrn=  0.000000 ICntrl=         0 IOpCl=  0 I1Cent=           0 NGrid=           0
         NMat0=   12 NMatS0=     12 NMatT0=    0 NMatD0=   12 NMtDS0=    0 NMtDT0=    0
 Integrals replicated using symmetry in FoFCou.
          There are   105 degrees of freedom in the 1st order CPHF.  IDoFFX=6 NUNeed=     3.
    105 vectors produced by pass  0 Test12= 2.08D-14 1.00D-09 XBig12= 3.92D+02 1.06D+01.
 AX will form    12 AO Fock derivatives at one time.
    103 vectors produced by pass  1 Test12= 2.08D-14 1.00D-09 XBig12= 5.07D+01 8.78D-01.
    102 vectors produced by pass  2 Test12= 2.08D-14 1.00D-09 XBig12= 4.85D-01 1.21D-01.
    102 vectors produced by pass  3 Test12= 2.08D-14 1.00D-09 XBig12= 2.76D-03 8.22D-03.
    102 vectors produced by pass  4 Test12= 2.08D-14 1.00D-09 XBig12= 5.87D-06 2.93D-04.
     87 vectors produced by pass  5 Test12= 2.08D-14 1.00D-09 XBig12= 6.71D-09 7.25D-06.
     21 vectors produced by pass  6 Test12= 2.08D-14 1.00D-09 XBig12= 6.88D-12 2.67D-07.
      8 vectors produced by pass  7 Test12= 2.08D-14 1.00D-09 XBig12= 7.11D-15 7.45D-09.
 InvSVY:  IOpt=1 It=  1 EMax= 1.07D-14
 Solved reduced A of dimension   630 with   105 vectors.
 FullF1:  Do perturbations      1 to       3.
 Isotropic polarizability for W=    0.000000      192.90 Bohr**3.
 End of Minotr F.D. properties file   721 does not exist.
 End of Minotr F.D. properties file   722 does not exist.
 End of Minotr F.D. properties file   788 does not exist.
 Leave Link 1002 at Tue May 20 08:41:41 2025, MaxMem=   104857600 cpu:            3012.5 elap:              95.3
 (Enter /opt/linux/rocky/8/software/gaussian/16c01_avx2/g16/l601.exe)
 Copying SCF densities to generalized density rwf, IOpCl= 0 IROHF=0.

 **********************************************************************

            Population analysis using the SCF Density.

 **********************************************************************

 Orbital symmetries:
       Occupied  (A) (A) (A) (A) (A) (A) (A) (A) (A) (A) (A) (A)
                 (A) (A) (A) (A) (A) (A) (A) (A) (A) (A) (A) (A)
                 (A) (A) (A) (A) (A) (A) (A) (A) (A) (A) (A) (A)
                 (A) (A) (A) (A) (A) (A) (A) (A) (A) (A) (A) (A)
                 (A) (A) (A) (A) (A) (A) (A) (A) (A) (A) (A) (A)
                 (A) (A) (A) (A) (A) (A) (A) (A) (A)
       Virtual   (A) (A) (A) (A) (A) (A) (A) (A) (A) (A) (A) (A)
                 (A) (A) (A) (A) (A) (A) (A) (A) (A) (A) (A) (A)
                 (A) (A) (A) (A) (A) (A) (A) (A) (A) (A) (A) (A)
                 (A) (A) (A) (A) (A) (A) (A) (A) (A) (A) (A) (A)
                 (A) (A) (A) (A) (A) (A) (A) (A) (A) (A) (A) (A)
                 (A) (A) (A) (A) (A) (A) (A) (A) (A) (A) (A) (A)
                 (A) (A) (A) (A) (A) (A) (A) (A) (A) (A) (A) (A)
                 (A) (A) (A) (A) (A) (A) (A) (A) (A) (A) (A) (A)
                 (A) (A) (A) (A) (A) (A) (A) (A) (A) (A) (A) (A)
                 (A) (A) (A) (A) (A) (A) (A) (A) (A) (A) (A) (A)
                 (A) (A) (A) (A) (A) (A) (A) (A) (A) (A) (A) (A)
                 (A) (A) (A) (A) (A) (A) (A) (A) (A) (A) (A) (A)
                 (A) (A) (A) (A) (A) (A) (A) (A) (A) (A) (A) (A)
                 (A) (A) (A) (A) (A) (A) (A) (A) (A) (A) (A) (A)
                 (A) (A) (A) (A) (A) (A) (A) (A) (A) (A) (A) (A)
                 (A) (A) (A) (A) (A) (A) (A) (A) (A) (A) (A) (A)
                 (A) (A) (A) (A) (A) (A) (A) (A) (A) (A) (A) (A)
                 (A) (A) (A) (A) (A) (A) (A) (A) (A) (A) (A) (A)
                 (A) (A) (A) (A) (A) (A) (A) (A) (A) (A) (A) (A)
                 (A) (A) (A) (A) (A) (A) (A) (A) (A) (A) (A) (A)
                 (A) (A) (A) (A) (A) (A) (A) (A) (A) (A) (A) (A)
                 (A) (A) (A) (A) (A) (A) (A) (A) (A) (A) (A) (A)
                 (A) (A) (A) (A) (A) (A) (A) (A) (A) (A) (A) (A)
                 (A) (A) (A) (A) (A) (A) (A) (A) (A) (A) (A) (A)
                 (A) (A) (A) (A) (A) (A) (A) (A) (A) (A) (A) (A)
                 (A)
 The electronic state is 1-A.
 Alpha  occ. eigenvalues --  -19.14491 -19.14183 -10.28069 -10.28066 -10.22406
 Alpha  occ. eigenvalues --  -10.22224 -10.21891 -10.21819 -10.21664 -10.21640
 Alpha  occ. eigenvalues --  -10.20765 -10.20337 -10.20332 -10.20314 -10.19996
 Alpha  occ. eigenvalues --  -10.19926 -10.19743 -10.19736 -10.19673 -10.19662
 Alpha  occ. eigenvalues --   -1.04556  -1.04380  -0.88953  -0.86345  -0.82710
 Alpha  occ. eigenvalues --   -0.79812  -0.79146  -0.76495  -0.75683  -0.72093
 Alpha  occ. eigenvalues --   -0.69704  -0.68943  -0.63958  -0.61016  -0.58725
 Alpha  occ. eigenvalues --   -0.57973  -0.55012  -0.53987  -0.51368  -0.50324
 Alpha  occ. eigenvalues --   -0.48915  -0.48241  -0.47900  -0.46906  -0.45804
 Alpha  occ. eigenvalues --   -0.45331  -0.44657  -0.43979  -0.43376  -0.42000
 Alpha  occ. eigenvalues --   -0.41443  -0.41044  -0.39792  -0.39256  -0.38999
 Alpha  occ. eigenvalues --   -0.38007  -0.37033  -0.36504  -0.35879  -0.35209
 Alpha  occ. eigenvalues --   -0.34726  -0.33956  -0.33442  -0.29059  -0.27673
 Alpha  occ. eigenvalues --   -0.25290  -0.24858  -0.22555  -0.22430
 Alpha virt. eigenvalues --   -0.06416  -0.02641  -0.01692  -0.01205  -0.00160
 Alpha virt. eigenvalues --    0.01129   0.08303   0.08870   0.09813   0.10406
 Alpha virt. eigenvalues --    0.11188   0.11688   0.12494   0.13689   0.14751
 Alpha virt. eigenvalues --    0.15591   0.16035   0.16268   0.17034   0.18533
 Alpha virt. eigenvalues --    0.19579   0.19673   0.21329   0.21925   0.22867
 Alpha virt. eigenvalues --    0.23083   0.24583   0.25337   0.25728   0.27887
 Alpha virt. eigenvalues --    0.29271   0.30870   0.31639   0.32299   0.32776
 Alpha virt. eigenvalues --    0.33439   0.36240   0.36358   0.37926   0.38297
 Alpha virt. eigenvalues --    0.38611   0.45938   0.48552   0.49160   0.50497
 Alpha virt. eigenvalues --    0.50992   0.51349   0.52248   0.52950   0.53533
 Alpha virt. eigenvalues --    0.54358   0.54620   0.54893   0.55682   0.56345
 Alpha virt. eigenvalues --    0.57058   0.58339   0.58580   0.59349   0.59765
 Alpha virt. eigenvalues --    0.60249   0.60475   0.60553   0.61101   0.62244
 Alpha virt. eigenvalues --    0.62796   0.64285   0.65382   0.66893   0.67475
 Alpha virt. eigenvalues --    0.67923   0.68500   0.68783   0.69361   0.70149
 Alpha virt. eigenvalues --    0.70288   0.71424   0.73336   0.73830   0.77373
 Alpha virt. eigenvalues --    0.78860   0.79052   0.79734   0.80472   0.81065
 Alpha virt. eigenvalues --    0.81146   0.81266   0.81709   0.82290   0.82967
 Alpha virt. eigenvalues --    0.84023   0.85255   0.86650   0.86970   0.88115
 Alpha virt. eigenvalues --    0.89330   0.90200   0.90962   0.91095   0.91803
 Alpha virt. eigenvalues --    0.93410   0.94238   0.96112   0.96684   0.97266
 Alpha virt. eigenvalues --    0.98487   0.99213   1.01144   1.01595   1.02382
 Alpha virt. eigenvalues --    1.03822   1.07419   1.07819   1.09213   1.09625
 Alpha virt. eigenvalues --    1.10101   1.10832   1.12673   1.13623   1.14190
 Alpha virt. eigenvalues --    1.16574   1.17769   1.20215   1.23037   1.24535
 Alpha virt. eigenvalues --    1.27196   1.27710   1.30785   1.31646   1.32627
 Alpha virt. eigenvalues --    1.34433   1.36065   1.36668   1.38883   1.40758
 Alpha virt. eigenvalues --    1.41022   1.41669   1.44382   1.45869   1.46729
 Alpha virt. eigenvalues --    1.49737   1.51288   1.54666   1.56735   1.57442
 Alpha virt. eigenvalues --    1.61745   1.63140   1.64206   1.65074   1.67177
 Alpha virt. eigenvalues --    1.68042   1.69035   1.71570   1.72146   1.73731
 Alpha virt. eigenvalues --    1.74268   1.75658   1.76852   1.78109   1.78532
 Alpha virt. eigenvalues --    1.79213   1.79757   1.81003   1.81965   1.82716
 Alpha virt. eigenvalues --    1.83539   1.84148   1.85541   1.86467   1.87009
 Alpha virt. eigenvalues --    1.87774   1.89523   1.89595   1.90673   1.92507
 Alpha virt. eigenvalues --    1.93190   1.94073   1.94823   1.95935   1.98240
 Alpha virt. eigenvalues --    2.00014   2.00652   2.01212   2.01758   2.04308
 Alpha virt. eigenvalues --    2.05274   2.07168   2.07362   2.08843   2.09343
 Alpha virt. eigenvalues --    2.11124   2.12871   2.14999   2.16896   2.17588
 Alpha virt. eigenvalues --    2.19268   2.20004   2.21644   2.22933   2.24047
 Alpha virt. eigenvalues --    2.25645   2.26168   2.26857   2.28738   2.30188
 Alpha virt. eigenvalues --    2.30426   2.32576   2.33593   2.34000   2.36288
 Alpha virt. eigenvalues --    2.37322   2.38464   2.39372   2.39801   2.40798
 Alpha virt. eigenvalues --    2.41360   2.43616   2.44444   2.45032   2.45465
 Alpha virt. eigenvalues --    2.46152   2.48540   2.50521   2.51101   2.53091
 Alpha virt. eigenvalues --    2.53928   2.55848   2.56091   2.56383   2.56917
 Alpha virt. eigenvalues --    2.57689   2.58380   2.59464   2.59556   2.62544
 Alpha virt. eigenvalues --    2.64038   2.64813   2.66038   2.66535   2.69010
 Alpha virt. eigenvalues --    2.69658   2.69846   2.71676   2.72385   2.73028
 Alpha virt. eigenvalues --    2.77883   2.78408   2.79179   2.82657   2.84952
 Alpha virt. eigenvalues --    2.85638   2.87490   2.88358   2.90502   2.96284
 Alpha virt. eigenvalues --    2.96596   2.99748   3.01398   3.02793   3.05510
 Alpha virt. eigenvalues --    3.06862   3.08469   3.12276   3.13764   3.19518
 Alpha virt. eigenvalues --    3.24498   3.25160   3.26280   3.29709   3.30261
 Alpha virt. eigenvalues --    3.31232   3.32339   3.35354   3.39038   3.39747
 Alpha virt. eigenvalues --    3.45808   3.46081   3.47845   3.50189   3.75593
 Alpha virt. eigenvalues --    3.78729   4.02831   4.06008   4.09430   4.13706
 Alpha virt. eigenvalues --    4.14497   4.16028   4.20416   4.21960   4.26604
 Alpha virt. eigenvalues --    4.27304   4.40958   4.44595   4.49139   4.50706
 Alpha virt. eigenvalues --    4.57940   4.59794   4.68551   4.76542   4.80983
 Alpha virt. eigenvalues --    4.83462
          Condensed to atoms (all electrons):
               1          2          3          4          5          6
     1  C    5.004443   0.357826   0.448689  -0.044101   0.445689  -0.040033
     2  C    0.357826   4.974116  -0.045217   0.440281  -0.034910   0.447963
     3  C    0.448689  -0.045217   5.003590  -0.017668  -0.048051   0.006626
     4  C   -0.044101   0.440281  -0.017668   4.928413   0.007372  -0.043199
     5  C    0.445689  -0.034910  -0.048051   0.007372   4.969541  -0.031089
     6  C   -0.040033   0.447963   0.006626  -0.043199  -0.031089   4.963976
     7  C   -0.024037   0.006263   0.505403   0.000215  -0.049643  -0.000144
     8  C    0.006699  -0.018630   0.000200   0.534985  -0.000199  -0.047554
     9  C   -0.025585   0.005718  -0.044989  -0.000194   0.527743   0.000657
    10  C    0.005982  -0.025748  -0.000165  -0.045474   0.000539   0.529125
    11  C   -0.033076   0.000199  -0.034191   0.000001  -0.033832  -0.000011
    12  C    0.000169  -0.034551  -0.000002  -0.036322   0.000002  -0.034384
    13  C   -0.052162  -0.006043   0.275106   0.001115   0.003915  -0.000015
    14  C   -0.014576  -0.055480   0.015632   0.344281   0.000001   0.004394
    15  C   -0.047638  -0.009997   0.004258   0.000008   0.314890   0.010488
    16  C   -0.010261  -0.048080  -0.000019   0.004144   0.011424   0.316602
    17  C   -0.000179  -0.000522  -0.018430  -0.029397  -0.000255  -0.000054
    18  C   -0.003326  -0.002693  -0.000130  -0.000113  -0.032197  -0.032660
    19  O    0.000157  -0.000118   0.003901  -0.000252   0.000001  -0.000001
    20  O   -0.000047  -0.000051   0.000001   0.000001   0.001762   0.001662
    21  H    0.004403  -0.000155  -0.043716   0.000003   0.000777   0.000001
    22  H   -0.000162   0.004486   0.000001  -0.035772   0.000001   0.000815
    23  H    0.004407  -0.000178   0.000822   0.000001  -0.037151  -0.000006
    24  H   -0.000186   0.004235   0.000001   0.000904  -0.000004  -0.036939
    25  H    0.000545   0.000003   0.004688  -0.000000   0.004709   0.000000
    26  H    0.000006   0.000821  -0.000000   0.004575   0.000000   0.004519
    27  H    0.003366   0.000091  -0.036169   0.000051  -0.000097   0.000002
    28  H   -0.003042  -0.000170  -0.033656   0.000364   0.000203  -0.000006
    29  H    0.000246   0.003824  -0.000238  -0.030426   0.000006  -0.000142
    30  H   -0.000394  -0.003658   0.004336  -0.034153  -0.000059   0.000278
    31  H   -0.002423  -0.001875   0.000595  -0.000340  -0.033969   0.009593
    32  H    0.003656   0.000200  -0.000164   0.000006  -0.031394   0.000121
    33  H   -0.001620  -0.002806  -0.000337   0.000450   0.010520  -0.033739
    34  H    0.000198   0.003642   0.000007  -0.000128   0.000099  -0.031536
               7          8          9         10         11         12
     1  C   -0.024037   0.006699  -0.025585   0.005982  -0.033076   0.000169
     2  C    0.006263  -0.018630   0.005718  -0.025748   0.000199  -0.034551
     3  C    0.505403   0.000200  -0.044989  -0.000165  -0.034191  -0.000002
     4  C    0.000215   0.534985  -0.000194  -0.045474   0.000001  -0.036322
     5  C   -0.049643  -0.000199   0.527743   0.000539  -0.033832   0.000002
     6  C   -0.000144  -0.047554   0.000657   0.529125  -0.000011  -0.034384
     7  C    4.922591   0.000001  -0.035148  -0.000000   0.519247   0.000000
     8  C    0.000001   4.877157   0.000000  -0.035567   0.000000   0.527393
     9  C   -0.035148   0.000000   4.887216   0.000005   0.531973  -0.000000
    10  C   -0.000000  -0.035567   0.000005   4.887677  -0.000000   0.531236
    11  C    0.519247   0.000000   0.531973  -0.000000   4.822736   0.000000
    12  C    0.000000   0.527393  -0.000000   0.531236   0.000000   4.820373
    13  C   -0.037351   0.000002   0.000022   0.000005   0.005489   0.000013
    14  C    0.000044  -0.044053   0.000015   0.000340  -0.000014   0.006480
    15  C    0.000319   0.000023  -0.047575  -0.000732   0.006024   0.000000
    16  C    0.000027   0.000291  -0.000975  -0.046788  -0.000008   0.006060
    17  C    0.002962  -0.001008  -0.000002  -0.000013  -0.000149  -0.000068
    18  C   -0.000009  -0.000002   0.001224   0.000967  -0.000061  -0.000086
    19  O   -0.000089   0.000061   0.000000   0.000000   0.000000  -0.000001
    20  O    0.000000   0.000000   0.000089   0.000066   0.000000   0.000000
    21  H    0.368060  -0.000000   0.004614  -0.000000  -0.038863  -0.000000
    22  H    0.000000   0.365618  -0.000000   0.004389  -0.000000  -0.039821
    23  H    0.004402  -0.000000   0.364130   0.000000  -0.038900  -0.000000
    24  H   -0.000000   0.004328   0.000000   0.364405  -0.000000  -0.038987
    25  H   -0.038506   0.000000  -0.038145   0.000000   0.365774  -0.000000
    26  H    0.000000  -0.037605   0.000000  -0.038049  -0.000000   0.364556
    27  H   -0.005326  -0.000005  -0.000028  -0.000000   0.000257   0.000000
    28  H   -0.005986   0.000006   0.000250   0.000001  -0.000268  -0.000003
    29  H   -0.000007  -0.008663  -0.000000  -0.000004   0.000000   0.000521
    30  H    0.000114  -0.000333   0.000000   0.000085  -0.000008  -0.000180
    31  H    0.000067   0.000020   0.001542   0.000812  -0.000195  -0.000082
    32  H   -0.000002  -0.000000  -0.008900  -0.000014   0.000259  -0.000000
    33  H    0.000024   0.000058   0.001093   0.001088  -0.000113  -0.000181
    34  H   -0.000000  -0.000006  -0.000018  -0.009007  -0.000000   0.000308
              13         14         15         16         17         18
     1  C   -0.052162  -0.014576  -0.047638  -0.010261  -0.000179  -0.003326
     2  C   -0.006043  -0.055480  -0.009997  -0.048080  -0.000522  -0.002693
     3  C    0.275106   0.015632   0.004258  -0.000019  -0.018430  -0.000130
     4  C    0.001115   0.344281   0.000008   0.004144  -0.029397  -0.000113
     5  C    0.003915   0.000001   0.314890   0.011424  -0.000255  -0.032197
     6  C   -0.000015   0.004394   0.010488   0.316602  -0.000054  -0.032660
     7  C   -0.037351   0.000044   0.000319   0.000027   0.002962  -0.000009
     8  C    0.000002  -0.044053   0.000023   0.000291  -0.001008  -0.000002
     9  C    0.000022   0.000015  -0.047575  -0.000975  -0.000002   0.001224
    10  C    0.000005   0.000340  -0.000732  -0.046788  -0.000013   0.000967
    11  C    0.005489  -0.000014   0.006024  -0.000008  -0.000149  -0.000061
    12  C    0.000013   0.006480   0.000000   0.006060  -0.000068  -0.000086
    13  C    5.357709  -0.138212  -0.000087  -0.000002   0.253962  -0.000001
    14  C   -0.138212   5.233751  -0.000003  -0.000109   0.319647  -0.000002
    15  C   -0.000087  -0.000003   5.308853  -0.152041  -0.000003   0.289832
    16  C   -0.000002  -0.000109  -0.152041   5.304353  -0.000002   0.294488
    17  C    0.253962   0.319647  -0.000003  -0.000002   4.582840  -0.000000
    18  C   -0.000001  -0.000002   0.289832   0.294488  -0.000000   4.549586
    19  O   -0.071445  -0.070811  -0.000000  -0.000000   0.563469  -0.000000
    20  O   -0.000000  -0.000000  -0.073186  -0.073069   0.000000   0.584814
    21  H   -0.011659   0.000033   0.000007   0.000000   0.000194  -0.000000
    22  H   -0.000005  -0.011798   0.000000   0.000009   0.000150   0.000000
    23  H    0.000007   0.000000  -0.010199   0.000075  -0.000000   0.000082
    24  H   -0.000000   0.000011   0.000049  -0.010538   0.000000   0.000112
    25  H   -0.000142  -0.000000  -0.000190  -0.000001   0.000001   0.000001
    26  H   -0.000000  -0.000201  -0.000001  -0.000194   0.000001   0.000001
    27  H    0.359800   0.003635   0.000002   0.000000  -0.020114   0.000000
    28  H    0.367137   0.004815   0.000020  -0.000000  -0.028833   0.000000
    29  H    0.008601   0.354734   0.000000   0.000002  -0.025970   0.000000
    30  H    0.002532   0.361005  -0.000001   0.000016  -0.035962   0.000000
    31  H    0.000007  -0.000002   0.360631  -0.005193   0.000002  -0.026306
    32  H    0.000004   0.000000   0.356174   0.008284   0.000000  -0.023946
    33  H   -0.000003   0.000008  -0.005609   0.359733   0.000001  -0.027309
    34  H    0.000000   0.000003   0.008506   0.355578  -0.000000  -0.024344
              19         20         21         22         23         24
     1  C    0.000157  -0.000047   0.004403  -0.000162   0.004407  -0.000186
     2  C   -0.000118  -0.000051  -0.000155   0.004486  -0.000178   0.004235
     3  C    0.003901   0.000001  -0.043716   0.000001   0.000822   0.000001
     4  C   -0.000252   0.000001   0.000003  -0.035772   0.000001   0.000904
     5  C    0.000001   0.001762   0.000777   0.000001  -0.037151  -0.000004
     6  C   -0.000001   0.001662   0.000001   0.000815  -0.000006  -0.036939
     7  C   -0.000089   0.000000   0.368060   0.000000   0.004402  -0.000000
     8  C    0.000061   0.000000  -0.000000   0.365618  -0.000000   0.004328
     9  C    0.000000   0.000089   0.004614  -0.000000   0.364130   0.000000
    10  C    0.000000   0.000066  -0.000000   0.004389   0.000000   0.364405
    11  C    0.000000   0.000000  -0.038863  -0.000000  -0.038900  -0.000000
    12  C   -0.000001   0.000000  -0.000000  -0.039821  -0.000000  -0.038987
    13  C   -0.071445  -0.000000  -0.011659  -0.000005   0.000007  -0.000000
    14  C   -0.070811  -0.000000   0.000033  -0.011798   0.000000   0.000011
    15  C   -0.000000  -0.073186   0.000007   0.000000  -0.010199   0.000049
    16  C   -0.000000  -0.073069   0.000000   0.000009   0.000075  -0.010538
    17  C    0.563469   0.000000   0.000194   0.000150  -0.000000   0.000000
    18  C   -0.000000   0.584814  -0.000000   0.000000   0.000082   0.000112
    19  O    8.016694  -0.000000  -0.000000   0.000066   0.000000  -0.000000
    20  O   -0.000000   7.992368   0.000000   0.000000  -0.000022  -0.000024
    21  H   -0.000000   0.000000   0.628917   0.000000  -0.000228   0.000000
    22  H    0.000066   0.000000   0.000000   0.615282   0.000000  -0.000221
    23  H    0.000000  -0.000022  -0.000228   0.000000   0.617634   0.000000
    24  H   -0.000000  -0.000024   0.000000  -0.000221   0.000000   0.618174
    25  H   -0.000000  -0.000000  -0.005902  -0.000000  -0.005272  -0.000000
    26  H    0.000000  -0.000000  -0.000000  -0.005379  -0.000000  -0.005394
    27  H   -0.000588   0.000000   0.007127   0.000000  -0.000000   0.000000
    28  H    0.000256  -0.000000   0.000506   0.000001  -0.000000  -0.000000
    29  H    0.003598   0.000000  -0.000000   0.006316  -0.000000  -0.000000
    30  H    0.002302  -0.000000  -0.000006   0.000216  -0.000000  -0.000000
    31  H   -0.000000   0.000490  -0.000000   0.000000   0.000152   0.000014
    32  H    0.000000   0.002580  -0.000000   0.000000   0.005902   0.000000
    33  H    0.000000   0.000569   0.000000  -0.000000   0.000025   0.000156
    34  H    0.000000   0.003030   0.000000  -0.000000   0.000000   0.006096
              25         26         27         28         29         30
     1  C    0.000545   0.000006   0.003366  -0.003042   0.000246  -0.000394
     2  C    0.000003   0.000821   0.000091  -0.000170   0.003824  -0.003658
     3  C    0.004688  -0.000000  -0.036169  -0.033656  -0.000238   0.004336
     4  C   -0.000000   0.004575   0.000051   0.000364  -0.030426  -0.034153
     5  C    0.004709   0.000000  -0.000097   0.000203   0.000006  -0.000059
     6  C    0.000000   0.004519   0.000002  -0.000006  -0.000142   0.000278
     7  C   -0.038506   0.000000  -0.005326  -0.005986  -0.000007   0.000114
     8  C    0.000000  -0.037605  -0.000005   0.000006  -0.008663  -0.000333
     9  C   -0.038145   0.000000  -0.000028   0.000250  -0.000000   0.000000
    10  C    0.000000  -0.038049  -0.000000   0.000001  -0.000004   0.000085
    11  C    0.365774  -0.000000   0.000257  -0.000268   0.000000  -0.000008
    12  C   -0.000000   0.364556   0.000000  -0.000003   0.000521  -0.000180
    13  C   -0.000142  -0.000000   0.359800   0.367137   0.008601   0.002532
    14  C   -0.000000  -0.000201   0.003635   0.004815   0.354734   0.361005
    15  C   -0.000190  -0.000001   0.000002   0.000020   0.000000  -0.000001
    16  C   -0.000001  -0.000194   0.000000  -0.000000   0.000002   0.000016
    17  C    0.000001   0.000001  -0.020114  -0.028833  -0.025970  -0.035962
    18  C    0.000001   0.000001   0.000000   0.000000   0.000000   0.000000
    19  O   -0.000000   0.000000  -0.000588   0.000256   0.003598   0.002302
    20  O   -0.000000  -0.000000   0.000000  -0.000000   0.000000  -0.000000
    21  H   -0.005902  -0.000000   0.007127   0.000506  -0.000000  -0.000006
    22  H   -0.000000  -0.005379   0.000000   0.000001   0.006316   0.000216
    23  H   -0.005272  -0.000000  -0.000000  -0.000000  -0.000000  -0.000000
    24  H   -0.000000  -0.005394   0.000000  -0.000000  -0.000000  -0.000000
    25  H    0.620689  -0.000000  -0.000019   0.000002   0.000000   0.000000
    26  H   -0.000000   0.619302  -0.000000   0.000000  -0.000023   0.000004
    27  H   -0.000019  -0.000000   0.565963  -0.021656  -0.000250  -0.000205
    28  H    0.000002   0.000000  -0.021656   0.556460  -0.000165   0.000389
    29  H    0.000000  -0.000023  -0.000250  -0.000165   0.589688  -0.027642
    30  H    0.000000   0.000004  -0.000205   0.000389  -0.027642   0.596226
    31  H    0.000003   0.000000  -0.000000  -0.000013   0.000000  -0.000000
    32  H   -0.000017  -0.000000  -0.000000  -0.000000   0.000000   0.000000
    33  H    0.000000   0.000004  -0.000000   0.000000   0.000000  -0.000015
    34  H   -0.000000  -0.000019  -0.000000   0.000000  -0.000000   0.000000
              31         32         33         34
     1  C   -0.002423   0.003656  -0.001620   0.000198
     2  C   -0.001875   0.000200  -0.002806   0.003642
     3  C    0.000595  -0.000164  -0.000337   0.000007
     4  C   -0.000340   0.000006   0.000450  -0.000128
     5  C   -0.033969  -0.031394   0.010520   0.000099
     6  C    0.009593   0.000121  -0.033739  -0.031536
     7  C    0.000067  -0.000002   0.000024  -0.000000
     8  C    0.000020  -0.000000   0.000058  -0.000006
     9  C    0.001542  -0.008900   0.001093  -0.000018
    10  C    0.000812  -0.000014   0.001088  -0.009007
    11  C   -0.000195   0.000259  -0.000113  -0.000000
    12  C   -0.000082  -0.000000  -0.000181   0.000308
    13  C    0.000007   0.000004  -0.000003   0.000000
    14  C   -0.000002   0.000000   0.000008   0.000003
    15  C    0.360631   0.356174  -0.005609   0.008506
    16  C   -0.005193   0.008284   0.359733   0.355578
    17  C    0.000002   0.000000   0.000001  -0.000000
    18  C   -0.026306  -0.023946  -0.027309  -0.024344
    19  O   -0.000000   0.000000   0.000000   0.000000
    20  O    0.000490   0.002580   0.000569   0.003030
    21  H   -0.000000  -0.000000   0.000000   0.000000
    22  H    0.000000   0.000000  -0.000000  -0.000000
    23  H    0.000152   0.005902   0.000025   0.000000
    24  H    0.000014   0.000000   0.000156   0.006096
    25  H    0.000003  -0.000017   0.000000  -0.000000
    26  H    0.000000  -0.000000   0.000004  -0.000019
    27  H   -0.000000  -0.000000  -0.000000  -0.000000
    28  H   -0.000013  -0.000000   0.000000   0.000000
    29  H    0.000000   0.000000   0.000000  -0.000000
    30  H   -0.000000   0.000000  -0.000015   0.000000
    31  H    0.569734  -0.024327   0.000768  -0.000233
    32  H   -0.024327   0.581717  -0.000219  -0.000154
    33  H    0.000768  -0.000219   0.572102  -0.024472
    34  H   -0.000233  -0.000154  -0.024472   0.583727
 Mulliken charges:
               1
     1  C    0.016366
     2  C    0.041213
     3  C    0.049288
     4  C    0.050368
     5  C    0.033653
     6  C    0.034688
     7  C   -0.133490
     8  C   -0.123214
     9  C   -0.124734
    10  C   -0.125162
    11  C   -0.072272
    12  C   -0.072440
    13  C   -0.318295
    14  C   -0.313567
    15  C   -0.312822
    16  C   -0.313807
    17  C    0.437731
    18  C    0.452078
    19  O   -0.447200
    20  O   -0.441032
    21  H    0.085888
    22  H    0.095807
    23  H    0.094317
    24  H    0.093810
    25  H    0.091778
    26  H    0.093078
    27  H    0.144164
    28  H    0.163389
    29  H    0.125995
    30  H    0.135114
    31  H    0.150526
    32  H    0.130235
    33  H    0.149823
    34  H    0.128725
 Sum of Mulliken charges =  -0.00000
 Mulliken charges with hydrogens summed into heavy atoms:
               1
     1  C    0.016366
     2  C    0.041213
     3  C    0.049288
     4  C    0.050368
     5  C    0.033653
     6  C    0.034688
     7  C   -0.047602
     8  C   -0.027407
     9  C   -0.030417
    10  C   -0.031352
    11  C    0.019506
    12  C    0.020638
    13  C   -0.010742
    14  C   -0.052458
    15  C   -0.032061
    16  C   -0.035260
    17  C    0.437731
    18  C    0.452078
    19  O   -0.447200
    20  O   -0.441032
 APT charges:
               1
     1  C    0.051605
     2  C    0.031439
     3  C    0.008949
     4  C    0.049566
     5  C    0.038077
     6  C    0.046268
     7  C   -0.087942
     8  C   -0.091805
     9  C   -0.088775
    10  C   -0.096675
    11  C    0.020965
    12  C    0.031304
    13  C   -0.013902
    14  C   -0.102395
    15  C   -0.103033
    16  C   -0.102696
    17  C    0.819011
    18  C    0.864527
    19  O   -0.701937
    20  O   -0.725806
    21  H    0.017915
    22  H    0.026703
    23  H    0.026115
    24  H    0.023500
    25  H    0.018929
    26  H    0.018233
    27  H    0.003766
    28  H   -0.017509
    29  H   -0.002639
    30  H    0.009578
    31  H    0.017822
    32  H   -0.002364
    33  H    0.016372
    34  H   -0.003165
 Sum of APT charges =  -0.00000
 APT charges with hydrogens summed into heavy atoms:
               1
     1  C    0.051605
     2  C    0.031439
     3  C    0.008949
     4  C    0.049566
     5  C    0.038077
     6  C    0.046268
     7  C   -0.070026
     8  C   -0.065102
     9  C   -0.062660
    10  C   -0.073175
    11  C    0.039894
    12  C    0.049537
    13  C   -0.027645
    14  C   -0.095456
    15  C   -0.087576
    16  C   -0.089489
    17  C    0.819011
    18  C    0.864527
    19  O   -0.701937
    20  O   -0.725806
 Electronic spatial extent (au):  <R**2>=           4958.1295
 Charge=             -0.0000 electrons
 Dipole moment (field-independent basis, Debye):
    X=              0.3965    Y=              0.8095    Z=             -1.3768  Tot=              1.6456
 Quadrupole moment (field-independent basis, Debye-Ang):
   XX=           -141.3287   YY=            -99.7697   ZZ=           -114.3330
   XY=              0.5716   XZ=             -4.7072   YZ=              0.4781
 Traceless Quadrupole moment (field-independent basis, Debye-Ang):
   XX=            -22.8516   YY=             18.7074   ZZ=              4.1441
   XY=              0.5716   XZ=             -4.7072   YZ=              0.4781
 Octapole moment (field-independent basis, Debye-Ang**2):
  XXX=             20.0023  YYY=             -4.0634  ZZZ=              7.0861  XYY=              1.7067
  XXY=             17.6722  XXZ=            -35.1569  XZZ=             -6.0037  YZZ=              1.4442
  YYZ=             -1.4327  XYZ=             -1.0615
 Hexadecapole moment (field-independent basis, Debye-Ang**3):
 XXXX=          -4399.0457 YYYY=          -2510.1054 ZZZZ=           -300.4196 XXXY=            -11.0334
 XXXZ=            -78.3449 YYYX=             -2.8873 YYYZ=            -46.7263 ZZZX=              3.9204
 ZZZY=              8.1370 XXYY=           -946.8906 XXZZ=           -626.8808 YYZZ=           -545.6076
 XXYZ=             20.6793 YYXZ=              0.5512 ZZXY=              5.7793
 N-N= 1.467216112851D+03 E-N=-4.895964888776D+03  KE= 8.368469835599D+02
  Exact polarizability:     233.002      -3.591     250.503      -1.617      -9.243      95.184
 Approx polarizability:     385.726      -7.900     412.160      -2.935     -27.791     158.151
 No NMR shielding tensors so no spin-rotation constants.
 Leave Link  601 at Tue May 20 08:41:43 2025, MaxMem=   104857600 cpu:              31.4 elap:               1.6
 (Enter /opt/linux/rocky/8/software/gaussian/16c01_avx2/g16/l701.exe)
 ... and contract with generalized density number  0.
 Compute integral second derivatives.
 PrsmSu:  requested number of processors reduced to:  28 ShMem   1 Linda.
 PrsmSu:  requested number of processors reduced to:  29 ShMem   1 Linda.
 Leave Link  701 at Tue May 20 08:41:44 2025, MaxMem=   104857600 cpu:              23.3 elap:               1.3
 (Enter /opt/linux/rocky/8/software/gaussian/16c01_avx2/g16/l702.exe)
 L702 exits ... SP integral derivatives will be done elsewhere.
 Leave Link  702 at Tue May 20 08:41:44 2025, MaxMem=   104857600 cpu:               0.2 elap:               0.0
 (Enter /opt/linux/rocky/8/software/gaussian/16c01_avx2/g16/l703.exe)
 Integral derivatives from FoFJK, PRISM(SPDF).
 Compute integral second derivatives, UseDBF=F ICtDFT=           0.
 Calling FoFJK, ICntrl=    100127 FMM=F ISym2X=0 I1Cent= 0 IOpClX= 0 NMat=1 NMatS=1 NMatT=0.
 FoFJK:  IHMeth= 1 ICntrl=  100127 DoSepK=F KAlg= 0 I1Cent=           0 FoldK=F
 IRaf=         0 NMat=       1 IRICut=       1 DoRegI=T DoRafI=F ISym2E= 0 IDoP0=0 IntGTp=1.
 FoFCou: FMM=F IPFlag=           0 FMFlag=      100000 FMFlg1=         800
         NFxFlg=           0 DoJE=F BraDBF=F KetDBF=F FulRan=T
         wScrn=  0.000000 ICntrl=    100127 IOpCl=  0 I1Cent=           0 NGrid=           0
         NMat0=    1 NMatS0=      1 NMatT0=    0 NMatD0=    1 NMtDS0=    0 NMtDT0=    0
 Symmetry not used in FoFCou.
 CoulSu:  requested number of processors reduced to:  29 ShMem   1 Linda.
 Leave Link  703 at Tue May 20 08:42:25 2025, MaxMem=   104857600 cpu:            1260.9 elap:              40.8
 (Enter /opt/linux/rocky/8/software/gaussian/16c01_avx2/g16/l716.exe)
 Dipole        = 1.56002632D-01 3.18490291D-01-5.41672763D-01
 Polarizability= 2.33001875D+02-3.59067636D+00 2.50502745D+02
                -1.61748390D+00-9.24296780D+00 9.51841719D+01
 ***** Axes restored to original set *****
 -------------------------------------------------------------------
 Center     Atomic                   Forces (Hartrees/Bohr)
 Number     Number              X              Y              Z
 -------------------------------------------------------------------
      1        6          -0.000000026    0.000000158    0.000000057
      2        6           0.000000422    0.000000044   -0.000000020
      3        6          -0.000000525    0.000000403   -0.000000458
      4        6           0.000000016   -0.000000238    0.000000502
      5        6          -0.000000331    0.000000524   -0.000000285
      6        6          -0.000000278   -0.000000587    0.000000168
      7        6           0.000001432   -0.000000009   -0.000000428
      8        6          -0.000000794   -0.000000257    0.000000593
      9        6           0.000000178   -0.000000145   -0.000000506
     10        6          -0.000000615   -0.000000041    0.000000282
     11        6          -0.000000988   -0.000000129   -0.000000400
     12        6           0.000000649    0.000000545    0.000000473
     13        6           0.000000743   -0.000000143   -0.000000610
     14        6           0.000000064   -0.000000355    0.000000488
     15        6           0.000000632    0.000000428   -0.000000261
     16        6           0.000000041    0.000000688    0.000000165
     17        6          -0.000000852   -0.000000053   -0.000000016
     18        6          -0.000000508   -0.000000774   -0.000000491
     19        8           0.000000572    0.000000261    0.000000522
     20        8           0.000000201    0.000000117   -0.000000160
     21        1          -0.000000702   -0.000000616   -0.000000385
     22        1           0.000000304   -0.000000033    0.000000550
     23        1           0.000000209   -0.000000049   -0.000000612
     24        1           0.000000599    0.000000322    0.000000536
     25        1           0.000000000   -0.000000175   -0.000000702
     26        1           0.000000046   -0.000000079    0.000000750
     27        1          -0.000000144    0.000000024   -0.000000192
     28        1          -0.000000107    0.000000264    0.000000328
     29        1          -0.000000048    0.000000086    0.000000339
     30        1           0.000000035   -0.000000067   -0.000000263
     31        1          -0.000000075    0.000000293   -0.000000085
     32        1          -0.000000179    0.000000297   -0.000000261
     33        1          -0.000000028   -0.000000560    0.000000188
     34        1           0.000000054   -0.000000144    0.000000192
 -------------------------------------------------------------------
 Cartesian Forces:  Max     0.000001432 RMS     0.000000421
 FormGI is forming the generalized inverse of G from B-inverse, IUseBI=4.
 Leave Link  716 at Tue May 20 08:42:26 2025, MaxMem=   104857600 cpu:              13.5 elap:               0.8
 (Enter /opt/linux/rocky/8/software/gaussian/16c01_avx2/g16/l103.exe)

 GradGradGradGradGradGradGradGradGradGradGradGradGradGradGradGradGradGrad
 Berny optimization.
 Red2BG is reusing G-inverse.
 Internal  Forces:  Max     0.000000892 RMS     0.000000161
 Search for a saddle point.
 Step number   1 out of a maximum of  204
 All quantities printed in internal units (Hartrees-Bohrs-Radians)
 Swapping is turned off.
 Second derivative matrix not updated -- analytic derivatives used.
 ITU=  0
     Eigenvalues ---   -0.00072   0.00136   0.00351   0.00804   0.01080
     Eigenvalues ---    0.01195   0.01352   0.01687   0.01710   0.01819
     Eigenvalues ---    0.01872   0.01903   0.01961   0.01977   0.02198
     Eigenvalues ---    0.02232   0.02302   0.02415   0.02433   0.02479
     Eigenvalues ---    0.02711   0.02758   0.03067   0.03140   0.04171
     Eigenvalues ---    0.04256   0.04387   0.04874   0.05386   0.05454
     Eigenvalues ---    0.05957   0.07693   0.07955   0.08078   0.08241
     Eigenvalues ---    0.08591   0.08970   0.10265   0.11058   0.11195
     Eigenvalues ---    0.11231   0.12376   0.12404   0.12636   0.12688
     Eigenvalues ---    0.13039   0.14378   0.15716   0.17079   0.18121
     Eigenvalues ---    0.18231   0.18508   0.18789   0.18969   0.19170
     Eigenvalues ---    0.19334   0.19719   0.20951   0.21483   0.22357
     Eigenvalues ---    0.23414   0.24772   0.25876   0.27109   0.27438
     Eigenvalues ---    0.27990   0.28761   0.29233   0.29734   0.30943
     Eigenvalues ---    0.32377   0.32742   0.32875   0.33149   0.33559
     Eigenvalues ---    0.33635   0.34517   0.34627   0.34676   0.34706
     Eigenvalues ---    0.35903   0.35973   0.36053   0.36191   0.36285
     Eigenvalues ---    0.36301   0.38900   0.39995   0.45585   0.46173
     Eigenvalues ---    0.46810   0.47045   0.49817   0.50230   0.86796
     Eigenvalues ---    0.87676
 Eigenvectors required to have negative eigenvalues:
                          D79       D81       D77       D80       D82
   1                   -0.29956  -0.29806  -0.28764  -0.27486  -0.27336
                          D78       D30       D29       D27       D26
   1                   -0.26294   0.24436   0.24430   0.24176   0.24170
 RFO step:  Lambda0=4.237116300D-15 Lambda= 0.00000000D+00.
 Linear search not attempted -- option 19 set.
 Iteration  1 RMS(Cart)=  0.00000078 RMS(Int)=  0.00000000
 ITry= 1 IFail=0 DXMaxC= 3.53D-06 DCOld= 1.00D+10 DXMaxT= 3.00D-01 DXLimC= 3.00D+00 Rises=F
 Variable       Old X    -DE/DX   Delta X   Delta X   Delta X     New X
                                 (Linear)    (Quad)   (Total)
    R1        2.81625   0.00000   0.00000   0.00000   0.00000   2.81625
    R2        2.71982  -0.00000   0.00000  -0.00000  -0.00000   2.71982
    R3        2.71316   0.00000   0.00000   0.00000   0.00000   2.71316
    R4        2.70349  -0.00000   0.00000  -0.00000  -0.00000   2.70349
    R5        2.71511   0.00000   0.00000   0.00000   0.00000   2.71511
    R6        2.64801  -0.00000   0.00000  -0.00000  -0.00000   2.64801
    R7        2.87577   0.00000   0.00000   0.00000   0.00000   2.87577
    R8        2.64258  -0.00000   0.00000   0.00000   0.00000   2.64258
    R9        2.86729  -0.00000   0.00000  -0.00000  -0.00000   2.86729
   R10        2.64291  -0.00000   0.00000  -0.00000  -0.00000   2.64291
   R11        2.86979  -0.00000   0.00000  -0.00000  -0.00000   2.86979
   R12        2.64382  -0.00000   0.00000  -0.00000  -0.00000   2.64382
   R13        2.86969   0.00000   0.00000   0.00000   0.00000   2.86969
   R14        2.62648   0.00000   0.00000   0.00000   0.00000   2.62648
   R15        2.05355  -0.00000   0.00000  -0.00000  -0.00000   2.05355
   R16        2.62532  -0.00000   0.00000  -0.00000  -0.00000   2.62532
   R17        2.05206   0.00000   0.00000   0.00000   0.00000   2.05206
   R18        2.62394  -0.00000   0.00000  -0.00000  -0.00000   2.62393
   R19        2.05299  -0.00000   0.00000  -0.00000  -0.00000   2.05299
   R20        2.62471   0.00000   0.00000   0.00000   0.00000   2.62471
   R21        2.05284  -0.00000   0.00000  -0.00000  -0.00000   2.05283
   R22        2.05103  -0.00000   0.00000  -0.00000  -0.00000   2.05103
   R23        2.05101   0.00000   0.00000   0.00000   0.00000   2.05101
   R24        2.85868  -0.00000   0.00000  -0.00000  -0.00000   2.85868
   R25        2.07262  -0.00000   0.00000  -0.00000  -0.00000   2.07262
   R26        2.07633   0.00000   0.00000   0.00000   0.00000   2.07633
   R27        2.84180   0.00000   0.00000  -0.00000  -0.00000   2.84180
   R28        2.06178  -0.00000   0.00000  -0.00000  -0.00000   2.06178
   R29        2.07681   0.00000   0.00000   0.00000   0.00000   2.07681
   R30        2.85933   0.00000   0.00000   0.00000   0.00000   2.85933
   R31        2.07728  -0.00000   0.00000  -0.00000  -0.00000   2.07728
   R32        2.06359   0.00000   0.00000   0.00000   0.00000   2.06359
   R33        2.85842  -0.00000   0.00000  -0.00000  -0.00000   2.85842
   R34        2.07824  -0.00000   0.00000  -0.00000  -0.00000   2.07824
   R35        2.06298  -0.00000   0.00000   0.00000   0.00000   2.06298
   R36        2.29473   0.00000   0.00000   0.00000   0.00000   2.29473
   R37        2.29010  -0.00000   0.00000  -0.00000  -0.00000   2.29009
    A1        2.18111  -0.00000   0.00000  -0.00000  -0.00000   2.18111
    A2        2.10205   0.00000   0.00000   0.00000   0.00000   2.10205
    A3        1.99914   0.00000   0.00000   0.00000   0.00000   1.99914
    A4        2.16166   0.00000   0.00000   0.00000   0.00000   2.16166
    A5        2.11708  -0.00000   0.00000  -0.00000  -0.00000   2.11708
    A6        1.99932  -0.00000   0.00000  -0.00000  -0.00000   1.99932
    A7        2.07890  -0.00000   0.00000   0.00000   0.00000   2.07890
    A8        2.19642  -0.00000   0.00000  -0.00000  -0.00000   2.19642
    A9        1.97583   0.00000   0.00000  -0.00000  -0.00000   1.97583
   A10        2.10376   0.00000   0.00000   0.00000   0.00000   2.10376
   A11        2.15561  -0.00000   0.00000  -0.00000  -0.00000   2.15561
   A12        2.01414   0.00000   0.00000   0.00000   0.00000   2.01414
   A13        2.10565   0.00000   0.00000  -0.00000  -0.00000   2.10565
   A14        2.14867  -0.00000   0.00000  -0.00000  -0.00000   2.14867
   A15        2.01970   0.00000   0.00000   0.00000   0.00000   2.01970
   A16        2.10047  -0.00000   0.00000  -0.00000  -0.00000   2.10047
   A17        2.16142  -0.00000   0.00000  -0.00000  -0.00000   2.16142
   A18        2.01104   0.00000   0.00000   0.00000   0.00000   2.01104
   A19        2.13418  -0.00000   0.00000  -0.00000  -0.00000   2.13418
   A20        2.06412   0.00000   0.00000   0.00000   0.00000   2.06412
   A21        2.08191   0.00000   0.00000   0.00000   0.00000   2.08191
   A22        2.12065   0.00000   0.00000  -0.00000  -0.00000   2.12065
   A23        2.06740  -0.00000   0.00000  -0.00000  -0.00000   2.06740
   A24        2.09381   0.00000   0.00000   0.00000   0.00000   2.09381
   A25        2.11474   0.00000   0.00000   0.00000   0.00000   2.11474
   A26        2.07039   0.00000   0.00000   0.00000   0.00000   2.07039
   A27        2.09742  -0.00000   0.00000  -0.00000  -0.00000   2.09742
   A28        2.12178   0.00000   0.00000   0.00000   0.00000   2.12178
   A29        2.06765   0.00000   0.00000   0.00000   0.00000   2.06765
   A30        2.09260  -0.00000   0.00000  -0.00000  -0.00000   2.09260
   A31        2.05304   0.00000   0.00000   0.00000   0.00000   2.05304
   A32        2.10996  -0.00000   0.00000  -0.00000  -0.00000   2.10996
   A33        2.11334  -0.00000   0.00000   0.00000   0.00000   2.11334
   A34        2.05619   0.00000   0.00000   0.00000   0.00000   2.05619
   A35        2.10988  -0.00000   0.00000  -0.00000  -0.00000   2.10988
   A36        2.11115  -0.00000   0.00000  -0.00000  -0.00000   2.11115
   A37        2.14003   0.00000   0.00000   0.00000   0.00000   2.14003
   A38        1.90299  -0.00000   0.00000  -0.00000  -0.00000   1.90299
   A39        1.87273  -0.00000   0.00000  -0.00000  -0.00000   1.87273
   A40        1.84752   0.00000   0.00000   0.00000   0.00000   1.84753
   A41        1.85051  -0.00000   0.00000  -0.00000  -0.00000   1.85051
   A42        1.82659   0.00000   0.00000   0.00000   0.00000   1.82659
   A43        1.97601  -0.00000   0.00000  -0.00000  -0.00000   1.97601
   A44        1.91311   0.00000   0.00000   0.00000   0.00000   1.91312
   A45        1.89505   0.00000   0.00000   0.00000   0.00000   1.89505
   A46        1.89686  -0.00000   0.00000   0.00000   0.00000   1.89686
   A47        1.88314   0.00000   0.00000  -0.00000  -0.00000   1.88314
   A48        1.89815  -0.00000   0.00000  -0.00000  -0.00000   1.89815
   A49        2.01328   0.00000   0.00000   0.00000   0.00000   2.01328
   A50        1.90121   0.00000   0.00000   0.00000   0.00000   1.90121
   A51        1.92386  -0.00000   0.00000   0.00000   0.00000   1.92386
   A52        1.84472  -0.00000   0.00000  -0.00000  -0.00000   1.84472
   A53        1.90036  -0.00000   0.00000  -0.00000  -0.00000   1.90036
   A54        1.87424  -0.00000   0.00000  -0.00000  -0.00000   1.87424
   A55        2.01708   0.00000   0.00000   0.00000   0.00000   2.01708
   A56        1.89755   0.00000   0.00000   0.00000   0.00000   1.89755
   A57        1.92486  -0.00000   0.00000  -0.00000  -0.00000   1.92486
   A58        1.84178   0.00000   0.00000   0.00000   0.00000   1.84178
   A59        1.90044  -0.00000   0.00000  -0.00000  -0.00000   1.90044
   A60        1.87566  -0.00000   0.00000  -0.00000  -0.00000   1.87566
   A61        2.00243   0.00000   0.00000   0.00000   0.00000   2.00243
   A62        2.12285  -0.00000   0.00000  -0.00000  -0.00000   2.12285
   A63        2.15790   0.00000   0.00000   0.00000   0.00000   2.15790
   A64        1.94512  -0.00000   0.00000  -0.00000  -0.00000   1.94512
   A65        2.16891   0.00000   0.00000  -0.00000  -0.00000   2.16891
   A66        2.16916   0.00000   0.00000   0.00000   0.00000   2.16916
    D1        0.07480   0.00000   0.00000   0.00000   0.00000   0.07480
    D2       -2.95216  -0.00000   0.00000   0.00000   0.00000  -2.95216
    D3       -3.01923  -0.00000   0.00000  -0.00000  -0.00000  -3.01923
    D4        0.23700  -0.00000   0.00000  -0.00000  -0.00000   0.23700
    D5        2.78519   0.00000   0.00000   0.00000   0.00000   2.78519
    D6       -0.64474   0.00000   0.00000   0.00000   0.00000  -0.64474
    D7       -0.40148   0.00000   0.00000   0.00000   0.00000  -0.40148
    D8        2.45177   0.00000   0.00000   0.00000   0.00000   2.45177
    D9       -2.81191   0.00000   0.00000   0.00000   0.00000  -2.81191
   D10        0.48104   0.00000   0.00000   0.00000   0.00000   0.48104
   D11        0.37253  -0.00000   0.00000  -0.00000  -0.00000   0.37253
   D12       -2.61771  -0.00000   0.00000  -0.00000  -0.00000  -2.61771
   D13        2.89698  -0.00000   0.00000  -0.00000  -0.00000   2.89698
   D14       -0.40069  -0.00000   0.00000  -0.00000  -0.00000  -0.40069
   D15       -0.35227   0.00000   0.00000   0.00000   0.00000  -0.35227
   D16        2.63325   0.00000   0.00000  -0.00000  -0.00000   2.63325
   D17       -2.90297   0.00000   0.00000   0.00000   0.00000  -2.90297
   D18        0.39945  -0.00000   0.00000   0.00000   0.00000   0.39945
   D19        0.34325  -0.00000   0.00000  -0.00000  -0.00000   0.34324
   D20       -2.63752  -0.00000   0.00000  -0.00000  -0.00000  -2.63752
   D21        0.15924  -0.00000   0.00000  -0.00000  -0.00000   0.15924
   D22       -3.06577  -0.00000   0.00000  -0.00000  -0.00000  -3.06577
   D23       -2.72885  -0.00000   0.00000  -0.00000  -0.00000  -2.72885
   D24        0.32933  -0.00000   0.00000  -0.00000  -0.00000   0.32933
   D25        0.82583  -0.00000   0.00000  -0.00000  -0.00000   0.82583
   D26        2.99569   0.00000   0.00000   0.00000   0.00000   2.99569
   D27       -1.31848   0.00000   0.00000   0.00000   0.00000  -1.31848
   D28       -2.58947  -0.00000   0.00000  -0.00000  -0.00000  -2.58947
   D29       -0.41962   0.00000   0.00000   0.00000   0.00000  -0.41962
   D30        1.54940   0.00000   0.00000   0.00000   0.00000   1.54940
   D31        0.12333  -0.00000   0.00000  -0.00000  -0.00000   0.12333
   D32       -3.07355  -0.00000   0.00000  -0.00000  -0.00000  -3.07355
   D33       -2.87428   0.00000   0.00000   0.00000   0.00000  -2.87428
   D34        0.21203   0.00000   0.00000   0.00000   0.00000   0.21203
   D35        1.29419   0.00000   0.00000   0.00000   0.00000   1.29419
   D36       -2.86799   0.00000   0.00000   0.00000   0.00000  -2.86798
   D37       -0.79666  -0.00000   0.00000   0.00000   0.00000  -0.79666
   D38       -1.99616   0.00000   0.00000   0.00000   0.00000  -1.99616
   D39        0.12485   0.00000   0.00000   0.00000   0.00000   0.12485
   D40        2.19617  -0.00000   0.00000   0.00000   0.00000   2.19617
   D41       -0.09189   0.00000   0.00000   0.00000   0.00000  -0.09189
   D42        3.08800   0.00000   0.00000   0.00000   0.00000   3.08800
   D43        2.90905   0.00000   0.00000  -0.00000  -0.00000   2.90905
   D44       -0.19425   0.00000   0.00000  -0.00000  -0.00000  -0.19425
   D45       -1.42451  -0.00000   0.00000   0.00000   0.00000  -1.42451
   D46        0.64576   0.00000   0.00000   0.00000   0.00000   0.64576
   D47        2.69799   0.00000   0.00000   0.00000   0.00000   2.69799
   D48        1.86158  -0.00000   0.00000   0.00000   0.00000   1.86158
   D49       -2.35134   0.00000   0.00000   0.00000   0.00000  -2.35134
   D50       -0.29911   0.00000   0.00000   0.00000   0.00000  -0.29911
   D51       -0.10520  -0.00000   0.00000   0.00000   0.00000  -0.10520
   D52        3.08819  -0.00000   0.00000  -0.00000  -0.00000   3.08819
   D53        2.88883   0.00000   0.00000  -0.00000  -0.00000   2.88883
   D54       -0.20096  -0.00000   0.00000  -0.00000  -0.00000  -0.20096
   D55       -1.37322  -0.00000   0.00000  -0.00000  -0.00000  -1.37322
   D56        0.69309   0.00000   0.00000   0.00000   0.00000   0.69309
   D57        2.74545   0.00000   0.00000  -0.00000  -0.00000   2.74545
   D58        1.92174  -0.00000   0.00000  -0.00000  -0.00000   1.92174
   D59       -2.29514   0.00000   0.00000   0.00000   0.00000  -2.29514
   D60       -0.24278   0.00000   0.00000  -0.00000  -0.00000  -0.24278
   D61        0.13770  -0.00000   0.00000  -0.00000  -0.00000   0.13770
   D62       -3.12797   0.00000   0.00000   0.00000   0.00000  -3.12797
   D63       -2.91966  -0.00000   0.00000  -0.00000  -0.00000  -2.91966
   D64        0.09785  -0.00000   0.00000  -0.00000  -0.00000   0.09785
   D65        0.13361   0.00000   0.00000   0.00000   0.00000   0.13361
   D66       -3.12413   0.00000   0.00000   0.00000   0.00000  -3.12413
   D67       -2.95188   0.00000   0.00000   0.00000   0.00000  -2.95188
   D68        0.07357   0.00000   0.00000   0.00000   0.00000   0.07357
   D69       -0.17191   0.00000   0.00000   0.00000   0.00000  -0.17191
   D70        3.09402   0.00000   0.00000   0.00000   0.00000   3.09402
   D71        2.93080   0.00000   0.00000   0.00000   0.00000   2.93080
   D72       -0.08646  -0.00000   0.00000  -0.00000  -0.00000  -0.08646
   D73       -0.14211   0.00000   0.00000  -0.00000  -0.00000  -0.14211
   D74        3.11572   0.00000   0.00000   0.00000   0.00000   3.11572
   D75        2.94696   0.00000   0.00000   0.00000   0.00000   2.94696
   D76       -0.07840   0.00000   0.00000   0.00000   0.00000  -0.07840
   D77        0.15569   0.00000   0.00000   0.00000   0.00000   0.15569
   D78       -2.98968  -0.00000   0.00000  -0.00000  -0.00000  -2.98968
   D79       -2.03903   0.00000   0.00000   0.00000   0.00000  -2.03903
   D80        1.09879  -0.00000   0.00000  -0.00000  -0.00000   1.09879
   D81        2.31019   0.00000   0.00000  -0.00000  -0.00000   2.31019
   D82       -0.83518  -0.00000   0.00000  -0.00000  -0.00000  -0.83518
   D83       -1.22535  -0.00000   0.00000  -0.00000  -0.00000  -1.22535
   D84        1.92010   0.00000   0.00000   0.00000   0.00000   1.92010
   D85        2.92772  -0.00000   0.00000  -0.00000  -0.00000   2.92772
   D86       -0.21001  -0.00000   0.00000   0.00000   0.00000  -0.21001
   D87        0.87231  -0.00000   0.00000  -0.00000  -0.00000   0.87231
   D88       -2.26543   0.00000   0.00000   0.00000   0.00000  -2.26543
   D89        0.68229   0.00000   0.00000  -0.00000  -0.00000   0.68229
   D90       -2.45780   0.00000   0.00000   0.00000   0.00000  -2.45779
   D91       -1.41910  -0.00000   0.00000  -0.00000  -0.00000  -1.41910
   D92        1.72400   0.00000   0.00000   0.00000   0.00000   1.72400
   D93        2.85527   0.00000   0.00000  -0.00000  -0.00000   2.85527
   D94       -0.28481   0.00000   0.00000   0.00000   0.00000  -0.28481
   D95        0.71764   0.00000   0.00000   0.00000   0.00000   0.71764
   D96       -2.42546   0.00000   0.00000   0.00000   0.00000  -2.42546
   D97       -1.37933  -0.00000   0.00000  -0.00000  -0.00000  -1.37933
   D98        1.76076  -0.00000   0.00000  -0.00000  -0.00000   1.76076
   D99        2.89486   0.00000   0.00000   0.00000   0.00000   2.89486
   D100      -0.24824   0.00000   0.00000  -0.00000  -0.00000  -0.24824
         Item               Value     Threshold  Converged?
 Maximum Force            0.000001     0.000002     YES
 RMS     Force            0.000000     0.000001     YES
 Maximum Displacement     0.000004     0.000006     YES
 RMS     Displacement     0.000001     0.000004     YES
 Predicted change in Energy=-9.026798D-12
 Optimization completed.
    -- Stationary point found.
                           ----------------------------
                           !   Optimized Parameters   !
                           ! (Angstroms and Degrees)  !
 --------------------------                            --------------------------
 ! Name  Definition              Value          Derivative Info.                !
 --------------------------------------------------------------------------------
 ! R1    R(1,2)                  1.4903         -DE/DX =    0.0                 !
 ! R2    R(1,3)                  1.4393         -DE/DX =    0.0                 !
 ! R3    R(1,5)                  1.4357         -DE/DX =    0.0                 !
 ! R4    R(2,4)                  1.4306         -DE/DX =    0.0                 !
 ! R5    R(2,6)                  1.4368         -DE/DX =    0.0                 !
 ! R6    R(3,7)                  1.4013         -DE/DX =    0.0                 !
 ! R7    R(3,13)                 1.5218         -DE/DX =    0.0                 !
 ! R8    R(4,8)                  1.3984         -DE/DX =    0.0                 !
 ! R9    R(4,14)                 1.5173         -DE/DX =    0.0                 !
 ! R10   R(5,9)                  1.3986         -DE/DX =    0.0                 !
 ! R11   R(5,15)                 1.5186         -DE/DX =    0.0                 !
 ! R12   R(6,10)                 1.3991         -DE/DX =    0.0                 !
 ! R13   R(6,16)                 1.5186         -DE/DX =    0.0                 !
 ! R14   R(7,11)                 1.3899         -DE/DX =    0.0                 !
 ! R15   R(7,21)                 1.0867         -DE/DX =    0.0                 !
 ! R16   R(8,12)                 1.3893         -DE/DX =    0.0                 !
 ! R17   R(8,22)                 1.0859         -DE/DX =    0.0                 !
 ! R18   R(9,11)                 1.3885         -DE/DX =    0.0                 !
 ! R19   R(9,23)                 1.0864         -DE/DX =    0.0                 !
 ! R20   R(10,12)                1.3889         -DE/DX =    0.0                 !
 ! R21   R(10,24)                1.0863         -DE/DX =    0.0                 !
 ! R22   R(11,25)                1.0854         -DE/DX =    0.0                 !
 ! R23   R(12,26)                1.0853         -DE/DX =    0.0                 !
 ! R24   R(13,17)                1.5128         -DE/DX =    0.0                 !
 ! R25   R(13,27)                1.0968         -DE/DX =    0.0                 !
 ! R26   R(13,28)                1.0987         -DE/DX =    0.0                 !
 ! R27   R(14,17)                1.5038         -DE/DX =    0.0                 !
 ! R28   R(14,29)                1.091          -DE/DX =    0.0                 !
 ! R29   R(14,30)                1.099          -DE/DX =    0.0                 !
 ! R30   R(15,18)                1.5131         -DE/DX =    0.0                 !
 ! R31   R(15,31)                1.0992         -DE/DX =    0.0                 !
 ! R32   R(15,32)                1.092          -DE/DX =    0.0                 !
 ! R33   R(16,18)                1.5126         -DE/DX =    0.0                 !
 ! R34   R(16,33)                1.0998         -DE/DX =    0.0                 !
 ! R35   R(16,34)                1.0917         -DE/DX =    0.0                 !
 ! R36   R(17,19)                1.2143         -DE/DX =    0.0                 !
 ! R37   R(18,20)                1.2119         -DE/DX =    0.0                 !
 ! A1    A(2,1,3)              124.9686         -DE/DX =    0.0                 !
 ! A2    A(2,1,5)              120.4386         -DE/DX =    0.0                 !
 ! A3    A(3,1,5)              114.5424         -DE/DX =    0.0                 !
 ! A4    A(1,2,4)              123.8542         -DE/DX =    0.0                 !
 ! A5    A(1,2,6)              121.2998         -DE/DX =    0.0                 !
 ! A6    A(4,2,6)              114.5523         -DE/DX =    0.0                 !
 ! A7    A(1,3,7)              119.1121         -DE/DX =    0.0                 !
 ! A8    A(1,3,13)             125.8456         -DE/DX =    0.0                 !
 ! A9    A(7,3,13)             113.2069         -DE/DX =    0.0                 !
 ! A10   A(2,4,8)              120.5363         -DE/DX =    0.0                 !
 ! A11   A(2,4,14)             123.5072         -DE/DX =    0.0                 !
 ! A12   A(8,4,14)             115.4015         -DE/DX =    0.0                 !
 ! A13   A(1,5,9)              120.6447         -DE/DX =    0.0                 !
 ! A14   A(1,5,15)             123.1098         -DE/DX =    0.0                 !
 ! A15   A(9,5,15)             115.7204         -DE/DX =    0.0                 !
 ! A16   A(2,6,10)             120.3479         -DE/DX =    0.0                 !
 ! A17   A(2,6,16)             123.8405         -DE/DX =    0.0                 !
 ! A18   A(10,6,16)            115.2243         -DE/DX =    0.0                 !
 ! A19   A(3,7,11)             122.2798         -DE/DX =    0.0                 !
 ! A20   A(3,7,21)             118.2656         -DE/DX =    0.0                 !
 ! A21   A(11,7,21)            119.2845         -DE/DX =    0.0                 !
 ! A22   A(4,8,12)             121.5042         -DE/DX =    0.0                 !
 ! A23   A(4,8,22)             118.4536         -DE/DX =    0.0                 !
 ! A24   A(12,8,22)            119.9665         -DE/DX =    0.0                 !
 ! A25   A(5,9,11)             121.1655         -DE/DX =    0.0                 !
 ! A26   A(5,9,23)             118.6248         -DE/DX =    0.0                 !
 ! A27   A(11,9,23)            120.1732         -DE/DX =    0.0                 !
 ! A28   A(6,10,12)            121.569          -DE/DX =    0.0                 !
 ! A29   A(6,10,24)            118.4676         -DE/DX =    0.0                 !
 ! A30   A(12,10,24)           119.897          -DE/DX =    0.0                 !
 ! A31   A(7,11,9)             117.6308         -DE/DX =    0.0                 !
 ! A32   A(7,11,25)            120.8916         -DE/DX =    0.0                 !
 ! A33   A(9,11,25)            121.0857         -DE/DX =    0.0                 !
 ! A34   A(8,12,10)            117.8108         -DE/DX =    0.0                 !
 ! A35   A(8,12,26)            120.8871         -DE/DX =    0.0                 !
 ! A36   A(10,12,26)           120.9598         -DE/DX =    0.0                 !
 ! A37   A(3,13,17)            122.6149         -DE/DX =    0.0                 !
 ! A38   A(3,13,27)            109.0332         -DE/DX =    0.0                 !
 ! A39   A(3,13,28)            107.2997         -DE/DX =    0.0                 !
 ! A40   A(17,13,27)           105.8553         -DE/DX =    0.0                 !
 ! A41   A(17,13,28)           106.0263         -DE/DX =    0.0                 !
 ! A42   A(27,13,28)           104.6562         -DE/DX =    0.0                 !
 ! A43   A(4,14,17)            113.217          -DE/DX =    0.0                 !
 ! A44   A(4,14,29)            109.6134         -DE/DX =    0.0                 !
 ! A45   A(4,14,30)            108.5786         -DE/DX =    0.0                 !
 ! A46   A(17,14,29)           108.6821         -DE/DX =    0.0                 !
 ! A47   A(17,14,30)           107.8962         -DE/DX =    0.0                 !
 ! A48   A(29,14,30)           108.756          -DE/DX =    0.0                 !
 ! A49   A(5,15,18)            115.3524         -DE/DX =    0.0                 !
 ! A50   A(5,15,31)            108.931          -DE/DX =    0.0                 !
 ! A51   A(5,15,32)            110.2288         -DE/DX =    0.0                 !
 ! A52   A(18,15,31)           105.6944         -DE/DX =    0.0                 !
 ! A53   A(18,15,32)           108.8829         -DE/DX =    0.0                 !
 ! A54   A(31,15,32)           107.3861         -DE/DX =    0.0                 !
 ! A55   A(6,16,18)            115.5702         -DE/DX =    0.0                 !
 ! A56   A(6,16,33)            108.7216         -DE/DX =    0.0                 !
 ! A57   A(6,16,34)            110.2865         -DE/DX =    0.0                 !
 ! A58   A(18,16,33)           105.5261         -DE/DX =    0.0                 !
 ! A59   A(18,16,34)           108.8872         -DE/DX =    0.0                 !
 ! A60   A(33,16,34)           107.4676         -DE/DX =    0.0                 !
 ! A61   A(13,17,14)           114.7306         -DE/DX =    0.0                 !
 ! A62   A(13,17,19)           121.6306         -DE/DX =    0.0                 !
 ! A63   A(14,17,19)           123.6385         -DE/DX =    0.0                 !
 ! A64   A(15,18,16)           111.447          -DE/DX =    0.0                 !
 ! A65   A(15,18,20)           124.2693         -DE/DX =    0.0                 !
 ! A66   A(16,18,20)           124.2836         -DE/DX =    0.0                 !
 ! D1    D(3,1,2,4)              4.2858         -DE/DX =    0.0                 !
 ! D2    D(3,1,2,6)           -169.1463         -DE/DX =    0.0                 !
 ! D3    D(5,1,2,4)           -172.9889         -DE/DX =    0.0                 !
 ! D4    D(5,1,2,6)             13.579          -DE/DX =    0.0                 !
 ! D5    D(2,1,3,7)            159.5797         -DE/DX =    0.0                 !
 ! D6    D(2,1,3,13)           -36.941          -DE/DX =    0.0                 !
 ! D7    D(5,1,3,7)            -23.0033         -DE/DX =    0.0                 !
 ! D8    D(5,1,3,13)           140.476          -DE/DX =    0.0                 !
 ! D9    D(2,1,5,9)           -161.1106         -DE/DX =    0.0                 !
 ! D10   D(2,1,5,15)            27.5615         -DE/DX =    0.0                 !
 ! D11   D(3,1,5,9)             21.3444         -DE/DX =    0.0                 !
 ! D12   D(3,1,5,15)          -149.9836         -DE/DX =    0.0                 !
 ! D13   D(1,2,4,8)            165.9849         -DE/DX =    0.0                 !
 ! D14   D(1,2,4,14)           -22.9577         -DE/DX =    0.0                 !
 ! D15   D(6,2,4,8)            -20.1834         -DE/DX =    0.0                 !
 ! D16   D(6,2,4,14)           150.874          -DE/DX =    0.0                 !
 ! D17   D(1,2,6,10)          -166.3279         -DE/DX =    0.0                 !
 ! D18   D(1,2,6,16)            22.887          -DE/DX =    0.0                 !
 ! D19   D(4,2,6,10)            19.6665         -DE/DX =    0.0                 !
 ! D20   D(4,2,6,16)          -151.1186         -DE/DX =    0.0                 !
 ! D21   D(1,3,7,11)             9.1237         -DE/DX =    0.0                 !
 ! D22   D(1,3,7,21)          -175.6555         -DE/DX =    0.0                 !
 ! D23   D(13,3,7,11)         -156.3518         -DE/DX =    0.0                 !
 ! D24   D(13,3,7,21)           18.8691         -DE/DX =    0.0                 !
 ! D25   D(1,3,13,17)           47.3168         -DE/DX =    0.0                 !
 ! D26   D(1,3,13,27)          171.6402         -DE/DX =    0.0                 !
 ! D27   D(1,3,13,28)          -75.5435         -DE/DX =    0.0                 !
 ! D28   D(7,3,13,17)         -148.3658         -DE/DX =    0.0                 !
 ! D29   D(7,3,13,27)          -24.0424         -DE/DX =    0.0                 !
 ! D30   D(7,3,13,28)           88.7739         -DE/DX =    0.0                 !
 ! D31   D(2,4,8,12)             7.0665         -DE/DX =    0.0                 !
 ! D32   D(2,4,8,22)          -176.1012         -DE/DX =    0.0                 !
 ! D33   D(14,4,8,12)         -164.684          -DE/DX =    0.0                 !
 ! D34   D(14,4,8,22)           12.1483         -DE/DX =    0.0                 !
 ! D35   D(2,4,14,17)           74.1518         -DE/DX =    0.0                 !
 ! D36   D(2,4,14,29)         -164.3235         -DE/DX =    0.0                 !
 ! D37   D(2,4,14,30)          -45.6455         -DE/DX =    0.0                 !
 ! D38   D(8,4,14,17)         -114.3717         -DE/DX =    0.0                 !
 ! D39   D(8,4,14,29)            7.1531         -DE/DX =    0.0                 !
 ! D40   D(8,4,14,30)          125.8311         -DE/DX =    0.0                 !
 ! D41   D(1,5,9,11)            -5.2651         -DE/DX =    0.0                 !
 ! D42   D(1,5,9,23)           176.9291         -DE/DX =    0.0                 !
 ! D43   D(15,5,9,11)          166.6764         -DE/DX =    0.0                 !
 ! D44   D(15,5,9,23)          -11.1295         -DE/DX =    0.0                 !
 ! D45   D(1,5,15,18)          -81.6182         -DE/DX =    0.0                 !
 ! D46   D(1,5,15,31)           36.9995         -DE/DX =    0.0                 !
 ! D47   D(1,5,15,32)          154.5836         -DE/DX =    0.0                 !
 ! D48   D(9,5,15,18)          106.6605         -DE/DX =    0.0                 !
 ! D49   D(9,5,15,31)         -134.7218         -DE/DX =    0.0                 !
 ! D50   D(9,5,15,32)          -17.1377         -DE/DX =    0.0                 !
 ! D51   D(2,6,10,12)           -6.0276         -DE/DX =    0.0                 !
 ! D52   D(2,6,10,24)          176.9404         -DE/DX =    0.0                 !
 ! D53   D(16,6,10,12)         165.5176         -DE/DX =    0.0                 !
 ! D54   D(16,6,10,24)         -11.5144         -DE/DX =    0.0                 !
 ! D55   D(2,6,16,18)          -78.6794         -DE/DX =    0.0                 !
 ! D56   D(2,6,16,33)           39.711          -DE/DX =    0.0                 !
 ! D57   D(2,6,16,34)          157.3027         -DE/DX =    0.0                 !
 ! D58   D(10,6,16,18)         110.1075         -DE/DX =    0.0                 !
 ! D59   D(10,6,16,33)        -131.502          -DE/DX =    0.0                 !
 ! D60   D(10,6,16,34)         -13.9104         -DE/DX =    0.0                 !
 ! D61   D(3,7,11,9)             7.8899         -DE/DX =    0.0                 !
 ! D62   D(3,7,11,25)         -179.2196         -DE/DX =    0.0                 !
 ! D63   D(21,7,11,9)         -167.2839         -DE/DX =    0.0                 !
 ! D64   D(21,7,11,25)           5.6066         -DE/DX =    0.0                 !
 ! D65   D(4,8,12,10)            7.6551         -DE/DX =    0.0                 !
 ! D66   D(4,8,12,26)         -178.9996         -DE/DX =    0.0                 !
 ! D67   D(22,8,12,10)        -169.1301         -DE/DX =    0.0                 !
 ! D68   D(22,8,12,26)           4.2153         -DE/DX =    0.0                 !
 ! D69   D(5,9,11,7)            -9.8497         -DE/DX =    0.0                 !
 ! D70   D(5,9,11,25)          177.2743         -DE/DX =    0.0                 !
 ! D71   D(23,9,11,7)          167.9224         -DE/DX =    0.0                 !
 ! D72   D(23,9,11,25)          -4.9536         -DE/DX =    0.0                 !
 ! D73   D(6,10,12,8)           -8.1422         -DE/DX =    0.0                 !
 ! D74   D(6,10,12,26)         178.5176         -DE/DX =    0.0                 !
 ! D75   D(24,10,12,8)         168.8481         -DE/DX =    0.0                 !
 ! D76   D(24,10,12,26)         -4.4921         -DE/DX =    0.0                 !
 ! D77   D(3,13,17,14)           8.9202         -DE/DX =    0.0                 !
 ! D78   D(3,13,17,19)        -171.296          -DE/DX =    0.0                 !
 ! D79   D(27,13,17,14)       -116.8277         -DE/DX =    0.0                 !
 ! D80   D(27,13,17,19)         62.9561         -DE/DX =    0.0                 !
 ! D81   D(28,13,17,14)        132.3641         -DE/DX =    0.0                 !
 ! D82   D(28,13,17,19)        -47.8522         -DE/DX =    0.0                 !
 ! D83   D(4,14,17,13)         -70.2074         -DE/DX =    0.0                 !
 ! D84   D(4,14,17,19)         110.0137         -DE/DX =    0.0                 !
 ! D85   D(29,14,17,13)        167.746          -DE/DX =    0.0                 !
 ! D86   D(29,14,17,19)        -12.0329         -DE/DX =    0.0                 !
 ! D87   D(30,14,17,13)         49.9795         -DE/DX =    0.0                 !
 ! D88   D(30,14,17,19)       -129.7994         -DE/DX =    0.0                 !
 ! D89   D(5,15,18,16)          39.0922         -DE/DX =    0.0                 !
 ! D90   D(5,15,18,20)        -140.8213         -DE/DX =    0.0                 !
 ! D91   D(31,15,18,16)        -81.3084         -DE/DX =    0.0                 !
 ! D92   D(31,15,18,20)         98.7781         -DE/DX =    0.0                 !
 ! D93   D(32,15,18,16)        163.5952         -DE/DX =    0.0                 !
 ! D94   D(32,15,18,20)        -16.3183         -DE/DX =    0.0                 !
 ! D95   D(6,16,18,15)          41.1178         -DE/DX =    0.0                 !
 ! D96   D(6,16,18,20)        -138.9687         -DE/DX =    0.0                 !
 ! D97   D(33,16,18,15)        -79.0295         -DE/DX =    0.0                 !
 ! D98   D(33,16,18,20)        100.884          -DE/DX =    0.0                 !
 ! D99   D(34,16,18,15)        165.8634         -DE/DX =    0.0                 !
 ! D100  D(34,16,18,20)        -14.2231         -DE/DX =    0.0                 !
 --------------------------------------------------------------------------------
 Lowest energy point so far.  Saving SCF results.
 Largest change from initial coordinates is atom   13       0.000 Angstoms.
 GradGradGradGradGradGradGradGradGradGradGradGradGradGradGradGradGradGrad

 Leave Link  103 at Tue May 20 08:42:28 2025, MaxMem=   104857600 cpu:              53.5 elap:               2.1
 (Enter /opt/linux/rocky/8/software/gaussian/16c01_avx2/g16/l202.exe)
                          Input orientation:                          
 ---------------------------------------------------------------------
 Center     Atomic      Atomic             Coordinates (Angstroms)
 Number     Number       Type             X           Y           Z
 ---------------------------------------------------------------------
      1          6           0        0.000448    0.764759   -0.030251
      2          6           0        0.091512   -0.720124   -0.118612
      3          6           0        1.117301    1.667077   -0.129990
      4          6           0        1.324244   -1.437937   -0.227263
      5          6           0       -1.260063    1.402166    0.226994
      6          6           0       -1.086105   -1.534279   -0.239828
      7          6           0        0.882741    3.008184   -0.461597
      8          6           0        1.363108   -2.819475   -0.014334
      9          6           0       -1.448065    2.755880   -0.069823
     10          6           0       -1.013820   -2.916569   -0.036382
     11          6           0       -0.397637    3.546024   -0.517351
     12          6           0        0.200948   -3.559544    0.163779
     13          6           0        2.513529    1.421513    0.423268
     14          6           0        2.606353   -0.825024   -0.759000
     15          6           0       -2.386297    0.733359    0.995450
     16          6           0       -2.412439   -1.027966   -0.778864
     17          6           0        3.257686    0.121662    0.211062
     18          6           0       -3.244505   -0.217744    0.190259
     19          8           0        4.300257   -0.116525    0.786289
     20          8           0       -4.446768   -0.316563    0.306096
     21          1           0        1.740031    3.660696   -0.603653
     22          1           0        2.326210   -3.320331   -0.041991
     23          1           0       -2.429816    3.192471    0.090845
     24          1           0       -1.931406   -3.495929   -0.085940
     25          1           0       -0.554225    4.585094   -0.789042
     26          1           0        0.243569   -4.628910    0.344397
     27          1           0        3.184080    2.212467    0.065932
     28          1           0        2.464566    1.568932    1.510978
     29          1           0        3.316035   -1.616357   -1.005016
     30          1           0        2.372563   -0.263009   -1.674033
     31          1           0       -1.955221    0.130286    1.807128
     32          1           0       -3.029384    1.486873    1.454939
     33          1           0       -2.215579   -0.358582   -1.628945
     34          1           0       -3.012970   -1.860766   -1.149779
 ---------------------------------------------------------------------
                    Distance matrix (angstroms):
                    1          2          3          4          5
     1  C    0.000000
     2  C    1.490295   0.000000
     3  C    1.439266   2.598288   0.000000
     4  C    2.577425   1.430625   3.113422   0.000000
     5  C    1.435740   2.539747   2.418569   3.866675   0.000000
     6  C    2.551489   1.436775   3.887897   2.412306   2.978405
     7  C    2.448970   3.826743   1.401267   4.474129   2.764970
     8  C    3.834557   2.456645   4.494769   1.398391   4.976095
     9  C    2.462584   3.802010   2.787510   5.029770   1.398566
    10  C    3.818501   2.460262   5.055715   2.772964   4.333760
    11  C    2.851521   4.312572   2.444489   5.280994   2.427747
    12  C    4.333295   2.855526   5.314468   2.432267   5.172728
    13  C    2.636775   3.278172   1.521791   3.164497   3.778742
    14  C    3.138348   2.597215   2.970437   1.517304   4.569653
    15  C    2.597999   3.081117   3.796530   4.469638   1.518628
    16  C    3.097791   2.607771   4.488135   3.799360   2.871456
    17  C    3.328874   3.292711   2.661930   2.522435   4.695743
    18  C    3.397596   3.387742   4.762401   4.747280   2.561927
    19  O    4.464500   4.347035   3.761916   3.410289   5.791061
    20  O    4.589130   4.575940   5.923163   5.903095   3.621516
    21  H    3.426571   4.705790   2.141650   5.129387   3.845971
    22  H    4.700773   3.429406   5.132586   2.140483   5.935965
    23  H    3.437242   4.659331   3.867510   5.969492   2.142907
    24  H    4.678528   3.434874   5.996098   3.854161   4.953783
    25  H    3.934258   5.386259   3.426831   6.334125   3.414904
    26  H    5.412128   3.939049   6.374002   3.417157   6.216797
    27  H    3.498660   4.265926   2.146488   4.107360   4.520280
    28  H    3.015619   3.677870   2.125449   3.655554   3.943258
    29  H    4.196784   3.462152   4.047350   2.145685   5.618719
    30  H    3.063537   2.798479   2.772180   2.138357   4.425233
    31  H    2.757383   2.936118   3.943925   4.165689   2.144236
    32  H    3.450669   4.133629   4.442912   5.508030   2.155347
    33  H    2.954402   2.781095   4.178307   3.957280   2.730889
    34  H    4.150592   3.464416   5.526734   4.454351   3.951571
                    6          7          8          9         10
     6  C    0.000000
     7  C    4.955755   0.000000
     8  C    2.775107   5.864504   0.000000
     9  C    4.308756   2.376931   6.244226   0.000000
    10  C    1.399050   6.235419   2.379012   5.689144   0.000000
    11  C    5.134246   1.389873   6.623657   1.388527   6.509694
    12  C    2.433332   6.632570   1.389260   6.531339   1.388936
    13  C    4.704654   2.441307   4.415987   4.209264   5.610029
    14  C    3.795633   4.213404   2.465364   5.453086   4.242922
    15  C    2.891123   4.240805   5.263110   2.470967   4.033652
    16  C    1.518576   5.220094   4.248384   3.968658   2.464597
    17  C    4.670542   3.798005   3.505783   5.400194   5.247651
    18  C    2.564553   5.278796   5.295372   3.483860   3.508700
    19  O    5.663553   4.795878   4.071091   6.482811   6.062710
    20  O    3.615926   6.328267   6.334185   4.309691   4.320006
    21  H    5.925131   1.086691   6.517820   3.356728   7.153035
    22  H    3.856555   6.504596   1.085904   7.153060   3.364351
    23  H    4.925147   3.363360   7.109207   1.086398   6.272288
    24  H    2.141562   7.096762   3.364007   6.270486   1.086314
    25  H    6.166949   2.158411   7.687911   2.159224   7.553322
    26  H    3.418493   7.706061   2.157802   7.587379   2.158270
    27  H    5.689119   2.491508   5.351899   4.665886   6.628714
    28  H    5.030160   2.909410   4.774715   4.383658   5.883299
    29  H    4.468902   5.253818   2.498573   6.533582   4.623467
    30  H    3.954169   3.793452   3.210782   5.126829   4.603354
    31  H    2.777799   4.635023   4.798971   3.267093   3.683489
    32  H    3.971892   4.614349   6.324348   2.536897   5.067232
    33  H    2.141873   4.722012   4.633569   3.566485   3.244037
    34  H    2.155786   6.273502   4.621517   4.992860   2.520114
                   11         12         13         14         15
    11  C    0.000000
    12  C    7.163193   0.000000
    13  C    3.724674   5.497845   0.000000
    14  C    5.309276   3.757006   2.540335   0.000000
    15  C    3.762236   5.080800   4.980888   5.516630   0.000000
    16  C    5.004918   3.758624   5.631184   5.022933   2.500228
    17  C    5.061445   4.785098   1.512750   1.503818   5.730967
    18  C    4.771930   4.799945   5.991361   5.958391   1.513093
    19  O    6.097864   5.389456   2.385318   2.399833   6.743594
    20  O    5.656245   5.669078   7.174982   7.151187   2.413107
    21  H    2.142480   7.422236   2.582016   4.571250   5.305941
    22  H    7.402171   2.148558   4.768295   2.611348   6.302096
    23  H    2.150501   7.246789   5.261507   6.498115   2.620579
    24  H    7.219949   2.147869   6.648156   5.308295   4.388987
    25  H    1.085358   8.234882   4.570455   6.265743   4.623501
    26  H    8.245199   1.085349   6.462705   4.611917   6.007828
    27  H    3.866173   6.498058   1.096784   3.200099   5.837882
    28  H    4.026812   5.765430   1.098746   3.302110   4.949225
    29  H    6.378037   3.853028   3.451473   1.091046   6.483797
    30  H    4.849810   4.354378   2.693726   1.099001   5.546678
    31  H    4.415488   4.578701   4.853047   5.320300   1.099247
    32  H    3.880222   6.129312   5.638484   6.481352   1.092005
    33  H    4.448202   4.393133   5.453877   4.921931   2.847618
    34  H    6.039314   3.865301   6.617403   5.727326   3.424064
                   16         17         18         19         20
    16  C    0.000000
    17  C    5.869575   0.000000
    18  C    1.512611   6.511076   0.000000
    19  O    6.952749   1.214320   7.568945   0.000000
    20  O    2.412826   7.717492   1.211866   8.762479   0.000000
    21  H    6.265561   3.935962   6.365390   4.770125   7.410986
    22  H    5.315328   3.574773   6.380662   3.853217   7.417346
    23  H    4.309151   6.464673   3.507587   7.531732   4.053116
    24  H    2.608137   6.332602   3.542176   7.142463   4.072973
    25  H    5.912656   5.954250   5.591412   6.939228   6.354326
    26  H    4.613338   5.627665   5.625727   6.083881   6.371583
    27  H    6.521895   2.097128   6.873724   2.681225   8.042606
    28  H    5.981006   2.100812   6.126173   2.595323   7.264528
    29  H    5.763052   2.122018   6.813625   2.535145   7.979323
    30  H    4.927751   2.117781   5.918538   3.129001   7.101201
    31  H    2.870183   5.451780   2.097056   6.343030   2.942886
    32  H    3.419782   6.552731   2.133404   7.532703   2.565385
    33  H    1.099757   5.794212   2.094762   6.953277   2.953702
    34  H    1.091683   6.715879   2.132799   7.763635   2.561232
                   21         22         23         24         25
    21  H    0.000000
    22  H    7.028073   0.000000
    23  H    4.253138   8.065607   0.000000
    24  H    8.060072   4.261462   6.709274   0.000000
    25  H    2.480422   8.446936   2.496286   8.227631   0.000000
    26  H    8.476778   2.489793   8.269539   2.489850   9.317673
    27  H    2.151973   5.599950   5.698847   7.666619   4.509464
    28  H    3.061387   5.131837   5.348610   6.894022   4.847724
    29  H    5.521971   2.193330   7.572354   5.649171   7.313245
    30  H    4.115978   3.465967   6.173976   5.612304   5.731789
    31  H    5.650712   5.801435   3.542294   4.090686   5.343052
    32  H    5.631219   7.350673   2.264796   5.329932   4.556406
    33  H    5.731725   5.649622   3.951399   3.507786   5.282562
    34  H    7.305875   5.644853   5.235878   2.230536   6.908304
                   26         27         28         29         30
    26  H    0.000000
    27  H    7.451751   0.000000
    28  H    6.686328   1.737813   0.000000
    29  H    4.509594   3.977969   4.147444   0.000000
    30  H    5.260016   3.132734   3.675428   1.780245   0.000000
    31  H    5.442812   5.812027   4.657459   6.224553   5.568023
    32  H    7.024836   6.408039   5.494849   7.479690   6.483331
    33  H    5.308219   6.216045   5.956357   5.707017   4.589359
    34  H    4.527718   7.514826   6.988981   6.335377   5.641953
                   31         32         33         34
    31  H    0.000000
    32  H    1.765840   0.000000
    33  H    3.480428   3.684878   0.000000
    34  H    3.718389   4.241640   1.766915   0.000000
 Stoichiometry    C18H14O2
 Framework group  C1[X(C18H14O2)]
 Deg. of freedom    96
 Full point group                 C1      NOp   1
 RotChk:  IX=0 Diff= 6.08D-16
 Largest Abelian subgroup         C1      NOp   1
 Largest concise Abelian subgroup C1      NOp   1
                         Standard orientation:                         
 ---------------------------------------------------------------------
 Center     Atomic      Atomic             Coordinates (Angstroms)
 Number     Number       Type             X           Y           Z
 ---------------------------------------------------------------------
      1          6           0        0.000448    0.764759   -0.030251
      2          6           0        0.091512   -0.720124   -0.118612
      3          6           0        1.117301    1.667077   -0.129990
      4          6           0        1.324244   -1.437937   -0.227263
      5          6           0       -1.260063    1.402166    0.226994
      6          6           0       -1.086105   -1.534279   -0.239828
      7          6           0        0.882741    3.008184   -0.461597
      8          6           0        1.363108   -2.819475   -0.014334
      9          6           0       -1.448065    2.755880   -0.069823
     10          6           0       -1.013820   -2.916569   -0.036382
     11          6           0       -0.397637    3.546024   -0.517351
     12          6           0        0.200948   -3.559544    0.163779
     13          6           0        2.513529    1.421513    0.423268
     14          6           0        2.606353   -0.825024   -0.759000
     15          6           0       -2.386297    0.733359    0.995450
     16          6           0       -2.412439   -1.027966   -0.778864
     17          6           0        3.257686    0.121662    0.211062
     18          6           0       -3.244505   -0.217744    0.190259
     19          8           0        4.300257   -0.116525    0.786289
     20          8           0       -4.446768   -0.316563    0.306096
     21          1           0        1.740031    3.660696   -0.603653
     22          1           0        2.326210   -3.320331   -0.041991
     23          1           0       -2.429816    3.192471    0.090845
     24          1           0       -1.931406   -3.495929   -0.085940
     25          1           0       -0.554225    4.585094   -0.789042
     26          1           0        0.243569   -4.628910    0.344397
     27          1           0        3.184080    2.212467    0.065932
     28          1           0        2.464566    1.568932    1.510978
     29          1           0        3.316035   -1.616357   -1.005016
     30          1           0        2.372563   -0.263009   -1.674033
     31          1           0       -1.955221    0.130286    1.807128
     32          1           0       -3.029384    1.486873    1.454939
     33          1           0       -2.215579   -0.358582   -1.628945
     34          1           0       -3.012970   -1.860766   -1.149779
 ---------------------------------------------------------------------
 Rotational constants (GHZ):           0.4816773           0.3493254           0.2137402
 Leave Link  202 at Tue May 20 08:42:28 2025, MaxMem=   104857600 cpu:               0.1 elap:               0.0
 (Enter /opt/linux/rocky/8/software/gaussian/16c01_avx2/g16/l716.exe)
 Rotating derivatives to standard orientation.
 Dipole        = 1.56002632D-01 3.18490291D-01-5.41672763D-01
 Polarizability= 2.33001875D+02-3.59067636D+00 2.50502745D+02
                -1.61748390D+00-9.24296780D+00 9.51841719D+01
 Full mass-weighted force constant matrix:
 Low frequencies ---  -45.3457   -2.3621   -0.0010   -0.0008   -0.0006    2.7014
 Low frequencies ---    4.4636   44.5881   64.8047
 ******    1 imaginary frequencies (negative Signs) ****** 
 Diagonal vibrational polarizability:
       22.6934640      35.4137893      68.9539375
 Harmonic frequencies (cm**-1), IR intensities (KM/Mole), Raman scattering
 activities (A**4/AMU), depolarization ratios for plane and unpolarized
 incident light, reduced masses (AMU), force constants (mDyne/A),
 and normal coordinates:
                      1                      2                      3
                      A                      A                      A
 Frequencies --    -45.3439                44.5877                64.8035
 Red. masses --      3.6136                 7.1526                 5.3217
 Frc consts  --      0.0044                 0.0084                 0.0132
 IR Inten    --      4.2764                 2.4024                 0.2068
  Atom  AN      X      Y      Z        X      Y      Z        X      Y      Z
     1   6     0.03   0.00  -0.01    -0.00   0.02  -0.04     0.01   0.00   0.00
     2   6     0.02  -0.00  -0.03    -0.01   0.03  -0.04    -0.01  -0.00   0.00
     3   6     0.00   0.02  -0.09     0.02   0.00   0.02     0.01   0.00  -0.02
     4   6     0.01  -0.02  -0.01    -0.01   0.03  -0.06    -0.02  -0.05   0.13
     5   6     0.03  -0.02   0.05    -0.01   0.05  -0.12     0.01  -0.00   0.02
     6   6     0.01   0.02  -0.04    -0.01   0.03  -0.04    -0.03   0.05  -0.12
     7   6    -0.05   0.02  -0.08     0.07  -0.00  -0.04    -0.00   0.00  -0.01
     8   6    -0.01  -0.02  -0.02    -0.01   0.02  -0.11    -0.11  -0.05   0.14
     9   6    -0.02  -0.02   0.07     0.04   0.05  -0.19     0.00   0.00   0.04
    10   6    -0.01   0.01  -0.05    -0.01   0.02  -0.09    -0.11   0.04  -0.13
    11   6    -0.06  -0.00   0.01     0.08   0.01  -0.16    -0.00   0.01   0.04
    12   6    -0.02  -0.01  -0.05    -0.00   0.01  -0.14    -0.16  -0.00   0.01
    13   6     0.07   0.09  -0.22    -0.04  -0.03   0.15     0.02   0.02  -0.05
    14   6     0.04  -0.04   0.03     0.00   0.06   0.01     0.03  -0.13   0.17
    15   6     0.06  -0.05   0.07    -0.01   0.12  -0.07     0.00  -0.03  -0.01
    16   6     0.01   0.04  -0.02    -0.03   0.03   0.02     0.02   0.13  -0.15
    17   6    -0.04  -0.00   0.05    -0.03  -0.02   0.11     0.06   0.03  -0.01
    18   6     0.03   0.00   0.04     0.01  -0.05   0.12     0.02  -0.03  -0.02
    19   8    -0.14  -0.04   0.23    -0.08  -0.08   0.16     0.16   0.18  -0.13
    20   8     0.03   0.02   0.04     0.05  -0.26   0.37     0.04  -0.18   0.10
    21   1    -0.07   0.03  -0.15     0.09  -0.02   0.00    -0.01   0.00  -0.03
    22   1    -0.02  -0.04  -0.01    -0.00   0.03  -0.13    -0.13  -0.09   0.24
    23   1    -0.02  -0.04   0.13     0.04   0.07  -0.26     0.01   0.00   0.07
    24   1    -0.02   0.03  -0.07    -0.01   0.02  -0.10    -0.13   0.08  -0.22
    25   1    -0.09  -0.00   0.02     0.11  -0.00  -0.22    -0.01   0.01   0.05
    26   1    -0.04  -0.01  -0.06     0.00   0.01  -0.18    -0.22  -0.01   0.01
    27   1     0.07  -0.06  -0.56    -0.01   0.00   0.29     0.01   0.02  -0.07
    28   1     0.24   0.43  -0.26    -0.16  -0.13   0.16     0.03   0.04  -0.06
    29   1     0.06  -0.04   0.11     0.01   0.07  -0.03     0.04  -0.18   0.32
    30   1     0.08  -0.08  -0.00     0.03   0.13   0.05     0.10  -0.27   0.06
    31   1     0.09  -0.10   0.02    -0.00   0.27   0.04    -0.01  -0.03  -0.01
    32   1     0.08  -0.07   0.14    -0.04   0.17  -0.18    -0.01  -0.04  -0.00
    33   1     0.01   0.08   0.01    -0.07   0.09   0.05     0.07   0.27  -0.03
    34   1     0.01   0.06  -0.05    -0.03   0.04  -0.00     0.04   0.19  -0.30
                      4                      5                      6
                      A                      A                      A
 Frequencies --     84.1058               169.3730               174.0823
 Red. masses --      5.4456                 3.5175                 3.7763
 Frc consts  --      0.0227                 0.0595                 0.0674
 IR Inten    --      2.1811                 4.8084                 0.8461
  Atom  AN      X      Y      Z        X      Y      Z        X      Y      Z
     1   6     0.00  -0.04   0.07     0.01   0.02   0.18     0.01   0.00   0.09
     2   6     0.00  -0.04   0.07     0.01   0.01   0.18     0.02   0.04   0.04
     3   6    -0.01  -0.03   0.01     0.01   0.01   0.10     0.01   0.00   0.04
     4   6     0.01  -0.03   0.04    -0.00  -0.00   0.07     0.01   0.04   0.00
     5   6     0.01  -0.03   0.06    -0.02   0.03   0.06     0.01  -0.03   0.13
     6   6    -0.01  -0.02   0.02     0.01   0.02   0.13     0.02   0.06  -0.04
     7   6    -0.03  -0.07  -0.13     0.01  -0.01   0.01    -0.03  -0.05  -0.10
     8   6    -0.00  -0.06  -0.11    -0.01  -0.03  -0.09     0.00   0.05   0.06
     9   6    -0.02  -0.07  -0.07    -0.00   0.01  -0.05    -0.03  -0.06   0.01
    10   6    -0.01  -0.05  -0.13     0.00  -0.00   0.02    -0.01   0.07  -0.01
    11   6    -0.05  -0.10  -0.19     0.01  -0.01  -0.05    -0.06  -0.10  -0.15
    12   6    -0.01  -0.08  -0.23    -0.00  -0.04  -0.11    -0.02   0.08   0.08
    13   6    -0.05   0.02   0.10     0.10   0.05  -0.09    -0.02  -0.03   0.10
    14   6     0.04  -0.01   0.13    -0.04   0.01   0.00    -0.06   0.07  -0.10
    15   6     0.05  -0.02   0.13    -0.13   0.10  -0.03     0.04  -0.09   0.12
    16   6    -0.03   0.01   0.10     0.06   0.03   0.03     0.09   0.15  -0.11
    17   6     0.03   0.06   0.08     0.02  -0.00  -0.03    -0.02  -0.02  -0.03
    18   6    -0.00   0.08   0.09    -0.03  -0.00  -0.04     0.05   0.00  -0.02
    19   8     0.09   0.16   0.00     0.02  -0.05  -0.05    -0.05  -0.13  -0.03
    20   8    -0.02   0.23  -0.02    -0.03  -0.12  -0.08     0.06  -0.04  -0.04
    21   1    -0.04  -0.07  -0.19     0.01  -0.02  -0.05    -0.06  -0.03  -0.19
    22   1    -0.01  -0.06  -0.15    -0.01  -0.03  -0.21    -0.01   0.04   0.07
    23   1    -0.03  -0.07  -0.09    -0.02   0.02  -0.15    -0.03  -0.06   0.00
    24   1    -0.01  -0.04  -0.19    -0.01   0.01  -0.03    -0.01   0.08  -0.06
    25   1    -0.07  -0.14  -0.30     0.02  -0.04  -0.14    -0.10  -0.14  -0.29
    26   1    -0.01  -0.10  -0.37    -0.00  -0.06  -0.25    -0.04   0.08   0.13
    27   1    -0.06   0.08   0.22     0.07  -0.05  -0.39    -0.01   0.03   0.24
    28   1    -0.15  -0.06   0.11     0.33   0.27  -0.11    -0.09  -0.18   0.11
    29   1     0.07   0.00   0.18    -0.05   0.01  -0.05    -0.07   0.10  -0.22
    30   1     0.08  -0.04   0.10    -0.10   0.01   0.02    -0.16   0.14  -0.03
    31   1     0.08  -0.07   0.07    -0.26   0.18   0.10     0.05  -0.17   0.04
    32   1     0.10  -0.01   0.19    -0.20   0.14  -0.20     0.05  -0.13   0.20
    33   1    -0.06  -0.01   0.08     0.15   0.05   0.07     0.18   0.28   0.02
    34   1    -0.07   0.03   0.14     0.10   0.04  -0.05     0.11   0.22  -0.28
                      7                      8                      9
                      A                      A                      A
 Frequencies --    197.6029               207.2163               259.4339
 Red. masses --      3.8486                 3.9553                 5.4760
 Frc consts  --      0.0885                 0.1001                 0.2172
 IR Inten    --      0.1933                 0.1826                 0.0716
  Atom  AN      X      Y      Z        X      Y      Z        X      Y      Z
     1   6    -0.05  -0.00  -0.01     0.04  -0.01  -0.02     0.00   0.02  -0.06
     2   6    -0.00  -0.00   0.01     0.06   0.00  -0.05     0.03  -0.04   0.12
     3   6    -0.02  -0.05  -0.14     0.01   0.03   0.03    -0.05   0.08  -0.06
     4   6     0.00  -0.00  -0.05     0.02  -0.05  -0.14    -0.01  -0.10   0.11
     5   6    -0.00   0.05   0.10     0.01  -0.05  -0.03     0.03   0.06  -0.07
     6   6     0.01  -0.01   0.06     0.01   0.06   0.07     0.06  -0.06   0.10
     7   6     0.03  -0.07  -0.23    -0.03   0.04   0.09    -0.04   0.12   0.05
     8   6    -0.00  -0.01  -0.09    -0.07  -0.07  -0.24    -0.02  -0.13   0.02
     9   6     0.09   0.11   0.24    -0.04  -0.07  -0.08    -0.02   0.06  -0.06
    10   6    -0.00  -0.00   0.09    -0.09   0.09   0.26     0.00  -0.08   0.01
    11   6     0.06   0.03   0.03    -0.05  -0.03  -0.01    -0.04   0.13   0.05
    12   6     0.01  -0.01  -0.01    -0.09   0.02   0.04    -0.02  -0.15  -0.06
    13   6    -0.10  -0.05   0.03    -0.00   0.00   0.03    -0.13   0.00   0.02
    14   6     0.03  -0.01   0.01     0.09  -0.05   0.01    -0.11  -0.06  -0.01
    15   6    -0.08   0.06  -0.01     0.03  -0.05   0.01     0.12   0.04   0.00
    16   6     0.05   0.01   0.00     0.05   0.07  -0.03     0.17   0.03   0.01
    17   6    -0.02   0.01   0.02     0.01   0.00   0.03    -0.15   0.01  -0.07
    18   6     0.00  -0.00  -0.04     0.00  -0.00  -0.02     0.18   0.02  -0.00
    19   8    -0.01   0.07   0.04     0.03   0.08   0.03    -0.16   0.02  -0.05
    20   8     0.01  -0.09  -0.06     0.00  -0.03  -0.02     0.18   0.01  -0.03
    21   1     0.06  -0.14  -0.39    -0.04   0.08   0.16    -0.02   0.12   0.16
    22   1    -0.01  -0.02  -0.16    -0.12  -0.15  -0.40    -0.02  -0.13  -0.06
    23   1     0.16   0.18   0.41    -0.07  -0.12  -0.14    -0.05   0.00  -0.05
    24   1    -0.01   0.00   0.14    -0.14   0.16   0.47    -0.03  -0.03  -0.07
    25   1     0.08   0.04   0.06    -0.08  -0.03  -0.01    -0.04   0.15   0.13
    26   1     0.02  -0.01  -0.03    -0.13   0.03   0.10    -0.04  -0.17  -0.19
    27   1    -0.08   0.03   0.24     0.01   0.00   0.06    -0.07   0.05   0.26
    28   1    -0.30  -0.18   0.04    -0.01  -0.02   0.03    -0.27  -0.21   0.05
    29   1     0.04  -0.02   0.05     0.13  -0.05   0.12    -0.04  -0.01   0.01
    30   1     0.09  -0.01  -0.01     0.21  -0.07  -0.04    -0.22  -0.15  -0.03
    31   1    -0.16   0.09   0.06     0.05  -0.09  -0.03     0.20   0.08  -0.01
    32   1    -0.14   0.06  -0.09     0.07  -0.04   0.06     0.09   0.01   0.01
    33   1     0.11   0.01   0.02     0.11   0.11   0.03     0.29   0.05   0.06
    34   1     0.05   0.02  -0.03     0.09   0.08  -0.11     0.13   0.10  -0.07
                     10                     11                     12
                      A                      A                      A
 Frequencies --    282.8855               339.7306               355.6450
 Red. masses --      3.7589                 4.0997                 3.4043
 Frc consts  --      0.1772                 0.2788                 0.2537
 IR Inten    --      0.3340                 0.2051                 0.1247
  Atom  AN      X      Y      Z        X      Y      Z        X      Y      Z
     1   6    -0.06   0.00  -0.01    -0.02  -0.09   0.07     0.01  -0.09  -0.09
     2   6     0.07   0.02  -0.04    -0.02  -0.10  -0.10     0.02  -0.06   0.06
     3   6    -0.07  -0.02  -0.02    -0.04  -0.07   0.12     0.01  -0.10  -0.11
     4   6     0.09  -0.00  -0.04    -0.01  -0.07  -0.14     0.04  -0.00   0.07
     5   6    -0.08   0.01   0.02     0.03   0.01   0.09     0.00  -0.12  -0.11
     6   6     0.07   0.04  -0.01    -0.01  -0.10  -0.12    -0.02   0.02   0.09
     7   6    -0.06   0.01   0.06     0.02  -0.07   0.09     0.04  -0.08   0.01
     8   6     0.06   0.02   0.07     0.01  -0.05  -0.01     0.05  -0.00   0.04
     9   6    -0.08  -0.01  -0.05     0.06  -0.01  -0.00     0.03  -0.11  -0.04
    10   6     0.07   0.03  -0.08    -0.01  -0.10  -0.03    -0.01   0.01   0.02
    11   6    -0.06   0.00   0.01     0.06  -0.04  -0.04     0.06  -0.05   0.13
    12   6     0.05   0.03   0.00     0.01  -0.04   0.14     0.02   0.02  -0.04
    13   6    -0.08  -0.13  -0.05    -0.02   0.04  -0.01    -0.02   0.00  -0.04
    14   6     0.17  -0.16  -0.07    -0.04   0.06  -0.06    -0.05   0.12  -0.04
    15   6    -0.11   0.12   0.07    -0.05   0.13   0.03    -0.03   0.00  -0.03
    16   6     0.06   0.11   0.08     0.03   0.05  -0.05     0.04   0.16  -0.00
    17   6     0.04  -0.08  -0.07    -0.08   0.06   0.01     0.01   0.05  -0.01
    18   6    -0.03   0.04   0.08     0.07   0.05   0.01    -0.09   0.03   0.02
    19   8    -0.01  -0.01   0.04    -0.06   0.16   0.01    -0.01   0.06   0.04
    20   8    -0.04   0.01  -0.03     0.08   0.05   0.02    -0.09   0.03   0.03
    21   1    -0.05   0.01   0.11     0.06  -0.12   0.10     0.04  -0.07   0.10
    22   1     0.06   0.00   0.15     0.02  -0.04   0.05     0.04  -0.02   0.02
    23   1    -0.09  -0.01  -0.10     0.06   0.00  -0.06     0.04  -0.10  -0.02
    24   1     0.07   0.03  -0.13     0.00  -0.12   0.01     0.01  -0.01  -0.02
    25   1    -0.05   0.00   0.02     0.08  -0.07  -0.16     0.07   0.00   0.32
    26   1     0.03   0.03   0.02     0.03  -0.00   0.34     0.01   0.00  -0.15
    27   1    -0.07  -0.08   0.08    -0.07  -0.04  -0.27    -0.04   0.03  -0.02
    28   1    -0.11  -0.26  -0.04     0.18   0.23  -0.03    -0.08   0.02  -0.04
    29   1     0.16  -0.23   0.14     0.02   0.12  -0.12    -0.06   0.18  -0.27
    30   1     0.29  -0.30  -0.18    -0.05   0.12  -0.02    -0.24   0.23   0.08
    31   1    -0.16   0.23   0.18    -0.19   0.27   0.21    -0.04  -0.00  -0.02
    32   1    -0.14   0.18  -0.07    -0.15   0.19  -0.21     0.07   0.08  -0.02
    33   1     0.05   0.20   0.15     0.08   0.10  -0.00     0.22   0.36   0.20
    34   1     0.07   0.14  -0.01    -0.07   0.14  -0.10     0.10   0.24  -0.31
                     13                     14                     15
                      A                      A                      A
 Frequencies --    374.6064               395.6495               407.2111
 Red. masses --      4.5867                 4.3161                 5.2529
 Frc consts  --      0.3792                 0.3981                 0.5132
 IR Inten    --      0.4714                 0.5666                21.3770
  Atom  AN      X      Y      Z        X      Y      Z        X      Y      Z
     1   6    -0.15  -0.00  -0.07    -0.04   0.03   0.04    -0.03  -0.00   0.15
     2   6    -0.11   0.01   0.00    -0.04   0.05   0.04    -0.01   0.02   0.16
     3   6    -0.09  -0.12  -0.02    -0.01  -0.05   0.01    -0.05  -0.05   0.09
     4   6    -0.07   0.11   0.00    -0.04   0.08  -0.02     0.02   0.04   0.06
     5   6    -0.12   0.09  -0.07    -0.03   0.04   0.03    -0.01   0.03   0.01
     6   6    -0.04  -0.07   0.02    -0.02   0.02   0.05    -0.03   0.01   0.04
     7   6    -0.07  -0.10   0.03     0.15  -0.03   0.08    -0.01  -0.07   0.01
     8   6    -0.01   0.11  -0.06    -0.06   0.09   0.02     0.07   0.04  -0.04
     9   6    -0.12   0.09  -0.04     0.08   0.04  -0.11    -0.01   0.02   0.01
    10   6    -0.00  -0.07   0.07    -0.03   0.02  -0.04     0.06   0.01   0.04
    11   6    -0.02   0.01   0.02     0.18  -0.01  -0.03     0.01  -0.02   0.01
    12   6     0.06   0.02  -0.01    -0.03   0.05  -0.02     0.09   0.03  -0.01
    13   6    -0.01  -0.09  -0.05    -0.05  -0.07  -0.07    -0.06  -0.09  -0.05
    14   6    -0.01   0.04   0.08    -0.00  -0.03  -0.07     0.07  -0.10  -0.06
    15   6     0.06   0.01   0.06     0.07  -0.12   0.13     0.03  -0.08  -0.17
    16   6     0.08   0.06  -0.05    -0.01  -0.04   0.08    -0.03  -0.02  -0.20
    17   6     0.07  -0.09   0.12    -0.05   0.00  -0.07    -0.02  -0.02  -0.11
    18   6     0.12   0.02   0.01     0.00  -0.07   0.06    -0.03   0.08  -0.20
    19   8     0.16  -0.06   0.00    -0.09   0.17   0.05    -0.08   0.09   0.04
    20   8     0.13   0.02  -0.01    -0.01  -0.11  -0.13     0.01   0.13   0.23
    21   1    -0.04  -0.13   0.04     0.20  -0.09   0.16     0.01  -0.13  -0.08
    22   1     0.02   0.17  -0.11    -0.05   0.10   0.04     0.06   0.05  -0.16
    23   1    -0.08   0.14   0.01     0.10   0.12  -0.23    -0.02   0.02  -0.03
    24   1     0.02  -0.11   0.09    -0.03   0.02  -0.10     0.10  -0.05   0.02
    25   1     0.11   0.04   0.07     0.23  -0.01  -0.05     0.06  -0.03  -0.05
    26   1     0.17   0.02  -0.04     0.01   0.05  -0.06     0.11   0.02  -0.08
    27   1    -0.06  -0.18  -0.35    -0.05  -0.09  -0.12    -0.09  -0.06  -0.03
    28   1     0.11   0.24  -0.09     0.04  -0.06  -0.07     0.03  -0.18  -0.04
    29   1    -0.12  -0.02  -0.04    -0.04  -0.09  -0.00     0.03  -0.18   0.11
    30   1     0.06   0.19   0.16     0.04  -0.08  -0.11     0.13  -0.26  -0.17
    31   1     0.22   0.01  -0.03     0.29  -0.26  -0.09     0.01  -0.29  -0.32
    32   1     0.01  -0.09   0.15     0.15  -0.22   0.40     0.04  -0.19   0.03
    33   1     0.23   0.13   0.05    -0.07  -0.05   0.06     0.10  -0.13  -0.25
    34   1     0.01   0.16  -0.18    -0.01  -0.05   0.12     0.02  -0.08  -0.17
                     16                     17                     18
                      A                      A                      A
 Frequencies --    442.9492               476.6071               478.1294
 Red. masses --      2.9800                 4.2580                 3.0295
 Frc consts  --      0.3445                 0.5699                 0.4081
 IR Inten    --      2.7910                 5.0308                 1.1974
  Atom  AN      X      Y      Z        X      Y      Z        X      Y      Z
     1   6     0.01  -0.03   0.02     0.00   0.02   0.02     0.01  -0.01  -0.04
     2   6    -0.00   0.02   0.05    -0.02  -0.06   0.01    -0.10  -0.01  -0.06
     3   6     0.01  -0.05  -0.06     0.03   0.05   0.03     0.05   0.02  -0.12
     4   6     0.01   0.06   0.03     0.01  -0.01  -0.10    -0.08   0.09  -0.01
     5   6     0.03  -0.05   0.03     0.00   0.07  -0.00     0.08  -0.04   0.15
     6   6    -0.01   0.04   0.02    -0.06  -0.13   0.12    -0.09  -0.08   0.05
     7   6    -0.04  -0.05   0.02    -0.04   0.06  -0.00     0.04   0.06   0.08
     8   6    -0.09   0.06   0.02    -0.08  -0.03   0.07    -0.00   0.11   0.01
     9   6    -0.04  -0.09  -0.01    -0.04   0.09   0.02     0.05  -0.08  -0.02
    10   6    -0.09   0.05  -0.02    -0.11  -0.18  -0.04    -0.01  -0.09   0.07
    11   6    -0.05  -0.06   0.06    -0.05   0.07  -0.06     0.00  -0.04  -0.04
    12   6    -0.10   0.06  -0.04    -0.07  -0.10   0.03     0.08   0.00  -0.06
    13   6     0.01  -0.04  -0.04     0.09   0.02   0.00     0.02   0.05  -0.03
    14   6     0.02   0.05  -0.07     0.09   0.05  -0.15    -0.00  -0.03   0.08
    15   6    -0.00   0.07  -0.02     0.02  -0.02  -0.03    -0.02   0.02   0.04
    16   6    -0.01  -0.10   0.01     0.02   0.02   0.02    -0.01   0.02  -0.05
    17   6     0.09   0.01  -0.06     0.20   0.04  -0.09     0.00   0.05  -0.04
    18   6     0.13   0.01  -0.03    -0.05   0.02  -0.03     0.00   0.03  -0.04
    19   8     0.02   0.04   0.08     0.08   0.02   0.14    -0.03  -0.05  -0.02
    20   8     0.14   0.01  -0.01    -0.05  -0.01   0.02     0.01  -0.01   0.01
    21   1    -0.06  -0.02   0.05    -0.05   0.07  -0.05     0.02   0.13   0.26
    22   1    -0.11   0.00   0.02    -0.08  -0.04   0.19     0.04   0.20   0.07
    23   1    -0.06  -0.13  -0.04    -0.05   0.07   0.03     0.01  -0.12  -0.14
    24   1    -0.10   0.08  -0.07    -0.10  -0.19  -0.17     0.03  -0.16   0.09
    25   1    -0.05  -0.05   0.12    -0.04   0.06  -0.13    -0.08  -0.06  -0.08
    26   1    -0.10   0.05  -0.09     0.03  -0.09   0.05     0.20  -0.00  -0.14
    27   1    -0.03   0.06   0.13     0.04   0.18   0.24     0.04   0.14   0.22
    28   1    -0.10  -0.19  -0.02     0.01  -0.26   0.04    -0.15  -0.15  -0.01
    29   1    -0.06   0.02  -0.21     0.01   0.02  -0.31    -0.01  -0.13   0.38
    30   1    -0.08   0.11  -0.01     0.01   0.14  -0.07     0.20  -0.24  -0.10
    31   1    -0.16   0.23   0.19     0.10  -0.17  -0.18    -0.19   0.04   0.14
    32   1    -0.12   0.13  -0.30     0.08  -0.09   0.17    -0.06   0.07  -0.10
    33   1    -0.15  -0.35  -0.22     0.24   0.11   0.15     0.16   0.06   0.02
    34   1    -0.07  -0.20   0.35     0.01   0.12  -0.20    -0.06   0.11  -0.17
                     19                     20                     21
                      A                      A                      A
 Frequencies --    491.5894               497.2565               512.6613
 Red. masses --      3.8099                 2.9531                 4.1564
 Frc consts  --      0.5425                 0.4302                 0.6436
 IR Inten    --      6.1472                 8.2551                 1.9768
  Atom  AN      X      Y      Z        X      Y      Z        X      Y      Z
     1   6    -0.01  -0.05  -0.13    -0.01   0.00  -0.09    -0.06  -0.01  -0.03
     2   6     0.02  -0.01  -0.12     0.02  -0.02  -0.08    -0.02  -0.03  -0.05
     3   6    -0.03  -0.05   0.20    -0.02   0.01  -0.04    -0.02  -0.04   0.06
     4   6     0.03   0.03  -0.02     0.03  -0.06   0.08     0.07  -0.01   0.24
     5   6    -0.00  -0.02  -0.11     0.03   0.04   0.12    -0.08   0.05  -0.02
     6   6    -0.01   0.02   0.12    -0.00   0.04  -0.02     0.01  -0.02  -0.21
     7   6    -0.05  -0.10   0.04    -0.01   0.06   0.10     0.01  -0.05   0.03
     8   6    -0.01   0.05   0.13     0.07  -0.07   0.06     0.03  -0.05  -0.05
     9   6     0.02   0.02   0.14     0.02   0.03   0.03    -0.01   0.08   0.00
    10   6    -0.06   0.03   0.06     0.03   0.04   0.08    -0.01   0.01   0.13
    11   6    -0.02  -0.08  -0.08    -0.03   0.00  -0.11     0.04   0.01  -0.04
    12   6    -0.03   0.02  -0.15     0.03  -0.04  -0.08    -0.01  -0.03  -0.05
    13   6     0.01   0.06   0.06    -0.04  -0.10  -0.05     0.05   0.06  -0.03
    14   6     0.05  -0.01  -0.02    -0.05   0.02  -0.02     0.02   0.02   0.00
    15   6     0.04   0.03  -0.07    -0.01   0.02   0.04    -0.02  -0.01   0.07
    16   6     0.03   0.02   0.07    -0.04   0.02  -0.03    -0.04  -0.01  -0.07
    17   6    -0.05   0.06  -0.04     0.01  -0.09   0.04     0.13   0.13  -0.17
    18   6     0.03   0.05  -0.02    -0.04   0.12  -0.08     0.01  -0.11   0.10
    19   8    -0.07  -0.02  -0.05     0.05   0.05   0.04    -0.04  -0.05   0.06
    20   8     0.03  -0.03  -0.02    -0.02  -0.06   0.01    -0.01   0.04  -0.03
    21   1    -0.04  -0.12  -0.03    -0.00   0.08   0.23     0.03  -0.09   0.00
    22   1    -0.01   0.04   0.28     0.07  -0.07   0.04    -0.00  -0.11  -0.23
    23   1     0.08   0.06   0.36     0.01   0.01   0.01     0.03   0.16   0.04
    24   1    -0.06   0.05   0.06     0.02   0.05   0.18    -0.05   0.04   0.39
    25   1     0.03  -0.10  -0.21    -0.07  -0.04  -0.26     0.12   0.00  -0.09
    26   1    -0.02  -0.01  -0.34    -0.05  -0.06  -0.21    -0.04  -0.04  -0.11
    27   1    -0.07   0.02  -0.17     0.01  -0.16  -0.10    -0.09   0.29   0.21
    28   1     0.25   0.16   0.06    -0.03  -0.01  -0.06     0.01  -0.26   0.01
    29   1     0.12  -0.02   0.22    -0.10   0.08  -0.39     0.01   0.01   0.03
    30   1     0.14  -0.19  -0.16    -0.27   0.25   0.18    -0.19  -0.17  -0.06
    31   1     0.08  -0.02  -0.12    -0.06  -0.18  -0.08     0.07   0.16   0.15
    32   1     0.11   0.04   0.01     0.06  -0.01   0.20    -0.13  -0.03  -0.03
    33   1     0.09  -0.06   0.02    -0.08  -0.19  -0.20    -0.17   0.15   0.03
    34   1     0.03   0.01   0.12    -0.09  -0.05   0.20    -0.05   0.03  -0.15
                     22                     23                     24
                      A                      A                      A
 Frequencies --    526.3466               573.7113               590.1743
 Red. masses --      2.8017                 4.0314                 3.7458
 Frc consts  --      0.4573                 0.7818                 0.7687
 IR Inten    --     10.1013                 0.6024                 0.4506
  Atom  AN      X      Y      Z        X      Y      Z        X      Y      Z
     1   6    -0.01  -0.05   0.05    -0.09  -0.01   0.05    -0.05  -0.03  -0.15
     2   6    -0.01  -0.06   0.03     0.09  -0.02  -0.05     0.03  -0.01   0.14
     3   6    -0.01  -0.06  -0.03    -0.09  -0.03  -0.09    -0.05  -0.05  -0.09
     4   6     0.03  -0.03   0.00     0.12  -0.03  -0.07     0.04   0.02   0.05
     5   6     0.00   0.02  -0.01    -0.07   0.04   0.14     0.00   0.00   0.00
     6   6    -0.03  -0.01  -0.03     0.05   0.00   0.05     0.04   0.01   0.05
     7   6    -0.04  -0.07  -0.02     0.05  -0.00  -0.01    -0.00   0.00   0.18
     8   6     0.04  -0.03  -0.04    -0.02  -0.04   0.11    -0.04  -0.01  -0.14
     9   6    -0.03   0.01  -0.07     0.02   0.04  -0.11     0.06   0.04   0.12
    10   6     0.01  -0.01  -0.03    -0.08   0.01   0.04    -0.01   0.00  -0.15
    11   6     0.00   0.02   0.07     0.09   0.06   0.03     0.00  -0.05  -0.17
    12   6     0.02   0.02   0.06    -0.09  -0.02  -0.08    -0.04   0.06   0.15
    13   6     0.01   0.08   0.01    -0.09   0.08   0.01    -0.04   0.03  -0.04
    14   6     0.03   0.02   0.03     0.12   0.10  -0.01     0.03   0.04   0.04
    15   6     0.03   0.08   0.05    -0.08  -0.08   0.04    -0.01  -0.02  -0.04
    16   6    -0.05   0.07   0.03     0.05  -0.07  -0.05     0.04  -0.03   0.04
    17   6     0.02   0.09  -0.03    -0.02   0.09   0.07     0.02   0.06  -0.00
    18   6    -0.02   0.21  -0.05     0.00  -0.05  -0.06    -0.02  -0.02  -0.01
    19   8    -0.02  -0.07  -0.02     0.02  -0.11  -0.07     0.01  -0.06  -0.02
    20   8     0.01  -0.13  -0.03     0.01   0.07   0.07    -0.02   0.02   0.02
    21   1    -0.02  -0.09  -0.02     0.11  -0.06   0.09     0.01   0.04   0.45
    22   1     0.03  -0.06  -0.06    -0.05  -0.12   0.26    -0.09  -0.09  -0.31
    23   1    -0.04  -0.01  -0.08    -0.00   0.07  -0.31     0.11   0.09   0.24
    24   1     0.03  -0.05  -0.00    -0.11   0.08   0.02     0.01   0.00  -0.33
    25   1     0.07   0.06   0.17     0.12   0.07   0.07     0.00  -0.08  -0.30
    26   1     0.00   0.03   0.15    -0.12  -0.03  -0.15    -0.05   0.08   0.27
    27   1    -0.06   0.18   0.10    -0.14   0.05  -0.14    -0.10   0.07  -0.04
    28   1    -0.07  -0.01   0.02    -0.13   0.30  -0.02    -0.10   0.05  -0.04
    29   1     0.10   0.03   0.20     0.25   0.19   0.06     0.06   0.05   0.11
    30   1     0.08  -0.12  -0.06     0.12   0.08  -0.02     0.03  -0.02   0.00
    31   1     0.10  -0.23  -0.21    -0.09  -0.13   0.01    -0.02  -0.05  -0.06
    32   1     0.24   0.04   0.39    -0.20  -0.19   0.06    -0.00  -0.03  -0.02
    33   1    -0.10  -0.24  -0.22     0.06  -0.13  -0.09     0.02  -0.03   0.03
    34   1    -0.21   0.02   0.38     0.13  -0.14  -0.02     0.10  -0.07   0.03
                     25                     26                     27
                      A                      A                      A
 Frequencies --    620.0159               655.4229               668.8427
 Red. masses --      5.3412                 5.0599                 4.3781
 Frc consts  --      1.2097                 1.2807                 1.1539
 IR Inten    --      4.9334                 0.2631                 1.5636
  Atom  AN      X      Y      Z        X      Y      Z        X      Y      Z
     1   6     0.04  -0.12   0.06     0.07  -0.06   0.10    -0.05   0.02  -0.12
     2   6    -0.01  -0.14   0.12    -0.03  -0.05  -0.00    -0.05  -0.04   0.12
     3   6    -0.13   0.06   0.06     0.05  -0.15  -0.11     0.01   0.05   0.04
     4   6     0.13   0.05   0.08    -0.04  -0.10  -0.13    -0.03  -0.11  -0.11
     5   6     0.13  -0.06  -0.04     0.15   0.14   0.08    -0.13  -0.04  -0.07
     6   6    -0.13  -0.07  -0.05    -0.10   0.09   0.07    -0.17   0.07   0.16
     7   6    -0.06   0.12  -0.04    -0.14  -0.15   0.10     0.07   0.06  -0.03
     8   6     0.06   0.07  -0.00     0.12  -0.07   0.05     0.13  -0.12   0.03
     9   6     0.15  -0.03   0.00    -0.07   0.15  -0.01    -0.01  -0.01  -0.00
    10   6    -0.13  -0.05   0.04     0.04   0.13  -0.01     0.04   0.08  -0.02
    11   6    -0.03   0.19  -0.04    -0.06   0.08  -0.03     0.04  -0.02  -0.02
    12   6    -0.01   0.16  -0.03     0.03   0.08  -0.04     0.05   0.04   0.02
    13   6    -0.15  -0.06   0.00     0.03   0.02  -0.04     0.05   0.06   0.04
    14   6     0.14   0.02  -0.06    -0.05  -0.00   0.05     0.01  -0.04  -0.04
    15   6     0.10   0.02  -0.00     0.13   0.00  -0.10    -0.05  -0.05   0.17
    16   6    -0.13   0.01  -0.04    -0.09  -0.03   0.01    -0.13   0.03  -0.17
    17   6    -0.02  -0.06   0.05    -0.01   0.03   0.02     0.03   0.02  -0.01
    18   6     0.01  -0.05   0.07     0.01  -0.14   0.05     0.06  -0.03  -0.00
    19   8     0.04  -0.04  -0.03    -0.01   0.00  -0.00     0.02   0.00   0.02
    20   8    -0.01  -0.03  -0.07    -0.02  -0.00  -0.05     0.07   0.01  -0.01
    21   1     0.03  -0.00  -0.10    -0.12  -0.16   0.16     0.05   0.10   0.03
    22   1    -0.02  -0.07  -0.12     0.13  -0.06   0.21     0.13  -0.13   0.03
    23   1     0.09  -0.19   0.03    -0.17  -0.01  -0.14     0.10   0.16   0.20
    24   1    -0.05  -0.19   0.05     0.09   0.07  -0.04     0.15  -0.08  -0.32
    25   1    -0.17   0.17  -0.06     0.17   0.08  -0.16     0.01   0.01   0.11
    26   1     0.08   0.14  -0.12    -0.15   0.07  -0.05    -0.11   0.00  -0.11
    27   1    -0.11  -0.20  -0.25     0.01   0.13   0.17     0.04   0.06   0.02
    28   1     0.02   0.20  -0.03    -0.18  -0.12  -0.03     0.10   0.04   0.05
    29   1     0.13   0.01  -0.06     0.00   0.04   0.06     0.04  -0.03   0.01
    30   1     0.11   0.04  -0.04     0.02   0.02   0.04     0.08  -0.06  -0.08
    31   1     0.07   0.18   0.13     0.12   0.15   0.02    -0.04   0.21   0.34
    32   1     0.11   0.12  -0.15     0.03  -0.02  -0.21    -0.22  -0.03  -0.09
    33   1    -0.15   0.12   0.04    -0.06   0.23   0.22    -0.07  -0.14  -0.28
    34   1    -0.20   0.08  -0.10     0.03   0.01  -0.25    -0.19  -0.02   0.02
                     28                     29                     30
                      A                      A                      A
 Frequencies --    696.9771               729.2247               758.1356
 Red. masses --      4.3212                 3.6164                 4.2518
 Frc consts  --      1.2368                 1.1330                 1.4398
 IR Inten    --      1.5379                46.0928                 0.2357
  Atom  AN      X      Y      Z        X      Y      Z        X      Y      Z
     1   6     0.05   0.07  -0.08     0.01   0.02   0.19    -0.01   0.04   0.12
     2   6     0.03   0.00   0.12     0.00   0.02   0.17    -0.00  -0.08  -0.11
     3   6     0.19  -0.03  -0.12    -0.00   0.00  -0.11     0.07   0.06  -0.05
     4   6     0.11   0.03   0.06    -0.05  -0.01  -0.14     0.10  -0.04   0.06
     5   6     0.02   0.10   0.03    -0.08  -0.05  -0.16    -0.13   0.00  -0.05
     6   6     0.00  -0.06  -0.07     0.04  -0.01  -0.13    -0.09  -0.05   0.04
     7   6     0.01  -0.07   0.00     0.03   0.04   0.08     0.11   0.08   0.02
     8   6    -0.01   0.03   0.03    -0.02   0.00   0.08     0.13  -0.03  -0.04
     9   6    -0.16   0.08   0.00     0.04  -0.01   0.09    -0.08   0.03   0.06
    10   6    -0.08  -0.09   0.04     0.01  -0.00   0.08    -0.12  -0.04  -0.05
    11   6    -0.05  -0.10   0.00    -0.00  -0.08  -0.10     0.02  -0.11   0.02
    12   6    -0.02  -0.01  -0.00     0.01  -0.09  -0.11    -0.01   0.19  -0.02
    13   6     0.10  -0.02   0.15    -0.04   0.02  -0.06     0.04  -0.04  -0.07
    14   6     0.11   0.01  -0.13     0.02   0.03  -0.00     0.02   0.02   0.08
    15   6     0.02   0.04   0.04     0.00   0.02  -0.02    -0.09  -0.05  -0.10
    16   6    -0.05  -0.02  -0.07    -0.02   0.04  -0.02    -0.03   0.03   0.13
    17   6    -0.14  -0.05   0.07     0.00   0.01   0.03    -0.06  -0.03   0.01
    18   6    -0.03  -0.01   0.02     0.01   0.02   0.04     0.08   0.01  -0.01
    19   8    -0.06   0.06  -0.06     0.02  -0.02  -0.00    -0.04   0.01  -0.03
    20   8    -0.04  -0.01  -0.01     0.01  -0.00  -0.01     0.10   0.01  -0.00
    21   1    -0.10   0.15   0.29    -0.00   0.13   0.30     0.04   0.13  -0.16
    22   1    -0.07  -0.08  -0.18     0.05   0.11   0.39     0.06  -0.16   0.05
    23   1    -0.12   0.15   0.09     0.14   0.12   0.37    -0.07   0.11  -0.10
    24   1    -0.06  -0.12   0.01    -0.06   0.08   0.36    -0.06  -0.16   0.11
    25   1     0.12  -0.03   0.16    -0.02  -0.03   0.09    -0.05  -0.18  -0.20
    26   1     0.08  -0.03  -0.14     0.01  -0.05   0.13    -0.01   0.22   0.15
    27   1     0.27  -0.28  -0.13    -0.01   0.05   0.07     0.16  -0.04   0.16
    28   1     0.15   0.28   0.10    -0.20  -0.03  -0.06    -0.09  -0.20  -0.05
    29   1     0.20   0.04   0.01     0.02   0.03   0.03     0.09   0.11  -0.04
    30   1     0.13  -0.05  -0.17     0.13   0.08  -0.00    -0.10   0.10   0.16
    31   1     0.01   0.09   0.09     0.13   0.04  -0.08     0.02  -0.17  -0.25
    32   1    -0.01   0.05  -0.00     0.06   0.03   0.05    -0.14  -0.19   0.07
    33   1    -0.08   0.00  -0.06    -0.14   0.02  -0.07     0.07   0.11   0.21
    34   1    -0.08  -0.00  -0.05    -0.07   0.03   0.07    -0.13   0.15   0.03
                     31                     32                     33
                      A                      A                      A
 Frequencies --    776.8236               786.9064               790.4700
 Red. masses --      1.9940                 1.5763                 2.1837
 Frc consts  --      0.7090                 0.5751                 0.8039
 IR Inten    --     20.9895                 1.4684                 8.9053
  Atom  AN      X      Y      Z        X      Y      Z        X      Y      Z
     1   6     0.01  -0.06   0.01     0.00  -0.00  -0.12    -0.06   0.03  -0.05
     2   6     0.02  -0.06  -0.01     0.02  -0.02   0.12    -0.06   0.02   0.03
     3   6     0.02  -0.01   0.01     0.01  -0.01   0.03    -0.03   0.02  -0.01
     4   6     0.00  -0.01  -0.00    -0.00  -0.00  -0.03    -0.03  -0.01   0.05
     5   6    -0.01  -0.01   0.01     0.01   0.01   0.01     0.02   0.01   0.09
     6   6     0.03  -0.02  -0.00     0.02  -0.01  -0.01    -0.04   0.03  -0.01
     7   6    -0.05  -0.02  -0.05     0.00   0.01   0.02     0.03  -0.00  -0.06
     8   6     0.02   0.03  -0.03     0.01   0.00  -0.03     0.02  -0.05  -0.02
     9   6     0.02   0.01  -0.06    -0.02   0.01   0.01     0.01  -0.03  -0.01
    10   6    -0.04   0.00  -0.03    -0.03  -0.01  -0.03     0.04   0.02  -0.05
    11   6    -0.02   0.09  -0.09     0.01   0.02   0.06    -0.00  -0.04   0.00
    12   6    -0.01   0.11  -0.05    -0.00   0.02  -0.08     0.01  -0.04  -0.04
    13   6     0.08   0.01   0.03     0.02  -0.02  -0.01    -0.05   0.02   0.09
    14   6    -0.06  -0.05   0.02    -0.01   0.01   0.02     0.02  -0.02  -0.09
    15   6    -0.06  -0.02   0.05    -0.00  -0.00   0.04     0.01  -0.02  -0.11
    16   6     0.08  -0.03   0.01     0.02  -0.01  -0.03    -0.07   0.02   0.10
    17   6    -0.01  -0.03  -0.02    -0.01  -0.00  -0.01     0.05   0.02  -0.02
    18   6    -0.01   0.00  -0.03    -0.02  -0.00  -0.00     0.04  -0.00  -0.01
    19   8    -0.01   0.03   0.01    -0.01   0.01  -0.00     0.03  -0.01   0.02
    20   8    -0.01   0.01   0.03    -0.02   0.00   0.01     0.06  -0.00  -0.01
    21   1    -0.04   0.07   0.39     0.02  -0.09  -0.35     0.01   0.11   0.32
    22   1     0.03   0.03   0.19     0.06   0.07   0.42     0.07   0.03   0.19
    23   1     0.14   0.11   0.38    -0.10  -0.07  -0.25     0.01  -0.02  -0.05
    24   1    -0.06   0.01   0.20    -0.09   0.05   0.37    -0.03   0.09   0.38
    25   1     0.08   0.25   0.47    -0.03  -0.10  -0.36    -0.03   0.01   0.24
    26   1     0.02   0.16   0.22     0.01   0.12   0.47    -0.09   0.02   0.38
    27   1     0.10  -0.01   0.05     0.02   0.00   0.03    -0.10  -0.06  -0.21
    28   1     0.12  -0.09   0.04     0.02  -0.06  -0.00     0.12   0.27   0.06
    29   1    -0.10  -0.06  -0.03    -0.01   0.01   0.01    -0.01  -0.07  -0.02
    30   1    -0.10  -0.03   0.04     0.00   0.01   0.02    -0.01  -0.15  -0.15
    31   1    -0.09  -0.08   0.03    -0.02   0.03   0.07    -0.06  -0.12  -0.14
    32   1    -0.08  -0.05   0.07    -0.00   0.02  -0.01    -0.02  -0.07  -0.07
    33   1     0.11  -0.10  -0.03     0.01  -0.07  -0.08    -0.03   0.20   0.24
    34   1     0.12  -0.07   0.03     0.05  -0.05   0.02    -0.09   0.12  -0.07
                     34                     35                     36
                      A                      A                      A
 Frequencies --    807.3994               840.7029               864.3062
 Red. masses --      2.7667                 3.7348                 3.2034
 Frc consts  --      1.0626                 1.5553                 1.4099
 IR Inten    --      8.8690                 1.5566                 1.6154
  Atom  AN      X      Y      Z        X      Y      Z        X      Y      Z
     1   6     0.05   0.06   0.06    -0.03   0.05  -0.14    -0.03   0.02   0.07
     2   6     0.03   0.06  -0.12     0.02  -0.01   0.14    -0.02  -0.02  -0.06
     3   6    -0.00   0.01   0.05    -0.05   0.08   0.17    -0.04   0.04  -0.04
     4   6     0.05   0.04   0.08    -0.00  -0.04  -0.13    -0.01  -0.04   0.01
     5   6     0.02   0.03  -0.02     0.06   0.07   0.13    -0.01   0.03  -0.03
     6   6    -0.04   0.02   0.15     0.03  -0.04  -0.10     0.00  -0.03   0.02
     7   6     0.01  -0.02  -0.01     0.06   0.00  -0.07     0.06   0.03  -0.01
     8   6    -0.03  -0.03  -0.09     0.05  -0.01   0.05     0.05  -0.01  -0.01
     9   6    -0.04  -0.01  -0.03    -0.07  -0.04  -0.07    -0.03  -0.00   0.05
    10   6     0.01  -0.03  -0.06    -0.05  -0.00   0.06    -0.04   0.00  -0.02
    11   6     0.00  -0.06  -0.02     0.02  -0.14   0.02     0.01  -0.14   0.04
    12   6     0.00  -0.09   0.00    -0.01   0.07  -0.01    -0.01   0.13  -0.03
    13   6    -0.07  -0.08  -0.07    -0.04  -0.04  -0.14    -0.09   0.10   0.05
    14   6     0.08   0.08   0.07     0.00   0.04   0.12    -0.07  -0.12  -0.06
    15   6     0.10   0.02   0.06     0.06   0.06  -0.06     0.11   0.14   0.04
    16   6    -0.06  -0.01  -0.09     0.00  -0.05   0.04     0.11  -0.12  -0.07
    17   6    -0.01   0.02  -0.03     0.01   0.01  -0.02     0.06   0.01   0.01
    18   6    -0.03  -0.01  -0.01    -0.02  -0.01  -0.00    -0.06  -0.01   0.01
    19   8    -0.03  -0.02  -0.03    -0.01  -0.02  -0.01     0.05  -0.02   0.03
    20   8    -0.03  -0.02  -0.01    -0.02  -0.01  -0.01    -0.07  -0.01   0.00
    21   1    -0.02   0.04   0.08     0.00   0.11   0.12     0.01   0.13   0.12
    22   1     0.04   0.07   0.38     0.01  -0.09  -0.06     0.02  -0.07   0.01
    23   1     0.07   0.11   0.31     0.06   0.13   0.26    -0.06   0.01  -0.16
    24   1    -0.04   0.02   0.11     0.01  -0.07  -0.20    -0.00  -0.05   0.01
    25   1     0.08   0.03   0.29     0.06  -0.02   0.44    -0.05  -0.17  -0.05
    26   1     0.02  -0.01   0.45    -0.02   0.02  -0.27    -0.04   0.14   0.03
    27   1    -0.07  -0.07  -0.05    -0.10   0.11   0.09    -0.16   0.09  -0.10
    28   1    -0.02  -0.11  -0.06    -0.02  -0.31  -0.09    -0.10   0.28   0.03
    29   1     0.11   0.14  -0.02     0.03   0.10   0.02    -0.15  -0.16  -0.14
    30   1    -0.04   0.12   0.13     0.07   0.20   0.20    -0.18  -0.17  -0.07
    31   1     0.06   0.22   0.21     0.00  -0.05  -0.11     0.26   0.19  -0.00
    32   1     0.06   0.12  -0.15     0.10   0.05   0.02     0.25   0.21   0.13
    33   1     0.07  -0.06  -0.09    -0.04   0.12   0.15     0.23  -0.14  -0.06
    34   1    -0.03  -0.02  -0.12     0.02   0.01  -0.11     0.22  -0.16  -0.17
                     37                     38                     39
                      A                      A                      A
 Frequencies --    887.4171               898.9949               902.7139
 Red. masses --      1.4813                 1.5066                 2.3431
 Frc consts  --      0.6873                 0.7174                 1.1250
 IR Inten    --      1.3702                 7.7663                 7.4212
  Atom  AN      X      Y      Z        X      Y      Z        X      Y      Z
     1   6    -0.02  -0.01   0.01     0.03   0.00  -0.01    -0.01   0.01  -0.02
     2   6     0.02  -0.01   0.00     0.04   0.01   0.00     0.06   0.03   0.00
     3   6     0.00   0.01   0.01     0.00  -0.01  -0.03    -0.03   0.03   0.06
     4   6    -0.00   0.01  -0.01     0.01   0.01   0.03     0.05   0.01  -0.00
     5   6    -0.01  -0.02  -0.02     0.01   0.02   0.03     0.01   0.00   0.00
     6   6     0.01  -0.01  -0.01     0.01  -0.02  -0.03     0.02   0.01   0.03
     7   6     0.01  -0.02  -0.09    -0.01   0.01   0.06    -0.02  -0.08  -0.03
     8   6    -0.00  -0.02  -0.06    -0.02  -0.01  -0.10    -0.04   0.06  -0.00
     9   6     0.02   0.04   0.09    -0.02  -0.02  -0.05     0.01   0.04   0.03
    10   6    -0.02   0.01   0.06    -0.02   0.01   0.10    -0.01  -0.05  -0.01
    11   6    -0.02   0.01   0.00     0.02  -0.01  -0.00     0.03  -0.03   0.00
    12   6     0.01  -0.00   0.01     0.02   0.01  -0.00     0.03  -0.01  -0.00
    13   6     0.02  -0.06   0.02    -0.03   0.04   0.03    -0.01   0.18  -0.06
    14   6    -0.00   0.03   0.05    -0.01  -0.05  -0.02     0.03  -0.15  -0.01
    15   6    -0.01   0.01  -0.01    -0.03  -0.00  -0.02     0.01  -0.06  -0.02
    16   6     0.02   0.02  -0.02    -0.02   0.01   0.01    -0.06   0.08  -0.01
    17   6     0.01   0.02  -0.05     0.01  -0.00   0.00    -0.04  -0.07   0.06
    18   6     0.00  -0.01   0.03     0.01  -0.00   0.01     0.01  -0.00   0.01
    19   8    -0.02   0.00   0.00     0.01  -0.00   0.01     0.01  -0.00  -0.02
    20   8    -0.00   0.00  -0.00     0.01   0.00  -0.00     0.01  -0.00  -0.01
    21   1    -0.01   0.13   0.51     0.00  -0.08  -0.31    -0.02  -0.02   0.30
    22   1     0.05   0.06   0.36     0.06   0.11   0.55    -0.04   0.07  -0.05
    23   1    -0.16  -0.15  -0.50     0.09   0.09   0.30    -0.06  -0.01  -0.28
    24   1     0.05  -0.05  -0.39     0.08  -0.10  -0.55    -0.02  -0.05   0.10
    25   1    -0.06   0.00  -0.03     0.04  -0.01  -0.00     0.15  -0.00   0.03
    26   1     0.01  -0.01  -0.03     0.07   0.01  -0.01     0.19   0.01   0.06
    27   1     0.01  -0.10  -0.08    -0.05   0.03  -0.04    -0.02   0.30   0.21
    28   1     0.16  -0.06   0.02    -0.06   0.14   0.02    -0.24  -0.06  -0.04
    29   1     0.00   0.04   0.05    -0.07  -0.07  -0.11    -0.03  -0.07  -0.44
    30   1    -0.02   0.01   0.04    -0.13  -0.07  -0.00    -0.18   0.17   0.24
    31   1     0.06   0.02  -0.04    -0.04  -0.07  -0.07    -0.04   0.05   0.09
    32   1     0.03   0.01   0.04    -0.04  -0.05   0.03    -0.05  -0.03  -0.16
    33   1    -0.07  -0.03  -0.08    -0.09   0.07   0.04    -0.15   0.00  -0.09
    34   1    -0.01  -0.01   0.09    -0.07   0.04   0.01    -0.11   0.05   0.14
                     40                     41                     42
                      A                      A                      A
 Frequencies --    924.3589               963.2882               968.6620
 Red. masses --      2.4096                 1.9663                 2.2102
 Frc consts  --      1.2130                 1.0750                 1.2219
 IR Inten    --      2.4014                 3.6110                 0.0742
  Atom  AN      X      Y      Z        X      Y      Z        X      Y      Z
     1   6    -0.06  -0.03  -0.02    -0.03   0.00  -0.02     0.04  -0.02  -0.00
     2   6    -0.04   0.03   0.01    -0.02  -0.01  -0.03     0.08  -0.01   0.01
     3   6    -0.01  -0.00   0.01    -0.01   0.00   0.01     0.01  -0.02  -0.04
     4   6     0.02   0.02   0.04    -0.00   0.01   0.03     0.02  -0.01  -0.07
     5   6    -0.04  -0.02   0.01     0.02   0.03   0.06     0.01   0.02   0.03
     6   6    -0.04   0.01   0.00    -0.01   0.02   0.05     0.01   0.02   0.06
     7   6    -0.04  -0.02   0.00    -0.01   0.01   0.04     0.00   0.01  -0.03
     8   6    -0.04  -0.01  -0.02     0.04  -0.01   0.02    -0.04   0.06   0.02
     9   6     0.09  -0.06   0.01     0.04  -0.03   0.01    -0.01  -0.03  -0.04
    10   6     0.06   0.07   0.00    -0.03  -0.03   0.01     0.01  -0.04  -0.04
    11   6    -0.02   0.01   0.00    -0.01  -0.04  -0.05    -0.00   0.01   0.06
    12   6    -0.02  -0.03  -0.01     0.01  -0.03  -0.04     0.02  -0.00   0.02
    13   6     0.10   0.06  -0.03     0.03   0.00  -0.02    -0.03  -0.04   0.07
    14   6     0.10  -0.01  -0.02    -0.02   0.03  -0.04    -0.01  -0.06   0.10
    15   6    -0.05   0.15   0.03    -0.04   0.05  -0.09    -0.08   0.09  -0.04
    16   6    -0.04  -0.15  -0.04     0.07   0.10  -0.08    -0.05   0.02  -0.08
    17   6    -0.07  -0.06   0.04    -0.02  -0.02   0.04     0.04   0.05  -0.08
    18   6     0.02  -0.01   0.01     0.01  -0.10   0.11     0.03  -0.07   0.07
    19   8    -0.03   0.02  -0.03     0.02   0.01   0.00    -0.03  -0.01   0.00
    20   8     0.04   0.00  -0.01    -0.02   0.02  -0.01     0.02   0.02  -0.02
    21   1    -0.03  -0.03   0.00    -0.02  -0.05  -0.26    -0.02   0.08   0.14
    22   1    -0.01   0.02   0.14     0.02  -0.03  -0.16    -0.06   0.05  -0.12
    23   1     0.06  -0.11  -0.08     0.00  -0.08  -0.12     0.07   0.03   0.28
    24   1     0.05   0.09  -0.06    -0.01  -0.06  -0.11    -0.04   0.00   0.27
    25   1    -0.12   0.00   0.03    -0.02   0.08   0.41    -0.11  -0.11  -0.33
    26   1    -0.12  -0.02   0.07     0.02   0.03   0.32     0.18  -0.02  -0.11
    27   1     0.18   0.08   0.20     0.07   0.01   0.08    -0.11  -0.07  -0.17
    28   1    -0.04  -0.16  -0.00    -0.06  -0.04  -0.02     0.19   0.09   0.06
    29   1     0.12   0.05  -0.17    -0.01  -0.02   0.14    -0.02   0.02  -0.16
    30   1     0.05   0.18   0.11     0.12  -0.05  -0.13    -0.25   0.02   0.20
    31   1     0.19  -0.11  -0.29     0.22   0.01  -0.25     0.18  -0.07  -0.29
    32   1     0.09   0.02   0.42     0.01  -0.06   0.18    -0.05  -0.09   0.30
    33   1     0.16   0.14   0.23    -0.26  -0.10  -0.30    -0.21   0.06  -0.09
    34   1    -0.01  -0.01  -0.41     0.10  -0.10   0.31    -0.05  -0.02   0.00
                     43                     44                     45
                      A                      A                      A
 Frequencies --    971.9921               973.8296               983.9694
 Red. masses --      1.4577                 1.5458                 2.6470
 Frc consts  --      0.8114                 0.8637                 1.5100
 IR Inten    --      0.8281                 0.7288                 2.5889
  Atom  AN      X      Y      Z        X      Y      Z        X      Y      Z
     1   6     0.02   0.02  -0.02     0.04   0.03  -0.01     0.16  -0.00  -0.03
     2   6     0.03   0.02   0.02     0.05   0.04  -0.01     0.09  -0.01  -0.00
     3   6     0.01  -0.01  -0.02     0.02  -0.01  -0.00     0.03   0.03   0.08
     4   6     0.01  -0.01  -0.03     0.01  -0.01  -0.03     0.01   0.02   0.03
     5   6    -0.00  -0.00  -0.01    -0.00  -0.01  -0.03     0.04   0.01  -0.05
     6   6     0.01  -0.01   0.00     0.01  -0.01  -0.00     0.00  -0.01   0.02
     7   6    -0.01   0.01   0.07    -0.02  -0.02   0.01    -0.02  -0.04  -0.03
     8   6    -0.01   0.01  -0.01     0.01   0.02   0.08    -0.01  -0.01  -0.02
     9   6     0.02   0.02   0.06     0.01   0.01   0.02    -0.03   0.03   0.02
    10   6    -0.00  -0.02  -0.03    -0.02  -0.00   0.06    -0.01  -0.01  -0.03
    11   6    -0.01  -0.03  -0.10     0.00   0.01  -0.02     0.02  -0.02   0.00
    12   6     0.00   0.02   0.04     0.01  -0.01  -0.11     0.00   0.00   0.03
    13   6    -0.02  -0.02   0.04    -0.04  -0.02   0.02    -0.09  -0.01  -0.10
    14   6    -0.00  -0.03   0.05    -0.02  -0.02   0.03    -0.13   0.07  -0.09
    15   6    -0.01   0.01   0.02    -0.03   0.00   0.04    -0.13   0.04   0.05
    16   6    -0.04  -0.02  -0.00    -0.05  -0.05   0.01    -0.06  -0.05  -0.03
    17   6     0.02   0.03  -0.04     0.02   0.02  -0.03     0.00  -0.01   0.08
    18   6     0.01   0.01  -0.01     0.01   0.03  -0.03     0.03  -0.01   0.01
    19   8    -0.01  -0.00   0.00    -0.00  -0.01   0.01     0.07  -0.01   0.02
    20   8     0.01  -0.00  -0.00     0.02  -0.00   0.00     0.04   0.01  -0.00
    21   1    -0.01  -0.09  -0.40    -0.02  -0.03  -0.03    -0.05   0.04   0.21
    22   1    -0.00   0.02   0.11    -0.07  -0.09  -0.47     0.00  -0.00   0.13
    23   1    -0.11  -0.12  -0.40    -0.03  -0.04  -0.12    -0.07  -0.01  -0.11
    24   1    -0.03   0.01   0.22     0.04  -0.07  -0.40    -0.05   0.04   0.17
    25   1     0.09   0.17   0.57     0.06   0.04   0.06     0.18   0.00  -0.02
    26   1     0.05  -0.03  -0.30     0.03   0.12   0.64     0.04  -0.03  -0.16
    27   1    -0.07  -0.03  -0.09    -0.09  -0.02  -0.08    -0.08   0.05   0.04
    28   1     0.09   0.07   0.03     0.04   0.05   0.01    -0.29   0.02  -0.11
    29   1    -0.00   0.01  -0.09    -0.02   0.00  -0.02    -0.17  -0.11   0.36
    30   1    -0.13   0.01   0.10    -0.08  -0.01   0.05     0.19  -0.22  -0.34
    31   1    -0.01  -0.01   0.00    -0.06  -0.05   0.02    -0.04  -0.16  -0.14
    32   1    -0.01   0.00   0.04    -0.03  -0.00   0.05    -0.12  -0.09   0.28
    33   1     0.03   0.04   0.06     0.06   0.08   0.13    -0.00   0.08   0.08
    34   1    -0.05   0.03  -0.09    -0.09   0.05  -0.15    -0.09   0.03  -0.16
                     46                     47                     48
                      A                      A                      A
 Frequencies --   1007.7453              1013.7045              1121.3552
 Red. masses --      6.0766                 3.7482                 2.1907
 Frc consts  --      3.6359                 2.2693                 1.6230
 IR Inten    --      1.7621                 0.4251                 1.8235
  Atom  AN      X      Y      Z        X      Y      Z        X      Y      Z
     1   6    -0.02   0.30  -0.01     0.17   0.02  -0.02    -0.00  -0.08   0.01
     2   6    -0.02   0.30   0.00    -0.19  -0.01   0.01    -0.00   0.05  -0.01
     3   6     0.03  -0.02  -0.02     0.10   0.02   0.04    -0.02  -0.03  -0.00
     4   6    -0.04  -0.02  -0.01    -0.12  -0.02   0.03    -0.02   0.05   0.01
     5   6    -0.02  -0.02  -0.01     0.10   0.01  -0.07     0.02  -0.05  -0.01
     6   6     0.02  -0.02  -0.01    -0.12  -0.00  -0.05     0.01   0.06   0.01
     7   6    -0.19  -0.17   0.02    -0.02  -0.02  -0.00     0.11   0.03  -0.00
     8   6     0.22  -0.14  -0.01     0.01  -0.02   0.00     0.14  -0.01  -0.01
     9   6     0.21  -0.12  -0.04    -0.03   0.03   0.01    -0.12   0.02   0.03
    10   6    -0.20  -0.15  -0.02     0.04   0.03   0.01    -0.14  -0.02  -0.01
    11   6    -0.00   0.07   0.05     0.01  -0.01  -0.00    -0.01   0.05  -0.03
    12   6    -0.00   0.07   0.05    -0.01   0.00  -0.01     0.00  -0.09   0.04
    13   6    -0.00  -0.01   0.01    -0.15   0.02  -0.02    -0.00   0.04   0.01
    14   6    -0.00   0.00   0.01     0.19  -0.03   0.02     0.00  -0.02   0.01
    15   6    -0.02  -0.00   0.01    -0.14  -0.02   0.04     0.00   0.04   0.01
    16   6     0.02  -0.00   0.00     0.16   0.01   0.01     0.00  -0.03  -0.01
    17   6     0.01  -0.00  -0.01     0.01   0.02  -0.04     0.00  -0.03  -0.02
    18   6    -0.00  -0.00   0.00     0.00  -0.02   0.05     0.00  -0.00  -0.01
    19   8    -0.00  -0.00   0.00    -0.02  -0.02  -0.02    -0.02   0.01  -0.01
    20   8    -0.00   0.00   0.00    -0.00   0.02   0.01     0.02   0.00  -0.00
    21   1    -0.16  -0.19   0.18    -0.07   0.05   0.03     0.25  -0.14   0.02
    22   1     0.22  -0.17   0.12     0.06   0.07  -0.03     0.29   0.26  -0.09
    23   1     0.24  -0.15   0.11    -0.07  -0.05   0.00    -0.20  -0.18   0.11
    24   1    -0.19  -0.19   0.13     0.10  -0.06   0.00    -0.30   0.23  -0.08
    25   1    -0.04  -0.03  -0.29     0.21   0.02  -0.02     0.06   0.08  -0.01
    26   1    -0.02   0.00  -0.27    -0.20   0.00   0.02     0.00  -0.11   0.01
    27   1    -0.05   0.01  -0.04    -0.21   0.03  -0.12    -0.07   0.08  -0.02
    28   1    -0.02   0.02   0.00    -0.11   0.14  -0.03     0.05  -0.01   0.02
    29   1     0.04   0.04   0.00     0.19   0.08  -0.36    -0.13  -0.12  -0.06
    30   1     0.04   0.01   0.00     0.00   0.25   0.23     0.21   0.16   0.07
    31   1     0.02  -0.01  -0.02    -0.14  -0.17  -0.07    -0.22  -0.17  -0.01
    32   1     0.03   0.03   0.01    -0.12  -0.09   0.18     0.15   0.13   0.05
    33   1    -0.01  -0.02  -0.02     0.15  -0.17  -0.12    -0.27   0.15   0.07
    34   1    -0.03   0.03   0.02     0.18  -0.08   0.19     0.17  -0.12  -0.08
                     49                     50                     51
                      A                      A                      A
 Frequencies --   1136.0506              1144.4779              1155.6902
 Red. masses --      1.7622                 1.7455                 1.3813
 Frc consts  --      1.3400                 1.3471                 1.0870
 IR Inten    --     12.1588                 4.8992                 4.0711
  Atom  AN      X      Y      Z        X      Y      Z        X      Y      Z
     1   6     0.02  -0.04   0.00    -0.02   0.03   0.00     0.02  -0.01  -0.01
     2   6     0.03  -0.06  -0.00     0.04   0.03  -0.00    -0.00   0.02   0.01
     3   6    -0.01   0.03  -0.03    -0.01  -0.00  -0.02     0.03  -0.08   0.03
     4   6     0.01   0.07   0.01     0.01   0.06   0.00     0.00   0.01  -0.00
     5   6     0.01   0.05  -0.01     0.02  -0.04   0.02     0.00   0.07   0.00
     6   6     0.01  -0.02  -0.01     0.02  -0.09   0.02     0.02  -0.02  -0.02
     7   6    -0.09   0.02   0.01     0.04  -0.01   0.01     0.07   0.02  -0.01
     8   6     0.05  -0.01   0.00    -0.02  -0.05   0.01     0.02  -0.00  -0.00
     9   6     0.08   0.02  -0.02    -0.06  -0.01   0.01    -0.02  -0.05   0.02
    10   6    -0.03   0.03  -0.01     0.06   0.02  -0.01    -0.02   0.01   0.00
    11   6     0.02  -0.08   0.04     0.01   0.04  -0.02    -0.02   0.04  -0.02
    12   6    -0.01  -0.05   0.02    -0.02   0.04  -0.02     0.00  -0.01   0.01
    13   6    -0.02   0.04   0.05    -0.01   0.04   0.02    -0.00   0.00  -0.02
    14   6    -0.01   0.02   0.04    -0.02   0.01   0.02     0.00  -0.02  -0.01
    15   6    -0.00  -0.01   0.02    -0.02  -0.03  -0.06    -0.01  -0.00   0.00
    16   6    -0.02   0.01   0.03    -0.01  -0.01  -0.06    -0.02   0.02   0.04
    17   6     0.02  -0.08  -0.07     0.01  -0.04  -0.04    -0.01   0.02   0.02
    18   6    -0.00  -0.01  -0.04     0.01   0.02   0.12    -0.00  -0.01  -0.05
    19   8    -0.02   0.01  -0.00    -0.02   0.01  -0.00    -0.00  -0.00  -0.00
    20   8    -0.01  -0.00   0.01    -0.01  -0.00  -0.02    -0.03  -0.00   0.01
    21   1    -0.27   0.23  -0.08     0.14  -0.14   0.02     0.17  -0.09   0.07
    22   1     0.11   0.09  -0.05    -0.12  -0.25   0.03     0.06   0.07  -0.02
    23   1     0.17   0.27  -0.14    -0.11  -0.16   0.12    -0.11  -0.28   0.09
    24   1    -0.14   0.20  -0.05     0.11  -0.06   0.08    -0.08   0.12  -0.05
    25   1     0.01  -0.10   0.01     0.15   0.06  -0.04    -0.34   0.02   0.06
    26   1    -0.15  -0.07   0.01    -0.31   0.04  -0.01    -0.05  -0.02  -0.01
    27   1    -0.09   0.04  -0.07    -0.08   0.07  -0.04    -0.10   0.08   0.00
    28   1     0.15  -0.01   0.06     0.08  -0.01   0.03    -0.06   0.01  -0.02
    29   1    -0.29  -0.22   0.01    -0.22  -0.16   0.01     0.02   0.00  -0.04
    30   1     0.42   0.29   0.09     0.31   0.22   0.06    -0.05  -0.02   0.00
    31   1     0.19   0.13   0.02    -0.11  -0.06  -0.04     0.45   0.34  -0.00
    32   1    -0.18  -0.14  -0.00     0.15   0.09  -0.02    -0.32  -0.27   0.02
    33   1     0.09  -0.05  -0.00     0.35  -0.18  -0.10     0.30  -0.17  -0.03
    34   1    -0.04   0.03   0.01    -0.35   0.19   0.03    -0.16   0.12   0.03
                     52                     53                     54
                      A                      A                      A
 Frequencies --   1172.3652              1190.0688              1194.1015
 Red. masses --      1.3857                 1.2395                 1.1973
 Frc consts  --      1.1221                 1.0343                 1.0058
 IR Inten    --     21.4474                 9.3617                 1.6806
  Atom  AN      X      Y      Z        X      Y      Z        X      Y      Z
     1   6    -0.02  -0.02  -0.00    -0.02   0.00   0.00    -0.00   0.00   0.00
     2   6     0.01  -0.01   0.01    -0.01  -0.01   0.00    -0.02  -0.00  -0.00
     3   6    -0.02   0.04   0.00    -0.04   0.06  -0.02    -0.00  -0.01  -0.00
     4   6     0.00   0.01  -0.02    -0.01  -0.01   0.00    -0.02  -0.04   0.02
     5   6     0.01  -0.02   0.02    -0.01  -0.03   0.02     0.01   0.00   0.00
     6   6    -0.00  -0.02  -0.00    -0.00   0.01  -0.01    -0.02   0.03  -0.02
     7   6    -0.03  -0.01   0.00    -0.03   0.01  -0.00     0.00   0.00   0.00
     8   6     0.05   0.04  -0.00    -0.01  -0.00   0.00    -0.03  -0.03   0.01
     9   6     0.01   0.02  -0.01    -0.03  -0.04   0.02     0.00   0.01  -0.00
    10   6    -0.04   0.04  -0.01    -0.00   0.00   0.00    -0.04   0.04  -0.01
    11   6     0.01  -0.02   0.01     0.05   0.01  -0.01    -0.00  -0.00   0.00
    12   6    -0.01  -0.05   0.02     0.01   0.00   0.00     0.06   0.00   0.00
    13   6     0.01  -0.03  -0.01     0.01   0.00   0.01    -0.00   0.01   0.00
    14   6     0.01  -0.02   0.00     0.01   0.01   0.00     0.01   0.01  -0.01
    15   6    -0.01  -0.03  -0.04    -0.00   0.02   0.00    -0.01  -0.02  -0.02
    16   6    -0.00  -0.03  -0.03    -0.01   0.02   0.03     0.01  -0.02  -0.00
    17   6    -0.00   0.04   0.02     0.01  -0.01  -0.02     0.00  -0.02  -0.01
    18   6     0.01   0.02   0.09    -0.00  -0.02  -0.05     0.00   0.02   0.05
    19   8     0.01  -0.01   0.00     0.00   0.00   0.00    -0.00   0.00  -0.00
    20   8    -0.01  -0.00  -0.01    -0.00   0.00   0.01    -0.00  -0.00  -0.01
    21   1    -0.09   0.06  -0.03    -0.09   0.08  -0.01     0.01  -0.01  -0.00
    22   1     0.21   0.34  -0.11    -0.03  -0.04   0.01    -0.15  -0.27   0.05
    23   1     0.05   0.12  -0.02    -0.17  -0.40   0.15     0.02   0.06  -0.01
    24   1    -0.22   0.32  -0.07    -0.01   0.02  -0.01    -0.21   0.32  -0.06
    25   1     0.17  -0.00  -0.02     0.74   0.08  -0.13    -0.08  -0.01   0.01
    26   1    -0.12  -0.06   0.00     0.14   0.01  -0.00     0.79   0.03   0.01
    27   1     0.19  -0.14   0.05     0.14  -0.10   0.02    -0.06   0.04  -0.02
    28   1    -0.08   0.03  -0.02     0.02  -0.00   0.01     0.05  -0.02   0.01
    29   1     0.13   0.10  -0.03     0.02   0.02   0.02     0.03   0.02   0.03
    30   1    -0.36  -0.25  -0.04     0.00   0.00  -0.00     0.13   0.09   0.01
    31   1    -0.06  -0.03  -0.02     0.27   0.20  -0.02    -0.05  -0.03  -0.00
    32   1     0.08   0.04  -0.03    -0.08  -0.07   0.04     0.03   0.01  -0.01
    33   1     0.39  -0.20  -0.06     0.02  -0.02   0.01     0.22  -0.12  -0.02
    34   1    -0.24   0.13  -0.01     0.04  -0.01   0.01    -0.03   0.02  -0.03
                     55                     56                     57
                      A                      A                      A
 Frequencies --   1220.3241              1232.7969              1237.2245
 Red. masses --      1.3991                 2.6182                 2.3576
 Frc consts  --      1.2276                 2.3444                 2.1263
 IR Inten    --      8.1050                 1.8083                 5.8512
  Atom  AN      X      Y      Z        X      Y      Z        X      Y      Z
     1   6     0.03   0.01  -0.00    -0.01   0.05  -0.02    -0.02   0.03   0.01
     2   6     0.02  -0.01   0.00    -0.01  -0.07   0.02     0.00   0.02   0.01
     3   6    -0.09   0.08  -0.01     0.16  -0.00   0.06    -0.08   0.01  -0.04
     4   6    -0.03  -0.00  -0.00     0.13   0.09  -0.05     0.16   0.07  -0.05
     5   6     0.04   0.01  -0.02    -0.13  -0.07   0.08     0.08   0.07  -0.06
     6   6    -0.01   0.00  -0.01    -0.13   0.02  -0.04    -0.15   0.08  -0.06
     7   6     0.00  -0.05   0.01    -0.00  -0.04   0.00     0.00   0.00   0.00
     8   6    -0.01  -0.01   0.01     0.01   0.01   0.00     0.01   0.01  -0.00
     9   6    -0.01   0.02  -0.00     0.01  -0.03   0.00     0.01  -0.01  -0.00
    10   6    -0.00   0.00  -0.00     0.00   0.04  -0.00    -0.01  -0.01   0.00
    11   6    -0.01  -0.03   0.01    -0.02   0.08  -0.02     0.01  -0.04   0.01
    12   6     0.01   0.00  -0.00     0.01  -0.08   0.01    -0.01  -0.08   0.01
    13   6     0.01   0.02   0.02    -0.05  -0.02  -0.02     0.02   0.00   0.01
    14   6     0.02   0.03   0.03    -0.02  -0.02   0.04    -0.06  -0.02   0.02
    15   6    -0.01   0.01   0.02     0.03   0.01  -0.03    -0.01  -0.03   0.01
    16   6    -0.00   0.01   0.01     0.04   0.01   0.03     0.03  -0.03   0.02
    17   6     0.03  -0.01  -0.07     0.02   0.04  -0.01    -0.02   0.01   0.04
    18   6    -0.00  -0.01  -0.02    -0.01  -0.02  -0.03     0.00   0.07   0.08
    19   8    -0.01   0.00   0.00    -0.02  -0.01  -0.01     0.01  -0.00   0.00
    20   8    -0.00   0.00   0.00     0.01   0.00   0.00     0.00  -0.01  -0.01
    21   1     0.34  -0.49   0.10    -0.03   0.02   0.00     0.03  -0.05   0.01
    22   1    -0.01  -0.02  -0.02    -0.10  -0.22   0.03    -0.06  -0.14   0.05
    23   1     0.03   0.11  -0.02     0.04   0.08  -0.03    -0.07  -0.24   0.08
    24   1     0.03  -0.05   0.02    -0.02   0.07   0.00     0.13  -0.25   0.05
    25   1    -0.19  -0.05   0.05     0.02   0.09  -0.03    -0.01  -0.05   0.01
    26   1     0.04   0.00  -0.00     0.04  -0.08   0.02    -0.01  -0.09   0.01
    27   1     0.50  -0.35   0.09     0.09  -0.12   0.00    -0.02   0.03   0.00
    28   1    -0.27   0.21  -0.02    -0.45   0.32  -0.09     0.33  -0.24   0.06
    29   1    -0.10  -0.06  -0.02    -0.39  -0.30  -0.10    -0.14  -0.10   0.02
    30   1     0.02   0.00   0.02    -0.03  -0.03   0.03    -0.16  -0.12  -0.02
    31   1     0.06   0.03  -0.01     0.14   0.11  -0.02    -0.15  -0.12   0.02
    32   1    -0.09  -0.07   0.03     0.25   0.19  -0.03    -0.29  -0.23  -0.05
    33   1     0.02  -0.01   0.00     0.05  -0.04   0.00     0.21  -0.12  -0.01
    34   1     0.03  -0.01   0.01     0.17  -0.09   0.04     0.39  -0.22  -0.10
                     58                     59                     60
                      A                      A                      A
 Frequencies --   1242.1144              1255.5436              1261.7229
 Red. masses --      1.7426                 2.0597                 2.6525
 Frc consts  --      1.5841                 1.9130                 2.4879
 IR Inten    --     10.9596                 7.6308                11.1026
  Atom  AN      X      Y      Z        X      Y      Z        X      Y      Z
     1   6     0.09  -0.00  -0.02    -0.03   0.04  -0.00    -0.04   0.22   0.01
     2   6     0.08   0.02   0.01     0.01  -0.07  -0.01    -0.02  -0.21  -0.00
     3   6    -0.01   0.00  -0.02     0.04  -0.04   0.04     0.03   0.06  -0.04
     4   6    -0.03  -0.06   0.03    -0.02  -0.06   0.01     0.06  -0.05  -0.00
     5   6    -0.09  -0.07   0.08    -0.04   0.05   0.01     0.02   0.02  -0.03
     6   6    -0.09   0.06  -0.05     0.04   0.02   0.02    -0.01  -0.03   0.01
     7   6    -0.02   0.00   0.00    -0.00   0.01  -0.01     0.01  -0.08   0.02
     8   6    -0.03   0.02   0.00    -0.01   0.03  -0.00    -0.02   0.08  -0.01
     9   6    -0.03  -0.01   0.01     0.02  -0.04   0.00     0.03  -0.02  -0.01
    10   6    -0.03  -0.01  -0.00     0.00  -0.02   0.00     0.03   0.04   0.00
    11   6     0.01   0.03  -0.01     0.02   0.02  -0.01    -0.02   0.00   0.00
    12   6     0.01  -0.01   0.00    -0.03   0.01  -0.00    -0.02  -0.02   0.00
    13   6    -0.01   0.02   0.01     0.02   0.01   0.02    -0.04   0.04   0.01
    14   6    -0.02   0.01  -0.02    -0.01   0.03   0.02    -0.03   0.02   0.01
    15   6     0.01   0.00  -0.04     0.02  -0.04  -0.04    -0.02   0.01   0.03
    16   6     0.00  -0.01   0.02    -0.02  -0.05  -0.05    -0.00   0.02   0.01
    17   6    -0.00  -0.05  -0.01     0.03  -0.08  -0.08    -0.00  -0.09  -0.02
    18   6    -0.00   0.01   0.02     0.00   0.16   0.13     0.00  -0.07  -0.05
    19   8     0.01   0.00   0.01    -0.01   0.01   0.01     0.02   0.01   0.01
    20   8     0.01  -0.00  -0.00     0.00  -0.03  -0.02     0.01   0.01   0.01
    21   1     0.14  -0.19   0.05    -0.09   0.13   0.01     0.21  -0.35   0.06
    22   1     0.15   0.37  -0.06     0.09   0.23  -0.03     0.10   0.32  -0.05
    23   1     0.08   0.32  -0.12    -0.06  -0.24   0.06    -0.06  -0.28   0.13
    24   1     0.18  -0.37   0.07     0.01  -0.03  -0.02    -0.13   0.31  -0.08
    25   1     0.02   0.04  -0.02    -0.01   0.02   0.00    -0.11  -0.01   0.00
    26   1     0.02  -0.01   0.00    -0.01   0.02   0.00    -0.03  -0.02   0.01
    27   1    -0.16   0.12  -0.04    -0.02   0.03  -0.02    -0.24   0.17  -0.06
    28   1     0.21  -0.13   0.04    -0.49   0.36  -0.06     0.25  -0.15   0.05
    29   1     0.19   0.16   0.10     0.12   0.12   0.09     0.13   0.13   0.13
    30   1     0.12   0.08  -0.01     0.13   0.08   0.02    -0.00  -0.02  -0.02
    31   1     0.24   0.17  -0.04    -0.05  -0.02   0.01    -0.12  -0.07   0.02
    32   1     0.10   0.07  -0.03    -0.26  -0.22  -0.14     0.20   0.17   0.08
    33   1     0.27  -0.13  -0.01    -0.10   0.05   0.01    -0.04   0.01  -0.01
    34   1     0.13  -0.07  -0.02     0.29  -0.19  -0.21    -0.05   0.04   0.05
                     61                     62                     63
                      A                      A                      A
 Frequencies --   1278.2238              1291.5590              1297.8534
 Red. masses --      1.9477                 2.3631                 2.5767
 Frc consts  --      1.8750                 2.3225                 2.5572
 IR Inten    --     42.6757                 7.9650                 4.6675
  Atom  AN      X      Y      Z        X      Y      Z        X      Y      Z
     1   6     0.03   0.04  -0.01     0.01   0.08   0.00     0.14   0.04  -0.02
     2   6    -0.02  -0.07  -0.01     0.13  -0.07  -0.01     0.02  -0.01   0.00
     3   6     0.03   0.04  -0.02    -0.06  -0.07   0.01    -0.08  -0.07  -0.01
     4   6    -0.05  -0.00   0.02    -0.08  -0.02   0.05    -0.02   0.07  -0.03
     5   6    -0.04  -0.03   0.04    -0.05   0.08  -0.02    -0.11   0.05   0.02
     6   6     0.05  -0.04   0.03    -0.05  -0.02  -0.02    -0.09  -0.08   0.01
     7   6    -0.02  -0.03   0.01    -0.02   0.03  -0.02    -0.05   0.06  -0.02
     8   6     0.00  -0.00  -0.00    -0.05  -0.04   0.01    -0.00  -0.02   0.01
     9   6    -0.01  -0.02   0.00     0.02  -0.04   0.01    -0.03  -0.08   0.04
    10   6     0.01   0.00  -0.00    -0.04   0.06  -0.02     0.01   0.05  -0.01
    11   6    -0.01   0.02  -0.00     0.04  -0.01  -0.00     0.08   0.01  -0.01
    12   6     0.00   0.02  -0.00     0.05   0.01  -0.00     0.04  -0.01   0.00
    13   6    -0.05  -0.01  -0.03     0.06  -0.06  -0.00     0.04   0.02   0.02
    14   6     0.04  -0.03  -0.03     0.02  -0.04  -0.04     0.05   0.05   0.02
    15   6    -0.01  -0.04  -0.04     0.06   0.04   0.01     0.08   0.03  -0.01
    16   6     0.00  -0.04  -0.04    -0.00   0.02   0.02     0.12  -0.05  -0.03
    17   6    -0.02   0.13   0.09    -0.00   0.15   0.06    -0.02  -0.09  -0.01
    18   6    -0.00   0.13   0.06     0.00  -0.07  -0.01    -0.01   0.02   0.00
    19   8     0.01  -0.02  -0.01    -0.02  -0.01  -0.02     0.00   0.02   0.00
    20   8     0.00  -0.02  -0.01    -0.01   0.01   0.00    -0.03  -0.01   0.00
    21   1     0.13  -0.23   0.04    -0.08   0.12   0.03     0.10  -0.11   0.12
    22   1     0.00   0.00  -0.01     0.16   0.38  -0.12    -0.08  -0.18  -0.02
    23   1     0.04   0.11  -0.03    -0.07  -0.25   0.03     0.01   0.05  -0.11
    24   1    -0.10   0.18  -0.04     0.08  -0.15   0.07    -0.11   0.24   0.02
    25   1     0.04   0.02  -0.01    -0.03  -0.01   0.01     0.04   0.01  -0.01
    26   1    -0.03   0.03   0.00     0.08   0.01   0.00    -0.07  -0.02   0.00
    27   1     0.11  -0.12   0.03     0.10  -0.08   0.04    -0.13   0.13  -0.04
    28   1     0.42  -0.31   0.04    -0.09   0.03  -0.03     0.00  -0.05   0.03
    29   1    -0.25  -0.23  -0.19    -0.22  -0.20  -0.22     0.02   0.01   0.08
    30   1     0.10   0.04  -0.01     0.33   0.20   0.03    -0.40  -0.24  -0.04
    31   1     0.25   0.19  -0.01    -0.38  -0.27   0.02    -0.14  -0.11   0.00
    32   1    -0.14  -0.12  -0.09     0.01   0.01   0.00    -0.18  -0.14  -0.09
    33   1    -0.31   0.16   0.04     0.13  -0.10  -0.04    -0.39   0.24   0.07
    34   1     0.17  -0.11  -0.14    -0.00   0.01   0.04    -0.27   0.16   0.14
                     64                     65                     66
                      A                      A                      A
 Frequencies --   1311.4797              1315.2894              1318.4701
 Red. masses --      1.8402                 2.0776                 2.7489
 Frc consts  --      1.8648                 2.1177                 2.8155
 IR Inten    --      0.5434                14.9283                23.3916
  Atom  AN      X      Y      Z        X      Y      Z        X      Y      Z
     1   6     0.04   0.04   0.00    -0.07  -0.01   0.01    -0.12  -0.04   0.01
     2   6     0.01  -0.03  -0.00     0.08   0.02   0.00     0.13   0.00  -0.00
     3   6    -0.08  -0.07  -0.00    -0.00   0.01   0.00     0.11   0.05   0.00
     4   6    -0.05   0.02  -0.01     0.01   0.01   0.01    -0.12   0.01  -0.01
     5   6     0.04   0.05   0.00     0.07   0.03  -0.01     0.02  -0.05  -0.01
     6   6     0.03  -0.01  -0.00    -0.10   0.01   0.00    -0.02  -0.03  -0.01
     7   6    -0.01   0.04  -0.01     0.03  -0.02   0.01     0.06  -0.07   0.03
     8   6     0.01  -0.02   0.01    -0.03  -0.03   0.01    -0.03  -0.07   0.03
     9   6    -0.02  -0.02   0.01     0.02   0.04  -0.02     0.03   0.06  -0.03
    10   6    -0.01  -0.00   0.00    -0.03   0.05  -0.02    -0.04   0.05  -0.02
    11   6     0.04  -0.01  -0.00    -0.02  -0.02   0.01    -0.06   0.01   0.01
    12   6     0.01   0.01   0.00     0.03  -0.02   0.00     0.05   0.01   0.00
    13   6     0.07  -0.01   0.01     0.01  -0.01  -0.00    -0.07   0.06  -0.02
    14   6     0.08   0.06   0.02    -0.03  -0.03  -0.01     0.14   0.13   0.03
    15   6    -0.12  -0.09  -0.01    -0.09  -0.10  -0.00     0.04   0.04   0.01
    16   6    -0.07   0.03   0.02     0.14  -0.10  -0.03    -0.01   0.01   0.01
    17   6    -0.02  -0.03   0.01     0.01   0.02  -0.00    -0.03  -0.10  -0.00
    18   6     0.01   0.02  -0.00    -0.01   0.07  -0.02    -0.00  -0.01   0.00
    19   8    -0.01   0.01  -0.01    -0.00  -0.00   0.00     0.01   0.01  -0.00
    20   8     0.04   0.00  -0.00    -0.01  -0.01   0.01    -0.01  -0.00  -0.00
    21   1    -0.03   0.08   0.03    -0.09   0.12  -0.05    -0.11   0.12  -0.11
    22   1    -0.02  -0.08  -0.02     0.08   0.18  -0.05     0.07   0.15  -0.12
    23   1    -0.00   0.02   0.00    -0.04  -0.14   0.10    -0.04  -0.14   0.09
    24   1     0.00  -0.02  -0.01     0.08  -0.14   0.09     0.10  -0.19   0.08
    25   1    -0.05  -0.02   0.02    -0.08  -0.03   0.02    -0.07   0.01  -0.00
    26   1    -0.04   0.00  -0.01     0.10  -0.01   0.01     0.09   0.02  -0.01
    27   1    -0.13   0.13  -0.02     0.01  -0.01   0.01    -0.06   0.05  -0.03
    28   1    -0.09   0.02   0.00    -0.07   0.07  -0.02     0.15  -0.13   0.02
    29   1    -0.23  -0.19  -0.06     0.09   0.07   0.01    -0.33  -0.26  -0.02
    30   1    -0.26  -0.21  -0.05     0.11   0.09   0.02    -0.42  -0.37  -0.12
    31   1     0.17   0.24   0.08     0.29   0.31   0.09    -0.04  -0.09  -0.04
    32   1     0.50   0.36   0.10     0.22   0.16   0.02    -0.25  -0.18  -0.02
    33   1     0.04  -0.08  -0.04    -0.36   0.31   0.17     0.03  -0.03  -0.02
    34   1     0.32  -0.17  -0.15    -0.37   0.20   0.12     0.07  -0.04  -0.00
                     67                     68                     69
                      A                      A                      A
 Frequencies --   1338.6558              1352.2561              1433.7296
 Red. masses --      2.1307                 1.7963                 1.1679
 Frc consts  --      2.2497                 1.9353                 1.4144
 IR Inten    --      2.8019                 3.0752                 4.2344
  Atom  AN      X      Y      Z        X      Y      Z        X      Y      Z
     1   6     0.03   0.00  -0.00     0.02  -0.04  -0.01     0.01  -0.04   0.00
     2   6    -0.09  -0.01   0.00     0.01   0.02   0.00     0.00   0.00   0.00
     3   6    -0.01  -0.03   0.00     0.05  -0.08   0.02     0.02   0.03  -0.01
     4   6     0.06  -0.13  -0.01    -0.00   0.01  -0.00    -0.01   0.01  -0.00
     5   6    -0.03   0.03   0.00    -0.07   0.10   0.01    -0.04   0.04   0.00
     6   6     0.05   0.16   0.00     0.00  -0.02  -0.00     0.01   0.01   0.00
     7   6    -0.01   0.02  -0.01    -0.02   0.02  -0.00    -0.03   0.01  -0.00
     8   6     0.03   0.07  -0.02    -0.01  -0.01   0.00     0.01  -0.00  -0.00
     9   6     0.00  -0.02   0.01     0.01  -0.03   0.01     0.02  -0.00  -0.00
    10   6     0.02  -0.07   0.02    -0.01   0.01  -0.00    -0.01   0.00  -0.00
    11   6     0.02   0.00  -0.00     0.05   0.01  -0.01     0.01  -0.02   0.00
    12   6    -0.10  -0.01   0.00     0.01   0.00  -0.00     0.00  -0.01   0.00
    13   6    -0.01   0.02  -0.00    -0.14   0.12  -0.02    -0.03  -0.06  -0.04
    14   6     0.06   0.08   0.03    -0.02  -0.00   0.00     0.01   0.00   0.00
    15   6     0.01  -0.01  -0.00    -0.01  -0.04  -0.01     0.00  -0.01  -0.01
    16   6     0.05  -0.06  -0.03    -0.01   0.01   0.00    -0.00  -0.00  -0.00
    17   6    -0.01  -0.01   0.01     0.02  -0.03  -0.04    -0.00  -0.01  -0.01
    18   6    -0.00  -0.01   0.00     0.00  -0.00   0.00    -0.00  -0.00   0.00
    19   8    -0.01   0.00  -0.01     0.03  -0.01   0.02    -0.00   0.00  -0.00
    20   8    -0.02   0.00   0.00     0.01   0.00  -0.00     0.00   0.00  -0.00
    21   1    -0.02   0.03   0.01    -0.11   0.14  -0.02     0.05  -0.10   0.04
    22   1     0.07   0.15   0.02    -0.00  -0.01  -0.00    -0.01  -0.04   0.01
    23   1    -0.02  -0.05   0.00    -0.08  -0.24   0.05    -0.02  -0.11   0.03
    24   1     0.10  -0.21  -0.02     0.00  -0.01   0.01     0.02  -0.04   0.01
    25   1    -0.02  -0.00   0.00    -0.18  -0.02   0.03    -0.01  -0.02   0.01
    26   1     0.20   0.00   0.00    -0.02  -0.00  -0.00     0.00  -0.01   0.00
    27   1     0.08  -0.05   0.00     0.56  -0.43   0.04     0.00   0.24   0.63
    28   1     0.04  -0.07   0.01     0.24  -0.27   0.05     0.42   0.55  -0.08
    29   1    -0.49  -0.36  -0.10     0.15   0.12   0.10     0.00  -0.00   0.02
    30   1     0.01  -0.14  -0.09    -0.01   0.03   0.01    -0.03   0.00   0.01
    31   1    -0.04  -0.02   0.01    -0.11   0.01   0.07    -0.06   0.02   0.05
    32   1     0.04   0.03  -0.02     0.25   0.17   0.02     0.07   0.02   0.03
    33   1     0.13   0.07   0.09     0.01  -0.02  -0.02     0.02   0.01   0.01
    34   1    -0.48   0.25   0.14     0.07  -0.04  -0.03    -0.01  -0.01   0.02
                     70                     71                     72
                      A                      A                      A
 Frequencies --   1456.3622              1462.7207              1463.3252
 Red. masses --      1.8464                 2.4292                 1.2468
 Frc consts  --      2.3073                 3.0622                 1.5730
 IR Inten    --     12.3082                 7.7744                 8.3105
  Atom  AN      X      Y      Z        X      Y      Z        X      Y      Z
     1   6     0.02  -0.06  -0.00     0.05  -0.12  -0.01    -0.03  -0.02   0.00
     2   6     0.00  -0.07  -0.00     0.02   0.13   0.01    -0.03   0.01   0.00
     3   6     0.05   0.10  -0.01     0.00   0.12  -0.03     0.04   0.00   0.01
     4   6    -0.08   0.08   0.00     0.04  -0.12   0.01     0.04   0.01  -0.01
     5   6    -0.08   0.06   0.01    -0.10   0.04   0.03     0.01   0.03  -0.02
     6   6     0.07   0.07   0.00    -0.10  -0.06  -0.01     0.02  -0.02   0.01
     7   6    -0.04  -0.01   0.00    -0.02  -0.05   0.02    -0.02   0.04  -0.01
     8   6     0.04   0.01  -0.01    -0.04   0.04  -0.01    -0.01  -0.04   0.01
     9   6     0.04   0.03  -0.02     0.04   0.08  -0.03     0.00  -0.04   0.01
    10   6    -0.05   0.01  -0.01     0.07  -0.07   0.02    -0.01   0.04  -0.01
    11   6     0.01  -0.04   0.01     0.04  -0.03   0.01    -0.02  -0.01   0.01
    12   6     0.01  -0.04   0.01     0.02   0.05  -0.01    -0.02   0.00  -0.00
    13   6     0.03  -0.02   0.02     0.04  -0.03   0.02    -0.00   0.00   0.00
    14   6     0.01  -0.03  -0.03    -0.00   0.04   0.02    -0.00   0.00   0.00
    15   6     0.02  -0.02  -0.04     0.01  -0.02  -0.02     0.01  -0.00  -0.05
    16   6    -0.02  -0.02  -0.04     0.01   0.03   0.03     0.02   0.00   0.05
    17   6    -0.01   0.02   0.02    -0.00   0.01   0.01     0.00  -0.00   0.00
    18   6    -0.00   0.00   0.00    -0.01  -0.00  -0.00     0.00  -0.00  -0.00
    19   8     0.00  -0.00  -0.00    -0.01   0.00  -0.01    -0.00   0.00  -0.00
    20   8    -0.00   0.00  -0.00     0.01   0.00  -0.00    -0.00  -0.00   0.00
    21   1     0.11  -0.22   0.04    -0.02  -0.06  -0.01     0.13  -0.15   0.05
    22   1    -0.08  -0.25   0.05    -0.01   0.10  -0.00     0.09   0.14  -0.04
    23   1    -0.06  -0.27   0.09    -0.14  -0.39   0.15     0.07   0.13  -0.06
    24   1     0.09  -0.22   0.05    -0.22   0.40  -0.10     0.10  -0.13   0.04
    25   1    -0.04  -0.05   0.02    -0.21  -0.07   0.05     0.16   0.01  -0.03
    26   1    -0.01  -0.05   0.01    -0.18   0.05  -0.01     0.15   0.01   0.00
    27   1    -0.21   0.02  -0.30    -0.19   0.07  -0.18    -0.04   0.00  -0.06
    28   1    -0.19  -0.18   0.02    -0.11  -0.07   0.01    -0.04  -0.03   0.00
    29   1     0.11   0.01   0.13    -0.15  -0.04  -0.18    -0.02  -0.02   0.02
    30   1    -0.14   0.11   0.10     0.18  -0.12  -0.12    -0.02  -0.00   0.00
    31   1    -0.19   0.13   0.19    -0.10   0.08   0.11    -0.26   0.23   0.28
    32   1     0.13  -0.06   0.21     0.14   0.03   0.08     0.08  -0.21   0.41
    33   1     0.22   0.18   0.19    -0.13  -0.12  -0.13    -0.25  -0.25  -0.23
    34   1    -0.08  -0.11   0.27     0.14   0.01  -0.14    -0.03   0.22  -0.39
                     73                     74                     75
                      A                      A                      A
 Frequencies --   1472.3733              1474.6987              1484.6346
 Red. masses --      1.8548                 1.1788                 1.1765
 Frc consts  --      2.3691                 1.5104                 1.5279
 IR Inten    --     12.1832                14.2525                21.5232
  Atom  AN      X      Y      Z        X      Y      Z        X      Y      Z
     1   6    -0.03  -0.07   0.01    -0.01   0.03   0.00    -0.01   0.01  -0.00
     2   6    -0.04   0.07   0.00     0.00   0.02   0.00     0.00   0.04   0.00
     3   6     0.07   0.02   0.01    -0.02  -0.03   0.00    -0.01  -0.01   0.00
     4   6     0.07  -0.00  -0.01     0.02  -0.02   0.00     0.02  -0.05  -0.00
     5   6     0.00   0.10  -0.02     0.03  -0.03  -0.01     0.01  -0.01  -0.00
     6   6     0.01  -0.09   0.01    -0.02  -0.04  -0.00    -0.03  -0.02  -0.00
     7   6    -0.05   0.08  -0.02     0.02  -0.00   0.00     0.01  -0.00   0.00
     8   6    -0.03  -0.08   0.02    -0.01  -0.01   0.00    -0.02   0.00  -0.00
     9   6     0.02  -0.06   0.01    -0.02  -0.01   0.01    -0.01  -0.00   0.00
    10   6     0.01   0.06  -0.01     0.02  -0.00   0.00     0.02  -0.02   0.01
    11   6    -0.04  -0.03   0.02    -0.01   0.02  -0.00    -0.00   0.01  -0.00
    12   6    -0.04   0.03  -0.01    -0.00   0.02  -0.00     0.01   0.02  -0.00
    13   6    -0.00  -0.01   0.00    -0.01   0.01  -0.00    -0.00  -0.00  -0.00
    14   6    -0.01   0.01   0.01    -0.01   0.01   0.03     0.03  -0.01  -0.07
    15   6    -0.02  -0.02   0.04     0.01   0.01  -0.05     0.00   0.00  -0.01
    16   6    -0.03   0.02  -0.04    -0.02   0.00  -0.04    -0.00   0.01  -0.01
    17   6     0.00  -0.01   0.00     0.00  -0.01  -0.00     0.00   0.02  -0.00
    18   6     0.00   0.00   0.00    -0.00   0.00  -0.01    -0.00   0.00  -0.00
    19   8    -0.01   0.00  -0.00    -0.00   0.00   0.00    -0.00  -0.00  -0.00
    20   8     0.00   0.00  -0.00    -0.00   0.00  -0.00     0.00   0.00  -0.00
    21   1     0.25  -0.30   0.09    -0.05   0.08  -0.02    -0.02   0.03  -0.01
    22   1     0.17   0.32  -0.08     0.02   0.07  -0.02     0.04   0.11  -0.01
    23   1     0.07   0.04  -0.05     0.04   0.12  -0.04     0.01   0.04  -0.01
    24   1     0.07  -0.02   0.03    -0.05   0.11  -0.02    -0.07   0.13  -0.03
    25   1     0.26  -0.01  -0.03     0.02   0.02  -0.01     0.00   0.01  -0.00
    26   1     0.24   0.04  -0.00    -0.00   0.02  -0.00    -0.04   0.02  -0.01
    27   1    -0.10   0.03  -0.11     0.06  -0.01   0.06     0.04  -0.02   0.02
    28   1    -0.07  -0.04   0.00     0.04   0.03  -0.00    -0.00   0.03  -0.01
    29   1    -0.07  -0.04  -0.02    -0.02   0.07  -0.20    -0.10  -0.32   0.61
    30   1     0.01  -0.04  -0.03     0.14  -0.14  -0.11    -0.35   0.43   0.31
    31   1     0.12  -0.20  -0.17    -0.20   0.26   0.27    -0.04   0.06   0.06
    32   1     0.02   0.22  -0.31     0.02  -0.25   0.41     0.00  -0.06   0.10
    33   1     0.12   0.20   0.15     0.20   0.28   0.24     0.03   0.06   0.05
    34   1     0.11  -0.21   0.28     0.09  -0.26   0.40     0.05  -0.07   0.09
                     76                     77                     78
                      A                      A                      A
 Frequencies --   1501.5611              1593.8711              1612.5012
 Red. masses --      2.5371                 5.4054                 6.4780
 Frc consts  --      3.3703                 8.0907                 9.9240
 IR Inten    --      0.6611                 9.7160                 1.3245
  Atom  AN      X      Y      Z        X      Y      Z        X      Y      Z
     1   6     0.10   0.02  -0.01    -0.13  -0.02   0.02     0.18   0.01  -0.02
     2   6    -0.11   0.00   0.00    -0.10   0.00  -0.00    -0.22  -0.01   0.00
     3   6    -0.08   0.06  -0.02     0.10   0.08  -0.01    -0.12  -0.04  -0.00
     4   6     0.07   0.08  -0.03     0.09  -0.05  -0.01     0.15  -0.02  -0.02
     5   6    -0.04  -0.09   0.04     0.12  -0.05  -0.03    -0.12   0.01   0.04
     6   6     0.06  -0.09   0.02     0.08   0.07   0.01     0.14   0.05   0.02
     7   6     0.01  -0.09   0.03    -0.18   0.02  -0.00     0.16  -0.05   0.01
     8   6     0.01  -0.10   0.02    -0.14  -0.05   0.02    -0.20  -0.11   0.03
     9   6    -0.03   0.08  -0.02    -0.17  -0.07   0.06     0.14   0.08  -0.06
    10   6     0.01   0.10  -0.02    -0.14   0.02  -0.02    -0.18   0.05  -0.03
    11   6     0.11   0.02  -0.02     0.34   0.04  -0.06    -0.26  -0.03   0.05
    12   6    -0.12   0.00  -0.00     0.28   0.02   0.00     0.34   0.03   0.00
    13   6     0.02  -0.02   0.01    -0.00  -0.02   0.00     0.01   0.01   0.00
    14   6    -0.01  -0.02   0.00    -0.00   0.02   0.01    -0.01   0.02   0.01
    15   6     0.01   0.02  -0.01    -0.01   0.02   0.01     0.01  -0.01  -0.01
    16   6    -0.02   0.02  -0.01    -0.00  -0.02  -0.01    -0.01  -0.02  -0.01
    17   6     0.00  -0.00   0.00     0.01  -0.00   0.01     0.01  -0.02  -0.01
    18   6    -0.00   0.01   0.00     0.02   0.00  -0.00     0.00   0.01   0.02
    19   8    -0.00   0.00   0.00    -0.01   0.00  -0.01    -0.01   0.01  -0.00
    20   8    -0.00  -0.00  -0.00    -0.02  -0.00   0.00    -0.00  -0.00  -0.00
    21   1    -0.26   0.22  -0.08    -0.07  -0.13   0.06     0.00   0.15  -0.06
    22   1     0.22   0.28  -0.08    -0.07   0.12  -0.03    -0.03   0.24  -0.06
    23   1    -0.15  -0.19   0.11    -0.10   0.16  -0.03     0.05  -0.17   0.05
    24   1     0.22  -0.21   0.07    -0.09  -0.09   0.01    -0.06  -0.17   0.03
    25   1    -0.43  -0.03   0.07    -0.51  -0.04   0.09     0.34   0.03  -0.06
    26   1     0.47   0.03   0.00    -0.43  -0.01  -0.01    -0.45  -0.00  -0.01
    27   1    -0.01   0.02   0.03    -0.08   0.02  -0.05     0.05  -0.01   0.05
    28   1     0.03   0.03   0.00    -0.03   0.00  -0.00     0.03   0.02   0.00
    29   1     0.01  -0.02   0.07    -0.06  -0.03  -0.01    -0.06  -0.03   0.02
    30   1    -0.09   0.02   0.04     0.03  -0.03  -0.03     0.00  -0.02  -0.01
    31   1     0.05   0.03  -0.02     0.05  -0.02  -0.05    -0.02  -0.00   0.01
    32   1    -0.03  -0.03   0.00    -0.07  -0.03  -0.00     0.04   0.03  -0.02
    33   1    -0.05   0.02  -0.01     0.04   0.03   0.04     0.03   0.01   0.01
    34   1     0.04  -0.03  -0.00    -0.06   0.01   0.02    -0.06   0.02  -0.01
                     79                     80                     81
                      A                      A                      A
 Frequencies --   1631.3510              1639.9691              1821.4460
 Red. masses --      4.9978                 5.3676                11.5117
 Frc consts  --      7.8366                 8.5056                22.5020
 IR Inten    --      1.4595                 9.4837               323.9032
  Atom  AN      X      Y      Z        X      Y      Z        X      Y      Z
     1   6    -0.02   0.08  -0.00    -0.00   0.05  -0.00     0.00   0.00   0.00
     2   6     0.01  -0.04   0.00    -0.02   0.09  -0.00     0.01  -0.00  -0.00
     3   6     0.05  -0.18   0.05     0.01  -0.10   0.02    -0.01   0.02  -0.00
     4   6     0.01   0.10  -0.02     0.01  -0.22   0.03    -0.03  -0.01   0.00
     5   6     0.01  -0.21   0.05     0.02  -0.12   0.02    -0.00   0.00   0.00
     6   6    -0.02   0.10  -0.02     0.03  -0.22   0.03    -0.00   0.00  -0.00
     7   6    -0.16   0.24  -0.06    -0.08   0.12  -0.03     0.01  -0.01   0.01
     8   6    -0.05  -0.13   0.03     0.09   0.27  -0.05     0.01   0.01  -0.01
     9   6     0.06   0.27  -0.09     0.03   0.15  -0.05     0.00   0.00  -0.00
    10   6     0.07  -0.13   0.03    -0.13   0.27  -0.06     0.01  -0.00   0.00
    11   6     0.04  -0.15   0.04     0.01  -0.08   0.02    -0.01   0.00   0.00
    12   6    -0.01   0.08  -0.01     0.03  -0.16   0.03    -0.02  -0.00  -0.00
    13   6    -0.01   0.02  -0.01    -0.00   0.01  -0.00    -0.05   0.02  -0.02
    14   6    -0.01  -0.01   0.00     0.00   0.02  -0.01    -0.04   0.01  -0.04
    15   6     0.01   0.02  -0.01     0.00   0.01  -0.00    -0.00  -0.00  -0.00
    16   6     0.01  -0.01   0.00    -0.01   0.02  -0.01    -0.00   0.00   0.00
    17   6     0.01  -0.01   0.00     0.00   0.01  -0.00     0.66  -0.15   0.37
    18   6    -0.01   0.00   0.00     0.00   0.01   0.00     0.07   0.01  -0.01
    19   8    -0.01   0.00  -0.00    -0.00  -0.00  -0.00    -0.43   0.10  -0.24
    20   8     0.00  -0.00  -0.00    -0.00  -0.00  -0.00    -0.04  -0.00   0.00
    21   1     0.30  -0.34   0.13     0.15  -0.15   0.06    -0.01   0.01  -0.01
    22   1     0.12   0.20  -0.07    -0.23  -0.35   0.12    -0.00  -0.02   0.02
    23   1    -0.18  -0.38   0.20    -0.09  -0.19   0.10     0.00   0.00  -0.00
    24   1    -0.13   0.20  -0.07     0.25  -0.37   0.13     0.00   0.00   0.00
    25   1     0.01  -0.18   0.07     0.01  -0.09   0.03    -0.00   0.00  -0.01
    26   1     0.01   0.09  -0.02    -0.02  -0.18   0.05     0.01  -0.00   0.00
    27   1     0.07  -0.03   0.03     0.05  -0.03   0.02     0.06  -0.06   0.00
    28   1    -0.01  -0.00  -0.00    -0.00   0.00  -0.00     0.10  -0.10   0.01
    29   1     0.04   0.03  -0.01    -0.09  -0.07   0.03     0.19   0.11   0.13
    30   1    -0.04  -0.02   0.00     0.07   0.04  -0.01    -0.12  -0.15  -0.08
    31   1     0.07   0.04  -0.02     0.04   0.03  -0.01    -0.00  -0.01  -0.00
    32   1    -0.07  -0.07   0.03    -0.04  -0.04   0.02     0.02   0.01   0.00
    33   1     0.04  -0.01   0.01    -0.08   0.03  -0.01    -0.01   0.01   0.00
    34   1    -0.04   0.03  -0.01     0.09  -0.06   0.02     0.02  -0.01  -0.01
                     82                     83                     84
                      A                      A                      A
 Frequencies --   1833.8944              3027.0205              3027.3637
 Red. masses --     11.5918                 1.0679                 1.0673
 Frc consts  --     22.9694                 5.7653                 5.7630
 IR Inten    --    279.7726                 3.8471                 7.3221
  Atom  AN      X      Y      Z        X      Y      Z        X      Y      Z
     1   6     0.01  -0.01  -0.00     0.00  -0.00   0.00     0.00  -0.00  -0.00
     2   6     0.01   0.01   0.00     0.00   0.00   0.00    -0.00   0.00   0.00
     3   6     0.00  -0.00   0.00    -0.00   0.00  -0.00     0.00  -0.00  -0.00
     4   6     0.00  -0.00  -0.00    -0.00  -0.00   0.00    -0.00   0.00  -0.00
     5   6    -0.03  -0.02   0.01    -0.00  -0.00   0.00    -0.00   0.00  -0.00
     6   6    -0.03   0.01  -0.00     0.00   0.00  -0.00     0.00   0.00  -0.00
     7   6     0.01  -0.00  -0.00     0.00  -0.00  -0.00    -0.00   0.00   0.00
     8   6     0.00   0.00  -0.00     0.00   0.00   0.00    -0.00  -0.00  -0.00
     9   6     0.01   0.02  -0.01     0.00   0.00   0.00     0.00  -0.00   0.00
    10   6     0.01  -0.02   0.01     0.00  -0.00  -0.00     0.00  -0.00  -0.00
    11   6    -0.01  -0.00   0.00    -0.00  -0.00   0.00     0.00   0.00  -0.00
    12   6    -0.01   0.00  -0.00    -0.00   0.00   0.00     0.00   0.00   0.00
    13   6     0.00  -0.00   0.00     0.00   0.00   0.00    -0.00  -0.00   0.00
    14   6     0.00  -0.00   0.00     0.00  -0.01   0.02    -0.00   0.02  -0.07
    15   6    -0.04  -0.01  -0.01     0.00  -0.00   0.00     0.00  -0.00   0.00
    16   6    -0.04  -0.00   0.01     0.00   0.03  -0.06     0.00   0.01  -0.02
    17   6    -0.06   0.01  -0.03     0.00  -0.00   0.00    -0.00   0.00  -0.00
    18   6     0.77   0.06  -0.07     0.00   0.00  -0.00     0.00   0.00  -0.00
    19   8     0.04  -0.01   0.02    -0.00   0.00  -0.00     0.00  -0.00   0.00
    20   8    -0.50  -0.04   0.05    -0.00  -0.00   0.00    -0.00  -0.00  -0.00
    21   1     0.01  -0.00   0.00     0.00   0.00   0.00     0.00   0.00  -0.00
    22   1     0.00   0.00  -0.00    -0.00   0.00   0.00     0.01  -0.00  -0.00
    23   1    -0.00  -0.02   0.01    -0.00   0.00   0.00    -0.00   0.00   0.00
    24   1    -0.01   0.02  -0.01    -0.00  -0.00  -0.00    -0.00  -0.00  -0.00
    25   1     0.01  -0.00   0.00     0.00  -0.00   0.00     0.00  -0.00   0.00
    26   1     0.01   0.00  -0.00    -0.00  -0.00   0.00     0.00  -0.00   0.00
    27   1    -0.01   0.00   0.00    -0.00  -0.01   0.00     0.01   0.01  -0.01
    28   1    -0.01   0.01  -0.00     0.00  -0.00  -0.00    -0.00   0.00   0.01
    29   1    -0.02  -0.01  -0.01     0.06  -0.07  -0.02    -0.18   0.20   0.05
    30   1     0.01   0.01   0.01    -0.07   0.16  -0.26     0.21  -0.46   0.75
    31   1    -0.05  -0.07  -0.02    -0.02   0.03  -0.04    -0.01   0.01  -0.02
    32   1     0.19   0.12   0.06     0.01  -0.01  -0.01     0.00  -0.00  -0.00
    33   1    -0.06   0.07   0.03    -0.18  -0.55   0.70    -0.06  -0.19   0.24
    34   1     0.20  -0.09  -0.09     0.14   0.20   0.07     0.05   0.07   0.02
                     85                     86                     87
                      A                      A                      A
 Frequencies --   3032.3976              3033.8782              3074.0433
 Red. masses --      1.0675                 1.0643                 1.0966
 Frc consts  --      5.7835                 5.7719                 6.1055
 IR Inten    --      4.6959                 6.8225                 5.1586
  Atom  AN      X      Y      Z        X      Y      Z        X      Y      Z
     1   6    -0.00   0.00   0.00     0.00   0.00   0.00     0.00   0.00  -0.00
     2   6     0.00  -0.00   0.00    -0.00  -0.00   0.00     0.00   0.00  -0.00
     3   6     0.00   0.00  -0.00    -0.00  -0.00  -0.00     0.00  -0.00   0.00
     4   6    -0.00   0.00  -0.00     0.00   0.00  -0.00    -0.00   0.00   0.00
     5   6    -0.00   0.00  -0.00    -0.00   0.00  -0.00     0.00  -0.00   0.00
     6   6     0.00   0.00  -0.00     0.00  -0.00  -0.00     0.00  -0.00  -0.00
     7   6    -0.00  -0.00  -0.00     0.00   0.00   0.00     0.00   0.00  -0.00
     8   6    -0.00  -0.00   0.00    -0.00  -0.00   0.00     0.00   0.00  -0.00
     9   6    -0.00  -0.00   0.00    -0.00   0.00  -0.00     0.00   0.00  -0.00
    10   6    -0.00   0.00   0.00    -0.00  -0.00  -0.00    -0.00  -0.00   0.00
    11   6     0.00   0.00  -0.00    -0.00   0.00  -0.00    -0.00  -0.00  -0.00
    12   6     0.00   0.00  -0.00     0.00  -0.00   0.00    -0.00  -0.00  -0.00
    13   6     0.00   0.00   0.00    -0.02  -0.04  -0.06    -0.05  -0.05   0.06
    14   6    -0.00   0.00  -0.00     0.00  -0.00   0.00     0.00  -0.00   0.00
    15   6    -0.02   0.03  -0.07    -0.00   0.00  -0.00    -0.00   0.00   0.00
    16   6    -0.00   0.00  -0.00    -0.00   0.00  -0.00    -0.00  -0.00   0.00
    17   6     0.00   0.00   0.00    -0.00   0.00  -0.00    -0.00  -0.00   0.00
    18   6    -0.00   0.00  -0.00    -0.00   0.00  -0.00     0.00   0.00   0.00
    19   8     0.00  -0.00  -0.00    -0.00   0.00   0.00     0.00   0.00  -0.00
    20   8     0.00  -0.00  -0.00     0.00  -0.00  -0.00    -0.00  -0.00  -0.00
    21   1     0.00   0.00  -0.00    -0.01  -0.01   0.00    -0.03  -0.02   0.01
    22   1    -0.00   0.00   0.00    -0.00   0.00  -0.00    -0.00   0.00   0.00
    23   1     0.00  -0.00  -0.00     0.00  -0.00  -0.00     0.00   0.00   0.00
    24   1     0.00   0.00  -0.00     0.00   0.00   0.00     0.00   0.00   0.00
    25   1     0.00  -0.00   0.00    -0.00   0.00  -0.00    -0.00   0.00  -0.00
    26   1     0.00  -0.00   0.00    -0.00   0.00  -0.00     0.00  -0.00   0.00
    27   1    -0.02  -0.02   0.01     0.29   0.34  -0.18     0.53   0.64  -0.29
    28   1     0.00  -0.01  -0.06    -0.05   0.11   0.86     0.02  -0.08  -0.47
    29   1    -0.00   0.00   0.00    -0.00   0.00   0.00     0.00  -0.00  -0.00
    30   1     0.00  -0.00   0.00    -0.00   0.01  -0.01    -0.00   0.01  -0.01
    31   1     0.39  -0.52   0.70     0.03  -0.03   0.05     0.00  -0.00   0.00
    32   1    -0.17   0.20   0.11    -0.01   0.01   0.01     0.00  -0.00  -0.00
    33   1    -0.01  -0.04   0.05    -0.00  -0.00   0.00     0.00   0.00  -0.00
    34   1     0.01   0.02   0.01     0.00   0.00   0.00     0.00   0.00   0.00
                     88                     89                     90
                      A                      A                      A
 Frequencies --   3125.1248              3127.5647              3133.1122
 Red. masses --      1.0951                 1.0944                 1.0963
 Frc consts  --      6.3016                 6.3074                 6.3406
 IR Inten    --      8.1109                 8.3826                 8.9240
  Atom  AN      X      Y      Z        X      Y      Z        X      Y      Z
     1   6    -0.00  -0.00  -0.00     0.00   0.00   0.00    -0.00   0.00   0.00
     2   6     0.00   0.00   0.00     0.00  -0.00  -0.00    -0.00  -0.00  -0.00
     3   6    -0.00  -0.00   0.00     0.00  -0.00   0.00    -0.00   0.00   0.00
     4   6     0.00  -0.00   0.00     0.00  -0.00   0.00    -0.00  -0.00   0.00
     5   6    -0.00  -0.00   0.00     0.00   0.00  -0.00     0.00  -0.00   0.00
     6   6    -0.00   0.00   0.00     0.00  -0.00   0.00    -0.00  -0.00   0.00
     7   6    -0.00   0.00  -0.00    -0.00  -0.00   0.00     0.00  -0.00   0.00
     8   6     0.00   0.00  -0.00     0.00   0.00  -0.00    -0.01   0.00   0.00
     9   6    -0.00   0.00   0.00     0.00  -0.00  -0.00     0.00  -0.00  -0.00
    10   6     0.00   0.00   0.00     0.00   0.00   0.00     0.00   0.00  -0.00
    11   6     0.00  -0.00   0.00    -0.00  -0.00   0.00    -0.00  -0.00   0.00
    12   6    -0.00  -0.00   0.00    -0.00  -0.00   0.00     0.00  -0.00   0.00
    13   6    -0.00  -0.00   0.00     0.00   0.00  -0.00     0.00   0.00   0.00
    14   6    -0.00   0.00   0.00    -0.00   0.00  -0.00     0.06  -0.07  -0.00
    15   6     0.06  -0.07  -0.02    -0.01   0.01   0.00    -0.00   0.00   0.00
    16   6    -0.01  -0.01  -0.00    -0.05  -0.07  -0.01    -0.00  -0.00  -0.00
    17   6    -0.00  -0.00  -0.00    -0.00  -0.00  -0.00     0.00  -0.00   0.00
    18   6     0.00  -0.00   0.00    -0.00  -0.00   0.00    -0.00  -0.00   0.00
    19   8     0.00   0.00   0.00    -0.00   0.00  -0.00    -0.00   0.00  -0.00
    20   8    -0.00   0.00   0.00     0.00   0.00  -0.00     0.00   0.00   0.00
    21   1    -0.00  -0.00  -0.00     0.00   0.00  -0.00    -0.00  -0.00   0.00
    22   1    -0.00   0.00  -0.00    -0.00   0.00  -0.00     0.06  -0.03  -0.00
    23   1     0.05  -0.02  -0.01    -0.01   0.00   0.00    -0.00   0.00   0.00
    24   1    -0.01  -0.00  -0.00    -0.05  -0.03  -0.00    -0.00  -0.00  -0.00
    25   1    -0.00   0.01  -0.00    -0.00  -0.00   0.00    -0.00   0.00  -0.00
    26   1    -0.00   0.00  -0.00    -0.00   0.01  -0.00    -0.00   0.01  -0.00
    27   1     0.00   0.00  -0.00    -0.00  -0.00   0.00    -0.00  -0.00   0.00
    28   1    -0.00  -0.00  -0.00    -0.00   0.00  -0.00     0.00  -0.00  -0.00
    29   1     0.00  -0.00  -0.00     0.01  -0.01  -0.00    -0.61   0.70   0.21
    30   1    -0.00   0.00  -0.00     0.00  -0.00   0.00    -0.05   0.13  -0.23
    31   1    -0.10   0.14  -0.21     0.01  -0.01   0.02    -0.00   0.00  -0.00
    32   1    -0.56   0.66   0.39     0.07  -0.08  -0.05     0.00  -0.00  -0.00
    33   1     0.01   0.02  -0.03     0.04   0.14  -0.20     0.00   0.00  -0.00
    34   1     0.06   0.09   0.04     0.52   0.74   0.32     0.01   0.01   0.01
                     91                     92                     93
                      A                      A                      A
 Frequencies --   3176.3076              3181.8841              3183.9865
 Red. masses --      1.0869                 1.0866                 1.0899
 Frc consts  --      6.4609                 6.4818                 6.5097
 IR Inten    --      6.1269                 2.1399                12.2754
  Atom  AN      X      Y      Z        X      Y      Z        X      Y      Z
     1   6     0.00   0.00  -0.00    -0.00   0.00   0.00     0.00   0.00  -0.00
     2   6    -0.00   0.00   0.00     0.00   0.00  -0.00    -0.00  -0.00  -0.00
     3   6    -0.00   0.00  -0.00     0.00  -0.00   0.00    -0.00   0.00  -0.00
     4   6    -0.00  -0.00   0.00     0.00   0.00  -0.00     0.00   0.00  -0.00
     5   6     0.00   0.00  -0.00    -0.00   0.00   0.00    -0.00  -0.00   0.00
     6   6     0.00   0.00  -0.00    -0.00   0.00  -0.00    -0.00  -0.00  -0.00
     7   6    -0.06  -0.05   0.01     0.00   0.00  -0.00    -0.03  -0.02   0.00
     8   6     0.00  -0.00  -0.00     0.03  -0.02  -0.00     0.00  -0.00  -0.00
     9   6     0.02  -0.01  -0.00     0.00  -0.00  -0.00    -0.07   0.03   0.01
    10   6    -0.00  -0.00  -0.00    -0.06  -0.04  -0.00    -0.00  -0.00  -0.00
    11   6    -0.00   0.03  -0.01    -0.00  -0.00   0.00     0.01  -0.02   0.00
    12   6    -0.00   0.00  -0.00    -0.00   0.04  -0.01     0.00   0.00  -0.00
    13   6    -0.00  -0.00   0.00     0.00   0.00  -0.00    -0.00  -0.00   0.00
    14   6     0.00  -0.00   0.00     0.00  -0.00  -0.00     0.00  -0.00   0.00
    15   6     0.00  -0.00  -0.00     0.00  -0.00   0.00    -0.00   0.00   0.00
    16   6    -0.00  -0.00   0.00    -0.00  -0.00  -0.00    -0.00  -0.00  -0.00
    17   6     0.00  -0.00  -0.00     0.00  -0.00   0.00     0.00   0.00   0.00
    18   6     0.00  -0.00  -0.00    -0.00  -0.00   0.00    -0.00   0.00  -0.00
    19   8    -0.00  -0.00   0.00    -0.00   0.00  -0.00    -0.00  -0.00  -0.00
    20   8    -0.00   0.00   0.00     0.00   0.00  -0.00     0.00  -0.00   0.00
    21   1     0.69   0.52  -0.11    -0.02  -0.02   0.00     0.31   0.23  -0.05
    22   1    -0.01   0.01   0.00    -0.33   0.17   0.01    -0.00   0.00   0.00
    23   1    -0.26   0.12   0.04    -0.01   0.00   0.00     0.80  -0.36  -0.13
    24   1     0.01   0.01   0.00     0.67   0.42   0.04     0.01   0.01   0.00
    25   1     0.05  -0.36   0.10    -0.00   0.01  -0.00    -0.04   0.22  -0.06
    26   1     0.00  -0.01   0.00     0.02  -0.46   0.08     0.00  -0.01   0.00
    27   1     0.02   0.02  -0.01    -0.00  -0.00   0.00     0.01   0.01  -0.00
    28   1     0.00  -0.00  -0.00    -0.00   0.00  -0.00     0.00  -0.00  -0.00
    29   1    -0.00   0.00   0.00    -0.02   0.02   0.01    -0.00   0.00   0.00
    30   1    -0.00   0.00  -0.00    -0.00   0.00  -0.00    -0.00   0.00  -0.00
    31   1    -0.00   0.00  -0.00    -0.00   0.00  -0.00     0.00  -0.01   0.01
    32   1    -0.01   0.01   0.01     0.00   0.00   0.00     0.03  -0.03  -0.02
    33   1     0.00   0.00  -0.00     0.00   0.01  -0.01    -0.00  -0.00   0.00
    34   1     0.00   0.00   0.00     0.03   0.04   0.02     0.00   0.00   0.00
                     94                     95                     96
                      A                      A                      A
 Frequencies --   3189.4183              3207.7672              3209.2944
 Red. masses --      1.0904                 1.0970                 1.0974
 Frc consts  --      6.5349                 6.6507                 6.6595
 IR Inten    --     11.1055                22.0200                18.0870
  Atom  AN      X      Y      Z        X      Y      Z        X      Y      Z
     1   6    -0.00  -0.00  -0.00    -0.00   0.00  -0.00     0.00   0.00   0.00
     2   6     0.00  -0.00  -0.00    -0.00   0.00  -0.00    -0.00   0.00  -0.00
     3   6     0.00  -0.00  -0.00    -0.00   0.00  -0.00     0.00  -0.00   0.00
     4   6    -0.00  -0.00   0.00     0.00   0.00  -0.00     0.00   0.00  -0.00
     5   6     0.00   0.00  -0.00     0.00   0.00  -0.00     0.00  -0.00   0.00
     6   6    -0.00   0.00  -0.00    -0.00   0.00  -0.00    -0.00   0.00  -0.00
     7   6    -0.00  -0.00   0.00    -0.02  -0.01   0.00     0.00   0.00  -0.00
     8   6    -0.06   0.03   0.00     0.00  -0.00  -0.00     0.03  -0.01  -0.00
     9   6     0.00  -0.00  -0.00     0.03  -0.01  -0.01    -0.00   0.00   0.00
    10   6    -0.04  -0.02  -0.00    -0.00  -0.00  -0.00    -0.03  -0.01  -0.00
    11   6    -0.00   0.00  -0.00     0.01  -0.08   0.02    -0.00   0.00  -0.00
    12   6     0.00  -0.02   0.00     0.00  -0.00   0.00     0.00  -0.08   0.01
    13   6    -0.00  -0.00  -0.00    -0.00  -0.00   0.00     0.00   0.00  -0.00
    14   6    -0.00   0.00   0.00    -0.00   0.00  -0.00     0.00  -0.00  -0.00
    15   6     0.00   0.00  -0.00     0.00  -0.00  -0.00    -0.00   0.00   0.00
    16   6    -0.00  -0.00  -0.00     0.00   0.00  -0.00    -0.00  -0.00  -0.00
    17   6    -0.00   0.00  -0.00     0.00   0.00   0.00     0.00   0.00   0.00
    18   6    -0.00  -0.00   0.00     0.00   0.00   0.00    -0.00   0.00   0.00
    19   8     0.00  -0.00   0.00     0.00  -0.00   0.00    -0.00   0.00  -0.00
    20   8     0.00   0.00  -0.00    -0.00  -0.00  -0.00     0.00   0.00  -0.00
    21   1     0.00   0.00  -0.00     0.22   0.16  -0.03    -0.01  -0.01   0.00
    22   1     0.74  -0.38  -0.02    -0.01   0.01   0.00    -0.35   0.18   0.01
    23   1    -0.00   0.00   0.00    -0.31   0.14   0.05     0.02  -0.01  -0.00
    24   1     0.43   0.27   0.02     0.01   0.01   0.00     0.27   0.16   0.02
    25   1     0.00  -0.00   0.00    -0.13   0.85  -0.22     0.01  -0.04   0.01
    26   1    -0.01   0.20  -0.03    -0.00   0.04  -0.01    -0.03   0.84  -0.14
    27   1     0.00   0.00  -0.00     0.00   0.00  -0.00    -0.00  -0.00   0.00
    28   1     0.00  -0.00   0.00     0.00  -0.00   0.00    -0.00  -0.00  -0.00
    29   1     0.04  -0.04  -0.01     0.00  -0.00  -0.00    -0.01   0.01   0.00
    30   1     0.00  -0.01   0.01    -0.00   0.00   0.00    -0.00   0.00  -0.00
    31   1    -0.00  -0.00   0.00    -0.00   0.00  -0.00     0.00  -0.00   0.00
    32   1    -0.00   0.00   0.00    -0.01   0.01   0.01     0.00  -0.00  -0.00
    33   1     0.00   0.00  -0.00     0.00  -0.00   0.00     0.00   0.00  -0.00
    34   1     0.02   0.02   0.01    -0.00  -0.00  -0.00     0.01   0.01   0.00

 -------------------
 - Thermochemistry -
 -------------------
 Temperature   298.150 Kelvin.  Pressure   1.00000 Atm.
 Atom     1 has atomic number  6 and mass  12.00000
 Atom     2 has atomic number  6 and mass  12.00000
 Atom     3 has atomic number  6 and mass  12.00000
 Atom     4 has atomic number  6 and mass  12.00000
 Atom     5 has atomic number  6 and mass  12.00000
 Atom     6 has atomic number  6 and mass  12.00000
 Atom     7 has atomic number  6 and mass  12.00000
 Atom     8 has atomic number  6 and mass  12.00000
 Atom     9 has atomic number  6 and mass  12.00000
 Atom    10 has atomic number  6 and mass  12.00000
 Atom    11 has atomic number  6 and mass  12.00000
 Atom    12 has atomic number  6 and mass  12.00000
 Atom    13 has atomic number  6 and mass  12.00000
 Atom    14 has atomic number  6 and mass  12.00000
 Atom    15 has atomic number  6 and mass  12.00000
 Atom    16 has atomic number  6 and mass  12.00000
 Atom    17 has atomic number  6 and mass  12.00000
 Atom    18 has atomic number  6 and mass  12.00000
 Atom    19 has atomic number  8 and mass  15.99491
 Atom    20 has atomic number  8 and mass  15.99491
 Atom    21 has atomic number  1 and mass   1.00783
 Atom    22 has atomic number  1 and mass   1.00783
 Atom    23 has atomic number  1 and mass   1.00783
 Atom    24 has atomic number  1 and mass   1.00783
 Atom    25 has atomic number  1 and mass   1.00783
 Atom    26 has atomic number  1 and mass   1.00783
 Atom    27 has atomic number  1 and mass   1.00783
 Atom    28 has atomic number  1 and mass   1.00783
 Atom    29 has atomic number  1 and mass   1.00783
 Atom    30 has atomic number  1 and mass   1.00783
 Atom    31 has atomic number  1 and mass   1.00783
 Atom    32 has atomic number  1 and mass   1.00783
 Atom    33 has atomic number  1 and mass   1.00783
 Atom    34 has atomic number  1 and mass   1.00783
 Molecular mass:   262.09938 amu.
 Principal axes and moments of inertia in atomic units:
                           1         2         3
     Eigenvalues --  3746.784755166.361558443.62101
           X            0.99999   0.00141  -0.00370
           Y           -0.00140   0.99999   0.00324
           Z            0.00371  -0.00324   0.99999
 This molecule is an asymmetric top.
 Rotational symmetry number  1.
 Warning -- assumption of classical behavior for rotation
           may cause significant error
 Rotational temperatures (Kelvin)      0.02312     0.01676     0.01026
 Rotational constants (GHZ):           0.48168     0.34933     0.21374
    1 imaginary frequencies ignored.
 Zero-point vibrational energy     712480.8 (Joules/Mol)
                                  170.28700 (Kcal/Mol)
 Warning -- explicit consideration of  24 degrees of freedom as
           vibrations may cause significant error
 Vibrational temperatures:     64.15    93.24   121.01   243.69   250.47
          (Kelvin)            284.31   298.14   373.27   407.01   488.80
                              511.69   538.98   569.25   585.89   637.31
                              685.73   687.92   707.29   715.44   737.61
                              757.30   825.44   849.13   892.06   943.01
                              962.32  1002.79  1049.19  1090.79  1117.68
                             1132.18  1137.31  1161.67  1209.58  1243.54
                             1276.80  1293.45  1298.80  1329.95  1385.96
                             1393.69  1398.48  1401.12  1415.71  1449.92
                             1458.49  1613.38  1634.52  1646.65  1662.78
                             1686.77  1712.24  1718.05  1755.77  1773.72
                             1780.09  1787.13  1806.45  1815.34  1839.08
                             1858.27  1867.32  1886.93  1892.41  1896.98
                             1926.03  1945.59  2062.82  2095.38  2104.53
                             2105.40  2118.42  2121.76  2136.06  2160.41
                             2293.22  2320.03  2347.15  2359.55  2620.65
                             2638.57  4355.21  4355.70  4362.94  4365.07
                             4422.86  4496.36  4499.87  4507.85  4570.00
                             4578.02  4581.05  4588.86  4615.26  4617.46
 
 Zero-point correction=                           0.271370 (Hartree/Particle)
 Thermal correction to Energy=                    0.285535
 Thermal correction to Enthalpy=                  0.286479
 Thermal correction to Gibbs Free Energy=         0.230484
 Sum of electronic and zero-point Energies=           -844.517441
 Sum of electronic and thermal Energies=              -844.503276
 Sum of electronic and thermal Enthalpies=            -844.502332
 Sum of electronic and thermal Free Energies=         -844.558327
 
                     E (Thermal)             CV                S
                      KCal/Mol        Cal/Mol-Kelvin    Cal/Mol-Kelvin
 Total                  179.176             59.879            117.851
 Electronic               0.000              0.000              0.000
 Translational            0.889              2.981             42.590
 Rotational               0.889              2.981             33.457
 Vibrational            177.398             53.917             41.803
 Vibration     1          0.595              1.980              5.044
 Vibration     2          0.597              1.971              4.305
 Vibration     3          0.601              1.960              3.793
 Vibration     4          0.625              1.880              2.442
 Vibration     5          0.627              1.874              2.391
 Vibration     6          0.637              1.843              2.155
 Vibration     7          0.641              1.830              2.068
 Vibration     8          0.668              1.747              1.666
 Vibration     9          0.682              1.705              1.516
 Vibration    10          0.720              1.596              1.213
 Vibration    11          0.731              1.564              1.141
 Vibration    12          0.746              1.524              1.061
 Vibration    13          0.762              1.479              0.979
 Vibration    14          0.772              1.455              0.937
 Vibration    15          0.803              1.376              0.817
 Vibration    16          0.833              1.302              0.719
 Vibration    17          0.835              1.299              0.715
 Vibration    18          0.847              1.269              0.679
 Vibration    19          0.853              1.256              0.665
 Vibration    20          0.868              1.222              0.627
 Vibration    21          0.881              1.192              0.595
 Vibration    22          0.930              1.088              0.497
 Vibration    23          0.948              1.053              0.467
 Vibration    24          0.980              0.990              0.416
                       Q            Log10(Q)             Ln(Q)
 Total Bot       0.965434-106       -106.015278       -244.109198
 Total V=0       0.639681D+19         18.805964         43.302332
 Vib (Bot)       0.126485-120       -120.897962       -278.377845
 Vib (Bot)    1  0.463862D+01          0.666389          1.534417
 Vib (Bot)    2  0.318475D+01          0.503075          1.158373
 Vib (Bot)    3  0.244703D+01          0.388638          0.894873
 Vib (Bot)    4  0.119008D+01          0.075575          0.174018
 Vib (Bot)    5  0.115609D+01          0.062991          0.145041
 Vib (Bot)    6  0.100999D+01          0.004317          0.009939
 Vib (Bot)    7  0.959559D+00         -0.017928         -0.041282
 Vib (Bot)    8  0.748882D+00         -0.125586         -0.289173
 Vib (Bot)    9  0.678606D+00         -0.168382         -0.387715
 Vib (Bot)   10  0.546658D+00         -0.262285         -0.603932
 Vib (Bot)   11  0.516863D+00         -0.286625         -0.659978
 Vib (Bot)   12  0.484466D+00         -0.314737         -0.724708
 Vib (Bot)   13  0.451920D+00         -0.344939         -0.794251
 Vib (Bot)   14  0.435377D+00         -0.361134         -0.831543
 Vib (Bot)   15  0.389355D+00         -0.409655         -0.943264
 Vib (Bot)   16  0.351930D+00         -0.453544         -1.044324
 Vib (Bot)   17  0.350354D+00         -0.455493         -1.048812
 Vib (Bot)   18  0.336817D+00         -0.472606         -1.088216
 Vib (Bot)   19  0.331323D+00         -0.479748         -1.104661
 Vib (Bot)   20  0.316968D+00         -0.498985         -1.148956
 Vib (Bot)   21  0.304880D+00         -0.515872         -1.187839
 Vib (Bot)   22  0.267278D+00         -0.573037         -1.319466
 Vib (Bot)   23  0.255562D+00         -0.592503         -1.364289
 Vib (Bot)   24  0.235862D+00         -0.627343         -1.444510
 Vib (V=0)       0.838068D+04          3.923279          9.033684
 Vib (V=0)    1  0.516549D+01          0.713111          1.642000
 Vib (V=0)    2  0.372376D+01          0.570981          1.314733
 Vib (V=0)    3  0.299759D+01          0.476772          1.097807
 Vib (V=0)    4  0.179085D+01          0.253058          0.582688
 Vib (V=0)    5  0.175958D+01          0.245409          0.565074
 Vib (V=0)    6  0.162698D+01          0.211381          0.486724
 Vib (V=0)    7  0.158201D+01          0.199210          0.458698
 Vib (V=0)    8  0.140046D+01          0.146270          0.336799
 Vib (V=0)    9  0.134292D+01          0.128049          0.294843
 Vib (V=0)   10  0.124083D+01          0.093714          0.215784
 Vib (V=0)   11  0.121913D+01          0.086050          0.198137
 Vib (V=0)   12  0.119621D+01          0.077807          0.179158
 Vib (V=0)   13  0.117397D+01          0.069656          0.160389
 Vib (V=0)   14  0.116299D+01          0.065575          0.150993
 Vib (V=0)   15  0.113372D+01          0.054505          0.125502
 Vib (V=0)   16  0.111144D+01          0.045885          0.105653
 Vib (V=0)   17  0.111053D+01          0.045531          0.104838
 Vib (V=0)   18  0.110286D+01          0.042522          0.097911
 Vib (V=0)   19  0.109981D+01          0.041319          0.095140
 Vib (V=0)   20  0.109200D+01          0.038224          0.088014
 Vib (V=0)   21  0.108562D+01          0.035678          0.082152
 Vib (V=0)   22  0.106695D+01          0.028146          0.064808
 Vib (V=0)   23  0.106153D+01          0.025931          0.059708
 Vib (V=0)   24  0.105284D+01          0.022362          0.051490
 Electronic      0.100000D+01          0.000000          0.000000
 Translational   0.166783D+09          8.222153         18.932207
 Rotational      0.457648D+07          6.660532         15.336441
 ***** Axes restored to original set *****
 -------------------------------------------------------------------
 Center     Atomic                   Forces (Hartrees/Bohr)
 Number     Number              X              Y              Z
 -------------------------------------------------------------------
      1        6          -0.000000026    0.000000158    0.000000057
      2        6           0.000000422    0.000000044   -0.000000020
      3        6          -0.000000525    0.000000403   -0.000000458
      4        6           0.000000016   -0.000000238    0.000000502
      5        6          -0.000000331    0.000000524   -0.000000285
      6        6          -0.000000278   -0.000000587    0.000000168
      7        6           0.000001432   -0.000000009   -0.000000428
      8        6          -0.000000794   -0.000000257    0.000000593
      9        6           0.000000178   -0.000000145   -0.000000506
     10        6          -0.000000615   -0.000000041    0.000000282
     11        6          -0.000000988   -0.000000129   -0.000000400
     12        6           0.000000649    0.000000545    0.000000473
     13        6           0.000000743   -0.000000143   -0.000000610
     14        6           0.000000064   -0.000000355    0.000000488
     15        6           0.000000632    0.000000428   -0.000000261
     16        6           0.000000041    0.000000688    0.000000165
     17        6          -0.000000852   -0.000000053   -0.000000016
     18        6          -0.000000508   -0.000000774   -0.000000491
     19        8           0.000000572    0.000000261    0.000000522
     20        8           0.000000201    0.000000117   -0.000000160
     21        1          -0.000000702   -0.000000616   -0.000000385
     22        1           0.000000304   -0.000000033    0.000000550
     23        1           0.000000209   -0.000000049   -0.000000612
     24        1           0.000000599    0.000000322    0.000000536
     25        1           0.000000000   -0.000000175   -0.000000702
     26        1           0.000000046   -0.000000079    0.000000750
     27        1          -0.000000144    0.000000024   -0.000000192
     28        1          -0.000000107    0.000000264    0.000000328
     29        1          -0.000000048    0.000000086    0.000000339
     30        1           0.000000035   -0.000000067   -0.000000263
     31        1          -0.000000075    0.000000293   -0.000000085
     32        1          -0.000000179    0.000000297   -0.000000261
     33        1          -0.000000028   -0.000000560    0.000000188
     34        1           0.000000054   -0.000000144    0.000000192
 -------------------------------------------------------------------
 Cartesian Forces:  Max     0.000001432 RMS     0.000000421
 Red2BG is reusing G-inverse.
 Leave Link  716 at Tue May 20 08:42:28 2025, MaxMem=   104857600 cpu:               0.7 elap:               0.0
 (Enter /opt/linux/rocky/8/software/gaussian/16c01_avx2/g16/l9999.exe)

 ----------------------------------------------------------------------

 Electric dipole moment (input orientation):
 (Debye = 10**-18 statcoulomb cm , SI units = C m)
                  (au)            (Debye)         (10**-30 SI)
   Tot        0.647443D+00      0.164564D+01      0.548925D+01
   x          0.156003D+00      0.396519D+00      0.132265D+01
   y          0.318490D+00      0.809522D+00      0.270027D+01
   z         -0.541673D+00     -0.137679D+01     -0.459249D+01

 Dipole polarizability, Alpha (input orientation).
 (esu units = cm**3 , SI units = C**2 m**2 J**-1)
 Alpha(0;0):
               (au)            (10**-24 esu)      (10**-40 SI)
   iso        0.192896D+03      0.285843D+02      0.318043D+02
   aniso      0.148374D+03      0.219867D+02      0.244635D+02
   xx         0.233002D+03      0.345273D+02      0.384168D+02
   yx        -0.359068D+01     -0.532083D+00     -0.592023D+00
   yy         0.250503D+03      0.371207D+02      0.413023D+02
   zx        -0.161748D+01     -0.239686D+00     -0.266687D+00
   zy        -0.924297D+01     -0.136967D+01     -0.152396D+01
   zz         0.951842D+02      0.141048D+02      0.156937D+02

 ----------------------------------------------------------------------

 Dipole orientation:
     6         -0.10622103         -1.22659901          0.75894697
     6          0.20128115          1.30296162         -0.44022829
     6          1.78215163         -2.47814990          2.26396551
     6          2.49523721          2.73204985         -0.37442132
     6         -2.37354663         -2.66528146          0.37081782
     6         -1.90964914          2.60784754         -1.54162694
     6          1.03836209         -4.39891084          3.92812216
     6          2.83179777          4.80560400         -1.97763829
     6         -3.01783194         -4.63338988          2.01288997
     6         -1.51615469          4.69552675         -3.11533257
     6         -1.39569602         -5.38568989          3.93324428
     6          0.87641288          5.71256410         -3.47637083
     6          4.61909952         -2.41926986          1.79673352
     6          4.52461818          2.37707580          1.61980727
     6         -4.00307531         -2.41964248         -1.97864940
     6         -4.64401573          2.11644804         -0.82266413
     6          6.04279893          0.00147431          1.26273806
     6         -5.82422531         -0.21528657         -1.98054584
     8          8.24166160         -0.01530211          0.60659871
     8         -7.95955860         -0.30745381         -2.80297712
     1          2.46293395         -5.23291117          5.14963830
     1          4.64275378          5.77054658         -1.96097302
     1         -4.79451364         -5.61881062          1.71770117
     1         -3.14723713          5.58027319         -3.99335826
     1         -1.93268075         -6.85707349          5.25740445
     1          1.16706534          7.30441779         -4.73659971
     1          5.58703297         -3.30306897          3.40227580
     1          5.00678967         -3.67824760          0.19179937
     1          5.80781729          3.99069657          1.59628373
     1          3.61159906          2.27705006          3.48247670
     1         -2.77107850         -2.13211265         -3.62625003
     1         -5.06259265         -4.16153363         -2.29746207
     1         -4.75246911          1.83239822          1.23321448
     1         -5.81030682          3.75442334         -1.28385222

 Electric dipole moment (dipole orientation):
 (Debye = 10**-18 statcoulomb cm , SI units = C m)
                  (au)            (Debye)         (10**-30 SI)
   Tot        0.647443D+00      0.164564D+01      0.548925D+01
   x          0.000000D+00      0.000000D+00      0.000000D+00
   y          0.000000D+00      0.000000D+00      0.000000D+00
   z          0.647443D+00      0.164564D+01      0.548925D+01

 Dipole polarizability, Alpha (dipole orientation).
 (esu units = cm**3 , SI units = C**2 m**2 J**-1)
 Alpha(0;0):
               (au)            (10**-24 esu)      (10**-40 SI)
   iso        0.192896D+03      0.285843D+02      0.318043D+02
   aniso      0.148374D+03      0.219867D+02      0.244635D+02
   xx         0.225055D+03      0.333497D+02      0.371065D+02
   yx         0.227357D+02      0.336908D+01      0.374860D+01
   yy         0.205455D+03      0.304452D+02      0.338749D+02
   zx         0.251942D+02      0.373339D+01      0.415396D+01
   zy        -0.677558D+02     -0.100404D+02     -0.111714D+02
   zz         0.148179D+03      0.219579D+02      0.244315D+02

 ----------------------------------------------------------------------
 Unable to Open any file for archive entry.
 1\1\GINC-A001\Freq\RB3LYP\6-31G(d,p)\C18H14O2\DJO04747\20-May-2025\0\\
 #P opt=(calcall,ts,vtight) freq rb3lyp/6-31g(d,p) integral=grid=ultraf
 ine scf=conver=10\\Title Card Required\\0,1\C,0.000448,0.764759,-0.030
 251\C,0.091512,-0.720124,-0.118612\C,1.117301,1.667077,-0.12999\C,1.32
 4244,-1.437937,-0.227263\C,-1.260063,1.402166,0.226994\C,-1.086105,-1.
 534279,-0.239828\C,0.882741,3.008184,-0.461597\C,1.363108,-2.819475,-0
 .014334\C,-1.448065,2.75588,-0.069823\C,-1.01382,-2.916569,-0.036382\C
 ,-0.397637,3.546024,-0.517351\C,0.200948,-3.559544,0.163779\C,2.513529
 ,1.421513,0.423268\C,2.606353,-0.825024,-0.759\C,-2.386297,0.733359,0.
 99545\C,-2.412439,-1.027966,-0.778864\C,3.257686,0.121662,0.211062\C,-
 3.244505,-0.217744,0.190259\O,4.300257,-0.116525,0.786289\O,-4.446768,
 -0.316563,0.306096\H,1.740031,3.660696,-0.603653\H,2.32621,-3.320331,-
 0.041991\H,-2.429816,3.192471,0.090845\H,-1.931406,-3.495929,-0.08594\
 H,-0.554225,4.585094,-0.789042\H,0.243569,-4.62891,0.344397\H,3.18408,
 2.212467,0.065932\H,2.464566,1.568932,1.510978\H,3.316035,-1.616357,-1
 .005016\H,2.372563,-0.263009,-1.674033\H,-1.955221,0.130286,1.807128\H
 ,-3.029384,1.486873,1.454939\H,-2.215579,-0.358582,-1.628945\H,-3.0129
 7,-1.860766,-1.149779\\Version=ES64L-G16RevC.01\State=1-A\HF=-844.7888
 108\RMSD=5.165e-11\RMSF=4.212e-07\ZeroPoint=0.2713696\Thermal=0.285534
 8\ETot=-844.503276\HTot=-844.5023318\GTot=-844.5583266\Dipole=0.156002
 6,0.3184903,-0.5416728\DipoleDeriv=-0.0416198,-0.0282069,-0.0205309,-0
 .0061901,0.2675877,0.0558686,-0.0488718,0.2745692,-0.0711533,-0.068336
 6,0.0053776,0.0016425,-0.0379654,0.191922,0.0731115,-0.0109308,0.22184
 68,-0.0292693,0.1173624,0.0201108,0.1145349,-0.0456509,-0.1149858,-0.0
 660103,0.3182797,-0.1528636,0.0244706,0.2236957,0.0528507,-0.0380551,0
 .166896,-0.0193212,-0.0937803,-0.260618,-0.2160068,-0.0556755,0.118707
 8,0.0242199,-0.0741456,0.1324721,-0.0168997,-0.1052009,-0.2464638,-0.2
 286716,0.0124222,0.1978369,-0.0173715,0.0510995,-0.134416,-0.0160955,-
 0.0860668,0.2465081,-0.1742684,-0.0429383,-0.0816774,0.1500949,-0.0246
 757,0.162365,-0.0333112,0.0030094,-0.0851322,0.0259528,-0.1488363,-0.0
 582888,-0.1531072,-0.0291152,-0.1701902,-0.0970104,0.0042008,0.0375676
 ,0.0383605,-0.1201161,-0.0277246,-0.1367688,-0.0502175,-0.1636108,-0.1
 108135,0.0234423,0.0309347,0.0845355,-0.1277878,-0.0818348,0.1542258,0
 .0231164,0.1783033,-0.0856368,0.0157671,-0.0462907,0.0609608,-0.122553
 6,0.0751123,0.0004047,0.0023036,-0.0175195,0.0368921,-0.0827062,-0.012
 9837,-0.0844585,-0.0491091,0.0935657,-0.0101949,0.0074391,0.0039866,0.
 0599811,-0.0609297,0.0033121,-0.0592036,-0.0596355,0.1102007,0.0785839
 ,0.0008439,0.2167634,-0.1899305,-0.0576502,-0.0913054,-0.1606055,0.038
 0241,-0.1987229,-0.150921,-0.1314264,-0.2953865,-0.1114765,-0.1408521,
 -0.0836077,-0.1007467,0.0030146,-0.1791968,-0.1610889,-0.0856167,-0.24
 02334,-0.0872574,-0.0802205,-0.1067933,-0.1550899,-0.0426463,-0.196099
 3,0.1132393,0.1245753,0.217069,-0.0235551,-0.1013773,0.1452782,-0.1444
 469,-0.0884334,1.1815877,-0.1379224,0.3560802,-0.1889823,0.791532,0.23
 70672,0.6937899,0.2751161,0.4839134,1.5890716,0.1172825,-0.1276173,0.1
 192973,0.5249665,0.3693078,-0.1456894,0.386543,0.4795428,-1.1460704,0.
 089934,-0.2458957,0.1957356,-0.4692355,-0.0266457,-0.504699,-0.0656401
 ,-0.4905049,-1.404589,-0.090326,0.1013379,-0.090575,-0.3999263,-0.0966
 3,0.1127231,-0.1136721,-0.3729035,-0.0639637,-0.1043631,0.0262441,-0.0
 708884,0.0189208,0.0189977,-0.0334537,0.033612,0.0987893,-0.0623721,0.
 0845303,0.0073565,0.04217,0.0456496,0.005371,0.0456222,0.019222,0.0968
 317,-0.061367,0.0843497,0.0272128,0.03914,0.0563465,0.0012935,0.065417
 8,0.0206592,0.0833667,-0.0539642,-0.0951647,-0.0108287,-0.0511975,0.02
 96615,0.0034281,-0.0487537,0.0166134,0.0948017,0.05909,0.0226574,-0.00
 18531,0.0280455,-0.0970062,0.0600517,0.0108111,0.0428474,0.0947033,0.0
 568853,0.0057378,-0.0023542,0.0068854,-0.1054758,0.0397309,0.0016613,0
 .020038,0.1032887,-0.033939,-0.0028802,0.009368,-0.0552481,-0.0204438,
 0.0313418,0.0357044,0.0519777,0.0656815,-0.061845,0.0242032,-0.0203057
 ,0.0208721,0.0575938,0.0033808,-0.0493782,-0.0128653,-0.0482772,-0.021
 057,0.0432074,0.0274677,0.0787357,-0.0406292,-0.0473931,0.0062804,-0.0
 153772,0.0537704,0.0265335,0.005427,-0.0254392,-0.0401085,0.013096,0.0
 840146,0.0064969,0.0524158,-0.0108955,0.0183629,0.0046433,-0.041263,-0
 .0160333,0.0077842,0.0682932,0.0089664,0.0521299,0.0273186,-0.0211493,
 0.0366063,0.0474572,0.0418728,-0.0280422,-0.062234,0.0525619,-0.021591
 4,0.0420988,0.0174208,0.0072368,0.0288106,0.0280258,0.0063611,0.073097
 1,-0.0126036,0.0521753,0.0253333,-0.0216157,-0.0366074,-0.0275501,-0.0
 544398,-0.0412427,-0.0630781,-0.0343407,-0.0240675,0.0533635\Polar=233
 .001875,-3.5906762,250.5027454,-1.617484,-9.2429678,95.1841719\PG=C01 
 [X(C18H14O2)]\NImag=1\\0.56450497,0.00510882,0.56774754,-0.04996938,-0
 .00564965,0.17525783,-0.10832085,0.00132456,0.00415875,0.58743510,0.00
 724374,-0.18001837,-0.00639156,-0.01072432,0.56984653,0.00297269,-0.00
 930228,-0.06179625,-0.00661526,0.01042313,0.16610301,-0.20034430,-0.07
 388043,0.00495663,0.01048522,-0.01661291,0.00216381,0.56094674,-0.0424
 5202,-0.16443579,0.00499784,-0.02484289,-0.03005753,0.00491353,0.01196
 856,0.60258792,-0.01883752,0.01489580,-0.06001933,0.00074551,-0.000429
 59,0.00000484,0.06120766,-0.08693650,0.19974476,0.00301320,0.02236359,
 -0.00196588,-0.22281161,0.07571617,0.01653648,-0.00290440,-0.00332167,
 0.00052527,0.56526774,0.03118918,-0.02405726,-0.00167472,0.03765289,-0
 .15240905,-0.00485151,0.00206367,0.00434402,-0.00013268,-0.01900386,0.
 63368479,-0.00060174,-0.00519132,0.00125183,0.03529808,0.00133408,-0.0
 6472808,0.00105835,-0.00089035,-0.00111648,-0.07660181,-0.06121601,0.1
 8968491,-0.21212930,0.06866759,0.03179908,-0.00060275,0.02334063,-0.00
 101599,-0.04730115,-0.03315695,0.01918335,0.00463826,-0.00501361,-0.00
 136565,0.53070623,0.02935685,-0.14139170,-0.00128813,0.03266127,-0.022
 23288,-0.00460194,0.00233324,0.05887914,-0.02205457,-0.00484865,-0.005
 19847,0.00162148,-0.03808564,0.62374489,0.05747392,-0.00363935,-0.0758
 3414,-0.00172158,-0.00501874,0.00256434,0.00253571,-0.01475049,0.00908
 523,-0.00138540,0.00284217,0.00243517,-0.12159667,-0.08767068,0.235017
 59,0.00760722,-0.01908281,0.00130870,-0.20622023,-0.07567593,-0.015614
 79,0.00283387,0.00655917,0.00019212,-0.05162911,0.01383895,-0.00597599
 ,-0.00272227,0.00200527,0.00058787,0.55690583,-0.02816686,-0.02951576,
 -0.00067042,-0.03590038,-0.15731567,-0.00465734,0.00614575,-0.00297616
 ,0.00033088,-0.02372118,0.06328086,-0.01464954,-0.00337646,0.00469908,
 -0.00066374,0.00619350,0.63731621,0.00087027,-0.00212864,0.00172762,-0
 .03620102,-0.00477135,-0.06559295,0.00136032,0.00197449,0.00220451,0.0
 0586243,-0.01352775,0.00708350,-0.00023977,-0.00103115,-0.00097980,0.0
 8316625,-0.04814043,0.19409931,0.04216793,-0.01610703,-0.00317795,-0.0
 0479329,-0.00525435,-0.00051073,-0.12114752,-0.00864449,0.00179422,-0.
 00114790,0.00180571,0.00000841,-0.02370183,0.03572749,-0.00716991,0.00
 168242,-0.00169150,0.00051820,0.73391560,-0.05427636,-0.03753933,0.017
 51111,-0.00250281,0.00704628,0.00083034,0.06070536,-0.29251517,0.05568
 056,0.00080433,-0.00221785,0.00065571,0.02526018,-0.04439751,0.0060373
 3,-0.00204345,-0.00013631,-0.00122564,0.01674599,0.63896724,0.00388137
 ,0.00247458,0.00241440,0.00085937,0.00035415,0.00591887,-0.00810585,0.
 06508668,-0.07704857,0.00059098,0.00036732,-0.00054100,-0.00264744,0.0
 0503525,-0.00490430,-0.00051268,-0.00045135,0.00041293,-0.00526249,-0.
 13033326,0.16205269,-0.00554507,0.00317272,0.00244877,0.02765641,0.025
 55239,-0.00217469,-0.00073553,-0.00142530,-0.00004058,-0.11788469,0.04
 831325,-0.00281740,0.00107765,0.00189579,-0.00063344,-0.01270615,-0.02
 899588,0.00546578,0.00000747,0.00095478,-0.00031847,0.74018170,0.00072
 096,0.00770338,0.00081766,0.06681495,-0.02593828,0.00596957,-0.0004836
 0,-0.00250458,0.00027933,-0.02160753,-0.31257270,0.03923427,0.00191304
 ,0.00054390,-0.00167851,-0.01991016,-0.05343970,0.00622502,-0.00134698
 ,0.00198269,-0.00044594,-0.01774846,0.66081141,0.00116225,0.00000272,0
 .00559748,-0.00524588,-0.00299813,0.00453775,-0.00053909,0.00016391,-0
 .00056229,0.00329326,0.03916573,-0.06773319,0.00045038,-0.00041415,0.0
 0034120,0.00249944,0.00716380,-0.00512134,0.00018124,-0.00027971,-0.00
 006750,-0.05522432,-0.08472393,0.14541855,0.01783018,0.02733502,-0.006
 76314,-0.00483314,0.00188207,0.00336917,-0.00780133,-0.02262995,0.0090
 7211,0.00093096,0.00123418,0.00008425,-0.12207868,0.07032291,-0.003497
 33,-0.00065636,-0.00074585,-0.00016586,-0.06017136,0.01012741,0.007683
 07,-0.00071543,-0.00011275,-0.00017645,0.70857503,0.06907803,-0.018337
 61,-0.00420141,0.00103179,0.00532640,0.00175224,-0.01418410,-0.0548522
 5,0.01377337,0.00163876,0.00038659,-0.00152562,0.00083255,-0.30181780,
 0.05470972,-0.00001709,-0.00300186,0.00097196,-0.04170140,0.06281369,-
 0.00337561,-0.00045213,-0.00109774,0.00027328,-0.03912767,0.63759739,-
 0.01313867,-0.00562123,0.00744975,0.00280748,-0.00069120,0.00457997,0.
 00289228,0.01543192,-0.00858984,0.00015192,-0.00112211,0.00050143,0.00
 869581,0.04791825,-0.07442509,-0.00028217,0.00116505,-0.00078891,0.018
 01069,-0.01108370,0.00733858,0.00033418,0.00044535,-0.00053992,-0.1442
 8233,-0.12737464,0.19898841,-0.00494943,-0.00379790,-0.00227216,0.0338
 9073,-0.02079025,0.00261650,0.00160261,-0.00118470,-0.00020309,-0.0171
 4740,0.03161242,-0.00616244,-0.00089550,0.00119785,0.00003894,-0.11759
 309,-0.03197021,-0.00165940,-0.00084310,0.00019666,0.00007081,-0.06284
 296,-0.03078638,0.00256333,0.00023281,-0.00105937,0.00013584,0.7340630
 3,-0.00206946,0.00477173,0.00080190,-0.06173575,-0.03131526,0.00409959
 ,-0.00149473,-0.00013299,-0.00099421,0.02324523,-0.04936348,0.00592232
 ,0.00049244,-0.00283641,0.00101683,0.03711872,-0.31369206,0.03581908,0
 .00059172,-0.00094418,0.00055875,0.02043341,0.06537231,-0.00520281,0.0
 0065313,0.00248122,-0.00060693,0.02361337,0.66464701,-0.00138819,0.000
 05953,0.00536855,0.00624198,-0.00272484,0.00504595,-0.00025513,-0.0010
 8663,0.00043181,-0.00295323,0.00717574,-0.00516561,0.00007482,0.000923
 79,-0.00077613,-0.00739491,0.03588488,-0.06711949,-0.00037242,0.000294
 87,-0.00055219,-0.00324619,-0.00535474,0.00827627,-0.00005083,-0.00040
 498,-0.00004100,0.07361528,-0.07582419,0.14739178,-0.05438633,-0.00627
 534,0.00849424,-0.00085870,0.00166248,-0.00073048,0.00885713,0.0819356
 4,-0.01966889,-0.00026716,-0.00163150,0.00100553,0.03945854,-0.0687115
 7,0.01143762,-0.00119270,0.00153997,-0.00126050,-0.31505404,0.04487319
 ,-0.00834052,0.00079132,0.00175382,-0.00030551,-0.25095632,-0.05919995
 ,0.07015878,0.00061493,-0.00169891,0.00046068,0.67152020,-0.00615935,0
 .00139822,0.00154676,0.00028167,-0.00175884,0.00126191,0.03099786,-0.0
 1096107,0.00574865,-0.00085529,0.00009319,0.00032281,-0.01811966,-0.03
 574350,0.01644350,0.00068417,0.00081116,-0.00012705,0.11546832,-0.1575
 5356,0.01563647,-0.00032338,-0.00001414,-0.00016278,-0.12657784,-0.196
 35485,0.06625020,0.00052452,-0.00048108,0.00003158,-0.02920314,0.70359
 323,0.00846549,-0.00277211,-0.00492668,-0.00028514,0.00134771,-0.00090
 721,-0.00821780,-0.00137894,0.00525804,0.00038857,0.00005062,-0.000366
 09,-0.00138019,0.02266420,-0.00002870,-0.00005521,-0.00073315,0.000114
 12,-0.01314323,0.01985225,-0.06028894,0.00006033,-0.00013814,0.0001888
 2,0.07890867,0.05208377,-0.09141319,-0.00033542,0.00049110,0.00002424,
 -0.06531200,-0.17208272,0.19073615,-0.00048612,-0.00110747,-0.00003373
 ,-0.05686350,-0.00169270,-0.00096474,-0.00070290,0.00132756,-0.0006531
 1,0.03030219,-0.07681667,0.00986347,-0.00058408,-0.00186278,0.00143021
 ,0.02161894,0.08072052,-0.01082092,0.00103591,-0.00152178,0.00056661,-
 0.28364041,-0.06489663,0.03176626,0.00038267,0.00187408,-0.00057266,-0
 .29849855,0.05606462,-0.03887804,-0.00183744,-0.00026094,0.00033465,0.
 68222805,0.00011895,-0.00208662,0.00135026,-0.00239259,0.00262236,0.00
 040915,0.00058880,0.00055371,0.00026195,-0.02498415,-0.03041100,0.0086
 9355,-0.00091843,0.00051471,0.00017063,0.02950701,-0.02171501,0.008523
 15,0.00048275,-0.00022990,-0.00021660,-0.13455087,-0.19048798,0.027437
 09,-0.00040065,-0.00031803,0.00003472,0.12538552,-0.17519445,0.0270599
 2,0.00001824,-0.00019161,0.00002351,-0.00150394,0.73477977,-0.00003596
 ,0.00126695,-0.00085837,-0.00034907,-0.00309283,-0.00383351,-0.0001940
 9,-0.00014863,-0.00020872,0.00263679,0.00821232,0.00420928,0.00020323,
 -0.00036712,-0.00007421,-0.00308246,0.00871292,0.00398661,-0.00013307,
 0.00007082,0.00014279,0.03386018,0.02329794,-0.06346717,0.00016407,0.0
 0023289,0.00004381,-0.04032368,0.02208568,-0.06495962,-0.00006152,0.00
 001023,-0.00000375,0.01008740,-0.11539140,0.15122058,-0.02222289,-0.00
 216523,-0.00556139,0.00124683,0.00361663,0.00133365,-0.16760330,0.0214
 0982,-0.03655711,0.00390025,0.00246068,0.00005586,-0.00012605,-0.00302
 149,-0.00161311,-0.00144512,-0.00122510,0.00022190,-0.01591754,0.01260
 330,-0.01295517,-0.00024381,-0.00108738,0.00053763,-0.00070421,-0.0001
 1621,0.00083522,-0.00069710,0.00139202,-0.00026694,0.00287393,-0.00075
 673,-0.00211291,0.00143287,0.00017823,-0.00005364,0.49573332,-0.015124
 71,0.01197966,-0.00600015,-0.00012516,-0.00109473,-0.00094454,0.000188
 97,-0.09037019,0.00547374,0.00084167,0.00165662,0.00095141,-0.00130569
 ,-0.00363378,0.00203647,0.00008140,0.00052732,0.00041539,0.03617556,-0
 .01122935,0.01337115,0.00008779,-0.00024485,0.00020009,0.00057847,0.00
 021705,-0.00066224,-0.00003634,-0.00023653,0.00004613,-0.00151514,-0.0
 0434471,0.00411367,-0.00008582,0.00031771,-0.00012570,0.01694218,0.509
 72216,0.00781215,-0.00104941,-0.00057911,0.00013636,-0.00012499,-0.002
 38225,-0.04656861,0.00660731,-0.07796617,-0.00019559,-0.00149323,-0.00
 145586,0.00063369,0.00422273,0.00395531,-0.00010300,-0.00055960,0.0002
 7499,-0.01229530,0.00978818,-0.00124365,-0.00113141,-0.00109156,0.0010
 2301,-0.00175082,-0.00355911,0.00027082,-0.00041967,0.00065539,0.00003
 205,0.00507474,0.00055757,0.00595581,0.00084385,0.00014339,0.00032648,
 -0.00923188,-0.01043993,0.50995179,0.00112098,-0.00474249,-0.00107602,
 -0.02627018,-0.00709733,0.00891259,0.00270884,-0.00008713,0.00115576,-
 0.15168949,-0.04138033,0.03037654,-0.00153022,0.00110116,-0.00006909,-
 0.00177064,0.00312398,0.00212174,-0.00034861,0.00083230,-0.00045152,-0
 .00810310,-0.01199827,0.00831104,-0.00022265,-0.00135507,0.00038703,-0
 .00159968,0.00076438,-0.00050768,0.00114201,0.00014694,-0.00034613,0.0
 0383325,0.00201209,0.00335352,0.00967729,0.01384320,0.00184611,0.49699
 145,0.00073027,-0.00417875,-0.00085878,0.00599792,0.01581223,-0.001201
 69,0.00162375,-0.00102181,-0.00177454,-0.02005346,-0.10020687,0.005196
 93,-0.00110054,0.00125187,0.00018668,0.00355961,-0.00282282,0.00211865
 ,-0.00014255,0.00071720,-0.00007233,-0.03467112,-0.02211678,0.01299296
 ,-0.00006373,-0.00108605,0.00013704,-0.00177562,-0.00049991,-0.0004855
 6,0.00087946,0.00039453,-0.00021777,0.00378266,-0.00364886,0.00203098,
 -0.00803119,-0.01489673,-0.02377975,-0.09706724,0.56638320,-0.00006212
 ,-0.00019983,-0.00206824,-0.00070650,0.00289064,-0.00042449,-0.0004398
 9,0.00084452,0.00105743,0.05345417,0.02269710,-0.07729916,0.00002797,-
 0.00014570,0.00025863,-0.00036465,0.00017510,0.00413364,0.00038034,-0.
 00069168,0.00011040,0.00654574,0.00678772,0.00397498,0.00027063,0.0002
 9308,-0.00003400,-0.00017415,-0.00100150,-0.00061843,-0.00042097,0.000
 29447,-0.00000187,0.00031722,0.00055875,0.00631479,-0.00865516,-0.0116
 7739,0.00603820,0.01069073,-0.00568472,0.48539011,-0.02347397,-0.00742
 170,0.01339604,0.00087308,-0.00462501,-0.00115759,-0.00170905,0.002915
 99,0.00179079,-0.00144066,0.00134488,-0.00005611,-0.13216975,-0.034485
 86,0.04147905,0.00257230,-0.00013897,0.00184643,-0.00175993,0.00046800
 ,-0.00008631,-0.00042633,-0.00144319,0.00030698,0.00041194,-0.00753841
 ,0.00900858,-0.00023337,0.00089276,-0.00024873,0.00401572,0.00355306,0
 .00258855,0.00131065,0.00019937,0.00000453,-0.00004478,-0.00039283,0.0
 0022203,0.00005570,0.00015033,0.00003068,0.50211049,0.00328046,0.01589
 154,-0.00185575,0.00121001,-0.00476578,-0.00168498,0.00384357,-0.00253
 910,0.00245467,-0.00155061,0.00205017,-0.00001723,-0.02144428,-0.10528
 041,0.01321034,0.00142908,-0.00115081,-0.00049969,-0.00174390,-0.00042
 588,-0.00031270,-0.00061419,-0.00180275,0.00025588,-0.02953440,-0.0232
 3717,0.02007071,-0.00092410,0.00153428,-0.00050564,0.00462767,-0.00309
 309,0.00183269,0.00179775,0.00021355,-0.00017885,0.00029325,0.00112094
 ,0.00040034,0.00017888,0.00008316,-0.00000890,-0.08367019,0.54624909,0
 .00052692,0.00232480,-0.00185561,-0.00068850,0.00027677,-0.00229036,0.
 00116962,0.00169555,0.00348500,0.00035923,-0.00054514,0.00064532,0.061
 25399,0.02799289,-0.10009068,-0.00048149,-0.00094158,-0.00164415,0.001
 02064,-0.00291173,-0.00007906,0.00073420,0.00085379,-0.00003253,0.0087
 5887,0.01250078,-0.00154842,0.00101412,-0.00131711,0.00049289,-0.00159
 131,0.00054028,0.00550549,-0.00119159,0.00050601,0.00016857,-0.0000423
 7,0.00061769,0.00022508,0.00015682,0.00013342,0.00000520,-0.02598113,0
 .01667236,0.48445297,0.00061608,0.00558326,0.00089287,-0.02384276,0.00
 212007,-0.00867015,-0.00133422,-0.00204673,0.00061371,-0.00132879,-0.0
 0223115,-0.00182079,0.00230733,0.00042304,-0.00267381,-0.15677869,0.03
 254244,-0.03255974,-0.00107363,0.00174311,-0.00031604,-0.00202337,-0.0
 0146233,0.00047441,-0.00030270,-0.00147619,0.00055614,-0.01003496,0.01
 340574,-0.01005312,0.00183838,0.00016608,-0.00022779,0.00507499,-0.001
 87810,-0.00302745,0.00006478,-0.00002614,-0.00014710,-0.00021087,0.000
 54168,-0.00010204,0.00737420,-0.01355373,-0.00707812,0.48787639,-0.000
 64088,-0.00394197,-0.00118553,-0.01017038,0.01576559,-0.00190275,0.000
 89505,0.00197371,-0.00035582,-0.00302687,-0.00403595,0.00179794,-0.001
 08703,-0.00170494,-0.00091873,0.01818333,-0.09786595,0.00296043,0.0008
 3539,-0.00152432,0.00024902,0.00162480,0.00013350,-0.00058211,0.000634
 10,0.00167483,-0.00072286,0.03553152,-0.01890629,0.01236292,-0.0017144
 7,-0.00007932,0.00010690,-0.00350148,-0.00418597,0.00137807,-0.0000780
 8,-0.00007661,0.00015977,-0.00068874,0.00099596,0.00063135,0.01110333,
 -0.00652140,-0.02539718,0.07698622,0.57206382,0.00020775,-0.00033807,-
 0.00262255,0.00157729,0.00181996,-0.00042820,-0.00014188,-0.00028629,0
 .00066712,-0.00060447,0.00132308,0.00430856,0.00002401,-0.00097267,-0.
 00108965,-0.05396857,0.01361438,-0.08260132,-0.00076853,0.00052564,0.0
 0013828,-0.00005635,-0.00238550,-0.00038224,-0.00068079,-0.00127718,0.
 00059964,-0.00732935,0.00782551,0.00353856,0.00090453,0.00071174,-0.00
 008438,0.00100084,0.00042757,0.00608754,-0.00003145,0.00004324,-0.0000
 0584,-0.00000123,0.00062827,0.00034158,0.00879597,-0.02178514,-0.00483
 575,0.02276425,0.01149841,0.47376000,-0.00009899,0.00143451,-0.0004171
 0,-0.00122455,-0.00205183,0.00018952,-0.01360394,0.02289157,0.00176444
 ,-0.02392408,-0.02346867,-0.01182647,0.00077370,-0.00121205,0.00002766
 ,0.00087867,0.00187124,0.00045910,-0.00125149,-0.00244017,0.00298338,0
 .00185499,0.00360039,-0.00172541,0.00092144,0.00171072,-0.00044160,0.0
 0152033,-0.00219161,0.00020959,-0.00161010,0.00080511,-0.00026637,-0.0
 0288347,-0.00035592,0.00042048,-0.09315251,0.02628832,0.00608063,-0.08
 050173,-0.01478623,-0.01967168,0.00022580,0.00000271,-0.00010233,0.000
 27040,0.00005138,0.00007896,0.77860032,-0.00161683,0.00429223,-0.00064
 854,0.00318564,0.00250151,-0.00054795,0.00853765,0.00425024,0.00938967
 ,-0.01815621,-0.01481259,0.00198466,-0.00032646,-0.00070922,-0.0010842
 7,0.00023490,-0.00092859,-0.00062376,-0.00358548,0.00107306,-0.0041230
 4,0.00026364,0.00176256,-0.00106673,-0.00155260,-0.00034617,0.00037717
 ,0.00162326,0.00018343,-0.00006559,0.00121872,-0.00012054,0.00011847,-
 0.00088961,-0.00111383,0.00093854,0.03361916,-0.16650583,-0.02469330,-
 0.01289842,-0.14215587,-0.05830164,-0.00032017,-0.00028221,-0.00043533
 ,0.00015433,0.00005701,-0.00035305,-0.13288752,0.47292190,-0.00023733,
 0.00314442,0.00098465,0.00221130,-0.00040965,-0.00072212,-0.00218252,0
 .01505425,-0.00078619,-0.01207307,0.00505142,0.01945119,0.00029043,-0.
 00150514,-0.00039672,0.00067785,0.00068767,-0.00133393,-0.00427069,0.0
 0056927,-0.00011741,0.00706394,0.00432795,-0.00328424,0.00011052,0.000
 95087,-0.00023240,0.00204016,-0.00090612,0.00026740,-0.00104139,0.0005
 1988,-0.00015553,-0.00279085,0.00023974,-0.00118549,0.01299799,-0.0305
 1643,-0.08757703,-0.00874520,-0.04757362,-0.12957545,-0.00006782,-0.00
 012334,-0.00025636,0.00024627,-0.00009629,-0.00022415,0.29814309,0.044
 59495,0.46762763,-0.00158530,-0.00438654,0.00087881,-0.00199041,0.0041
 7030,-0.00048884,0.00114419,0.00322693,-0.00024548,0.00135330,-0.00303
 374,-0.00045108,-0.02473185,-0.02164885,-0.00042193,-0.02848508,0.0205
 2270,0.00923242,0.00315716,-0.00332285,0.00014584,0.00235148,0.0036355
 5,-0.00031620,0.00274110,0.00620521,-0.00446514,0.00309469,-0.00569318
 ,0.00314089,-0.00500195,-0.00093953,0.00126118,-0.00491145,0.00035934,
 -0.00071170,-0.00006153,-0.00002687,0.00019144,0.00039840,0.00012517,0
 .00008909,-0.08503896,-0.01760589,-0.02038216,-0.08417346,0.01569682,0
 .02030962,-0.00123393,0.00017738,-0.00086401,0.97870486,0.00190630,0.0
 0204581,-0.00211848,-0.00271061,0.00216529,-0.00183520,0.00003920,-0.0
 0097279,-0.00031990,0.00027605,-0.00111468,-0.00050509,-0.01536416,-0.
 01492366,0.00410149,0.01384880,-0.01011745,0.00165425,0.00138171,0.000
 30487,-0.00038900,-0.00121553,0.00045456,-0.00014752,-0.00047656,0.002
 49390,-0.00172633,0.00039953,0.00177427,-0.00107796,-0.00060264,-0.000
 95778,0.00122477,0.00037254,-0.00095521,0.00096381,-0.00000186,-0.0000
 4363,-0.00026975,-0.00020966,-0.00017479,-0.00009510,-0.02247210,-0.12
 813056,-0.04494081,0.02003929,-0.12163808,-0.04694540,-0.00015022,0.00
 109846,0.00056803,0.06274841,0.36634170,0.00179449,0.00274217,-0.00052
 177,-0.00183707,0.00142375,-0.00028016,0.00038237,-0.00108699,-0.00142
 538,-0.00068855,-0.00024059,-0.00152732,0.00106587,0.01033740,0.020606
 34,0.00664303,0.00603796,0.02003278,0.00128296,0.00064232,-0.00038313,
 -0.00197540,-0.00046349,0.00002779,0.00441552,0.00244451,-0.00370457,-
 0.00626291,0.00317670,-0.00345877,-0.00101186,-0.00026108,-0.00082745,
 0.00205791,-0.00005943,-0.00090829,-0.00002132,-0.00008427,-0.00034386
 ,-0.00028988,-0.00017436,-0.00013642,-0.01907803,-0.04498076,-0.121550
 29,0.01819559,-0.04505857,-0.13026062,0.00007861,0.00109515,0.00074876
 ,-0.06980353,0.11860499,0.37025948,0.00022313,-0.00055797,-0.00026229,
 -0.00068851,0.00070564,0.00099968,0.00390831,0.00610647,0.00215169,0.0
 0655163,0.00245484,-0.00411705,-0.00017548,0.00051658,-0.00040905,0.00
 018546,-0.00047783,0.00022374,-0.00335163,0.00051020,-0.00152429,-0.00
 175774,-0.00121277,0.00098418,-0.00053425,-0.00050567,0.00023100,-0.00
 069081,0.00025823,-0.00012559,0.00072908,0.00045861,-0.00043853,0.0008
 6471,-0.00005495,0.00021390,-0.03248034,0.02875366,-0.01538565,-0.0298
 5890,-0.00405034,-0.03347357,-0.00012559,-0.00009886,-0.00008552,-0.00
 010521,0.00004820,0.00002428,-0.57931151,0.11695660,-0.28138764,0.0009
 7978,0.00013287,-0.00001466,0.63905986,0.00054425,-0.00170636,0.000284
 78,-0.00055434,-0.00081730,0.00002078,-0.00094660,-0.00661487,-0.00356
 404,0.00045972,0.00183832,-0.00174002,0.00013653,0.00036427,0.00056677
 ,-0.00019272,0.00029046,0.00033440,0.00286402,0.00002829,0.00113250,0.
 00049229,-0.00043558,0.00042052,0.00052380,-0.00000290,-0.00014425,-0.
 00048734,0.00000251,-0.00000568,-0.00032238,-0.00027332,0.00028751,0.0
 0015364,0.00054452,-0.00018654,0.04290062,-0.00415719,0.01716733,-0.01
 858389,0.01962008,-0.01531633,0.00014803,0.00011624,0.00020420,-0.0000
 6018,0.00004565,0.00014728,0.11830194,-0.12154474,0.04942254,-0.000210
 38,-0.00045774,-0.00044969,-0.14291595,0.10699884,-0.00010762,-0.00141
 225,-0.00035860,-0.00148241,-0.00023208,0.00103793,0.00080095,-0.00023
 625,0.00272755,0.00345639,-0.00049127,-0.00813174,-0.00003700,0.000504
 55,-0.00014412,-0.00000392,0.00002734,0.00063449,0.00008815,-0.0001386
 0,-0.00015511,-0.00228285,-0.00074055,0.00080021,-0.00012363,-0.000217
 53,0.00012648,-0.00068231,-0.00009176,-0.00009064,0.00024974,0.0000815
 1,-0.00027194,0.00057088,-0.00013421,0.00046915,-0.00942454,0.00894009
 ,0.01311233,-0.04547427,-0.00635678,-0.00466668,0.00000628,0.00002854,
 0.00004839,-0.00011593,0.00003345,0.00010521,-0.28180384,0.04775338,-0
 .23357287,0.00058752,-0.00021477,-0.00031134,0.33654116,-0.04962590,0.
 22549942,-0.00093415,0.00147486,0.00134100,-0.00084153,-0.00167614,-0.
 00119464,0.00010849,-0.00076868,0.00061065,0.00002717,0.00096460,-0.00
 046802,0.00425473,0.00073706,-0.00909003,0.00578822,-0.00088846,0.0074
 2556,-0.00122673,0.00049915,-0.00000767,-0.00113950,-0.00077243,0.0001
 8287,-0.00240118,-0.00183145,0.00208501,-0.00270088,0.00170674,-0.0015
 9677,0.00162805,0.00006154,0.00005343,0.00165314,0.00012717,-0.0002630
 5,0.00012698,0.00011127,-0.00003451,-0.00021044,-0.00013669,-0.0001316
 7,-0.04863062,-0.02054296,-0.00678582,-0.04712342,0.00892399,0.0199553
 9,0.00094245,-0.00016460,0.00066035,-0.76213268,-0.05697099,0.06711737
 ,-0.00083773,0.00019296,-0.00049378,0.85297770,-0.00073971,-0.00091662
 ,0.00086554,0.00075993,-0.00092450,0.00053215,0.00000273,0.00043109,0.
 00035518,-0.00001564,0.00040196,0.00032718,-0.00110899,0.00105752,-0.0
 0356049,0.00103341,0.00133259,-0.00230635,-0.00038576,-0.00027311,0.00
 012476,0.00032031,-0.00021601,0.00004354,0.00026903,-0.00036570,0.0006
 8315,-0.00050128,-0.00027922,0.00045756,-0.00002208,0.00035042,-0.0000
 9107,0.00009947,0.00040054,-0.00010792,0.00000919,0.00006335,0.0000977
 1,0.00007720,0.00010610,0.00003678,-0.03114838,0.01064315,-0.00434805,
 0.01988649,0.01750612,-0.00708291,0.00009827,-0.00045946,-0.00020189,-
 0.05728954,-0.09368937,-0.01379578,-0.00009367,0.00019969,0.00006028,0
 .06849982,0.06285063,-0.00055307,-0.00152196,0.00020973,0.00095692,-0.
 00099134,0.00035741,-0.00024916,0.00056528,0.00044789,0.00022350,0.000
 29695,0.00063399,-0.00092222,-0.00182842,-0.00511688,-0.00095734,-0.00
 130103,-0.00695727,-0.00026193,-0.00029937,0.00011834,0.00059227,-0.00
 002051,-0.00002118,-0.00125766,-0.00005688,0.00063867,0.00196631,-0.00
 028948,0.00075172,0.00007075,0.00002233,0.00030062,-0.00044083,-0.0000
 3907,0.00037514,-0.00000867,-0.00000201,0.00012965,0.00013547,0.000058
 66,0.00005283,-0.02229928,-0.00693796,0.02073796,0.03599772,-0.0053476
 4,0.01278383,-0.00008521,-0.00042792,-0.00033572,0.06696010,-0.0131368
 0,-0.09017716,0.00005695,0.00016626,0.00015873,-0.07980236,0.02534296,
 0.06067083,0.00055861,0.00130956,-0.00021793,0.00020447,0.00027475,0.0
 0013725,0.00376018,0.00393730,-0.00114277,-0.00003056,-0.00006146,0.00
 000806,0.00015907,0.00076877,-0.00046221,0.00002027,0.00001595,0.00000
 332,-0.22960414,-0.13275777,0.02812161,-0.00000818,-0.00000256,-0.0000
 1512,-0.00404016,0.00399277,-0.00091952,0.00004510,0.00000841,-0.00000
 637,-0.01905071,-0.02013199,0.00424719,0.00000199,-0.00003962,0.000007
 67,0.00041404,0.00302659,-0.00094257,0.00000173,-0.00000239,0.00007865
 ,0.00001937,-0.00011214,0.00007989,-0.00001253,0.00001098,-0.00001941,
 0.00035308,0.00008494,-0.00029696,0.00014960,0.00009330,0.00008878,-0.
 00003463,-0.00007901,0.00008108,-0.00009782,-0.00004623,-0.00002415,0.
 24672684,0.00366471,-0.00397094,0.00188169,-0.00135340,-0.00000119,0.0
 0004496,-0.02417218,-0.01759628,0.00450952,-0.00026843,-0.00001741,0.0
 0009630,0.00034494,0.00030959,-0.00027044,0.00024865,-0.00041902,-0.00
 007296,-0.13235081,-0.15343210,0.02860251,0.00009272,0.00001537,-0.000
 01853,0.00241952,-0.00039569,0.00131856,-0.00010346,-0.00000370,-0.000
 03323,0.01230989,0.01041535,-0.00188068,-0.00000811,-0.00002338,0.0000
 0244,-0.00234696,-0.00009316,-0.00106337,-0.00003122,0.00015902,0.0001
 5432,-0.00013245,0.00006113,-0.00010661,0.00000935,0.00000679,0.000001
 61,0.00057096,-0.00039851,-0.00047176,0.00009461,-0.00000602,-0.000008
 74,-0.00011325,0.00013210,0.00011807,-0.00008126,-0.00000444,0.0000025
 7,0.13941490,0.16435965,0.00266375,0.00329900,0.00475531,0.00085556,-0
 .00004260,0.00050163,0.00456228,-0.00421795,0.00368702,0.00008692,0.00
 006892,-0.00002498,-0.00228200,0.00316974,-0.00151149,-0.00013603,0.00
 024989,-0.00009416,0.02175012,0.03365793,-0.04170473,-0.00003882,-0.00
 011164,0.00000503,-0.00128914,-0.00041134,0.00690726,0.00009222,0.0001
 0707,-0.00003274,0.00289548,-0.00256529,0.00249291,0.00009176,0.000007
 79,0.00001486,0.00160207,-0.00085785,-0.00369255,-0.00000056,-0.000172
 82,-0.00005489,-0.00047740,-0.00030345,-0.00036086,-0.00011856,0.00005
 816,-0.00014574,0.00003229,-0.00025252,0.00022080,0.00023758,0.0000742
 5,0.00022604,0.00001324,-0.00006879,-0.00000948,-0.00010386,-0.0000510
 5,-0.00006781,-0.02956949,-0.03189883,0.03170922,-0.00004048,-0.000288
 45,-0.00012710,0.00087525,-0.00020423,0.00056725,-0.00002379,0.0000265
 1,-0.00003167,-0.00005625,-0.00212486,0.00096097,0.00002048,0.00007899
 ,-0.00003514,0.00050140,-0.00029719,0.00010927,0.00000003,0.00000516,0
 .00001873,-0.27718102,0.11723849,0.00922084,0.00001584,-0.00000626,0.0
 0001958,-0.00239909,-0.00436659,0.00165121,-0.00000342,0.00003798,-0.0
 0001017,-0.01917678,0.01447449,-0.00006909,-0.00001516,-0.00004288,-0.
 00009400,0.00060947,-0.00226448,0.00028997,0.00000392,0.00000425,-0.00
 000378,0.00003722,0.00005628,-0.00012883,0.00013246,-0.00010965,-0.000
 07096,0.00010324,-0.00004825,-0.00006916,-0.00000413,-0.00002355,0.000
 12588,-0.00007362,0.00002014,0.00002732,0.00000898,0.00001275,-0.00000
 351,0.29578425,0.00146140,0.00014731,-0.00028863,-0.00225591,-0.004880
 68,0.00143841,0.00018507,0.00006702,0.00009080,0.02793890,-0.01318904,
 -0.00055291,-0.00017938,-0.00049410,0.00000927,-0.00058710,-0.00030288
 ,0.00002219,-0.00008315,-0.00000115,-0.00001524,0.11482155,-0.11490487
 ,0.00201298,0.00012186,0.00000593,-0.00004493,-0.00284688,-0.00152156,
 0.00126508,0.00000630,-0.00001783,-0.00000092,-0.01705187,0.01150832,0
 .00035431,0.00009039,0.00018005,0.00010341,0.00213953,-0.00041136,-0.0
 0155504,-0.00002338,0.00000064,0.00002452,0.00007262,0.00012915,-0.000
 11043,0.00004209,-0.00057442,0.00013725,-0.00003905,-0.00004641,-0.000
 04336,-0.00017665,0.00043512,-0.00017638,0.00004342,0.00002046,0.00000
 604,-0.00000980,-0.00003502,0.00000645,-0.12191095,0.12257906,-0.00053
 274,-0.00008602,0.00055861,-0.00261678,0.00195918,0.00564812,-0.000062
 71,0.00003685,0.00000238,-0.00052049,-0.00426132,0.00289739,0.00003520
 ,0.00016602,-0.00011019,0.00110357,0.00308417,-0.00130091,0.00004978,-
 0.00008802,0.00001527,0.01306846,0.00616096,-0.03679471,-0.00008872,0.
 00008342,-0.00003111,0.00220046,0.00043144,0.00657261,-0.00007756,-0.0
 0001068,0.00002610,0.00053612,-0.00426362,0.00269906,0.00006288,-0.000
 03975,-0.00016030,-0.00309835,-0.00010548,-0.00362245,0.00007431,0.000
 06919,-0.00014420,0.00048312,-0.00019965,-0.00053141,0.00020292,-0.000
 48718,0.00069402,-0.00018419,0.00002088,0.00025469,-0.00023976,0.00022
 042,-0.00042680,0.00009498,-0.00003196,-0.00008548,0.00000156,0.000003
 44,0.00000551,-0.01140441,-0.00267736,0.02655699,0.00057385,0.00063257
 ,0.00134844,-0.00024464,-0.00030764,-0.00002449,0.00066936,0.00037076,
 -0.00029721,0.00004849,0.00013467,-0.00002651,-0.00157945,-0.00192736,
 0.00191936,-0.00006150,0.00001884,-0.00006024,-0.00092571,-0.00383254,
 0.00334063,-0.00001023,0.00000495,0.00000648,-0.28272487,0.10562109,0.
 04266144,0.00001530,-0.00000756,0.00000506,-0.01801458,0.01150897,0.00
 230475,-0.00001045,0.00003549,-0.00000257,0.00001273,0.00002720,-0.000
 13053,0.00002160,0.00000744,-0.00001031,-0.00001317,-0.00201054,-0.000
 03702,0.00003424,-0.00003320,-0.00008834,0.00009589,-0.00009017,-0.000
 01797,0.00015011,0.00001701,0.00008275,-0.00009458,0.00005460,-0.00002
 840,0.00005284,0.00000364,0.00000020,-0.00085599,0.00048298,-0.0001482
 1,-0.00000510,0.00001559,-0.00000502,0.30113995,-0.00196237,-0.0045310
 1,0.00247474,0.00145010,-0.00003511,-0.00032694,-0.00043686,-0.0000687
 4,0.00006318,-0.00025788,-0.00041861,-0.00009474,0.02865890,-0.0114532
 9,-0.00427515,0.00026196,0.00003748,0.00015069,-0.00230659,-0.00157676
 ,0.00255438,0.00011641,-0.00001337,0.00000267,0.10333071,-0.09897931,-
 0.00957937,-0.00008365,-0.00000098,-0.00001630,-0.01852257,0.01085025,
 0.00276191,0.00001608,-0.00001268,-0.00000696,-0.00001658,0.00007968,-
 0.00017807,-0.00000358,0.00002691,0.00000707,0.00121674,-0.00015754,-0
 .00209235,0.00000745,0.00011366,0.00012664,-0.00004073,-0.00006572,-0.
 00007226,0.00002878,-0.00068997,-0.00011596,0.00002092,0.00001456,0.00
 003511,-0.00025348,0.00023708,0.00000365,-0.00083102,0.00023794,-0.000
 20343,0.00000748,-0.00004610,0.00002881,-0.10996576,0.10550385,-0.0022
 9913,0.00257426,0.00558420,-0.00056963,0.00002285,0.00060328,0.0005881
 8,0.00302335,-0.00154572,0.00005539,0.00011082,-0.00003945,-0.00191088
 ,-0.00336419,0.00364712,-0.00008758,0.00014081,-0.00005030,0.00353680,
 0.00248978,0.00524512,-0.00005174,0.00011599,-0.00006287,0.04639520,-0
 .00525441,-0.04637994,0.00004691,-0.00014972,0.00001732,0.00639444,-0.
 00716500,0.00222564,-0.00012712,-0.00000070,0.00001106,0.00015452,-0.0
 0044380,-0.00048451,0.00010763,0.00003029,-0.00004637,-0.00347986,0.00
 003931,-0.00271124,0.00002295,-0.00011865,-0.00012672,-0.00015171,0.00
 012759,0.00006341,-0.00000378,-0.00042221,0.00054995,0.00009287,-0.000
 07899,0.00001786,-0.00024123,-0.00001939,-0.00024415,0.00097193,-0.000
 33796,0.00080545,-0.00000115,0.00002495,-0.00002453,-0.04908741,0.0088
 9127,0.03647333,0.00002739,0.00034810,0.00015754,0.00059057,0.00056537
 ,-0.00082085,0.00001965,-0.00006041,0.00004180,0.00044622,0.00029931,-
 0.00006603,0.00000662,0.00001062,0.00003739,0.00225940,0.00335589,-0.0
 0081077,0.00000572,0.00002126,-0.00002340,-0.00293702,0.00428243,-0.00
 199664,-0.00000309,-0.00002138,0.00000457,-0.25547279,-0.12810318,-0.0
 1437963,0.00002353,-0.00003072,0.00000584,-0.01932292,-0.01709034,-0.0
 0043096,0.00001140,0.00000194,-0.00001724,0.00003249,-0.00004767,0.000
 15361,0.00004271,0.00000038,0.00005120,0.00034716,0.00227719,-0.000102
 08,0.00007298,0.00006897,0.00009117,0.00016245,0.00006285,-0.00000861,
 -0.00005237,-0.00002852,-0.00004406,0.00004750,-0.00002593,-0.00005858
 ,-0.00000449,-0.00000624,-0.00000193,-0.00096135,-0.00079515,0.0004234
 1,0.00000893,-0.00000834,0.00000204,0.27296305,-0.00149703,-0.00020528
 ,-0.00019205,0.00263191,-0.00448395,0.00134497,0.00029672,-0.00037002,
 -0.00013376,0.00070194,-0.00030555,0.00003321,-0.00024525,-0.00002152,
 0.00019606,-0.02681887,-0.01485935,-0.00144073,-0.00010155,-0.00004399
 ,0.00002672,0.00272278,-0.00088558,0.00112229,0.00008096,0.00003050,-0
 .00002692,-0.12603969,-0.13532637,-0.00190547,-0.00003146,-0.00002703,
 -0.00000177,0.01445185,0.01152550,0.00065228,0.00004220,0.00000847,0.0
 0001990,-0.00008276,0.00010240,-0.00009829,-0.00000101,0.00013822,0.00
 015830,-0.00185090,-0.00018725,-0.00162207,0.00006037,-0.00004774,0.00
 000481,0.00008449,-0.00061197,-0.00018286,-0.00004505,0.00003456,-0.00
 002555,0.00019489,0.00027198,-0.00001443,0.00000056,-0.00004489,0.0000
 4135,0.00068303,0.00035001,-0.00031120,0.00001554,-0.00003587,-0.00000
 047,0.13404317,0.14382777,0.00053844,0.00007047,0.00053573,0.00242617,
 0.00210261,0.00567649,-0.00012317,0.00006084,-0.00007498,-0.00121226,0
 .00294689,-0.00125216,0.00004311,0.00017494,-0.00005493,0.00081151,-0.
 00421159,0.00296797,0.00000715,0.00011470,-0.00007829,-0.00240394,0.00
 040060,0.00652575,-0.00002158,-0.00016907,0.00003400,-0.01860574,0.001
 81378,-0.03739801,0.00013388,0.00002488,-0.00001294,-0.00045242,-0.004
 61084,0.00270630,-0.00009827,-0.00006418,-0.00008739,-0.00049598,-0.00
 030077,-0.00062296,-0.00003111,-0.00009553,-0.00013754,0.00285548,0.00
 046303,-0.00345212,0.00015536,0.00008407,0.00029084,0.00008820,-0.0004
 9553,0.00050484,-0.00005266,-0.00005190,-0.00010179,0.00021920,0.00005
 777,-0.00027715,0.00000099,0.00002095,-0.00002532,-0.00041787,-0.00035
 273,0.00072958,-0.00000112,0.00000016,0.00000810,0.01705781,0.00190750
 ,0.02715950,-0.00110510,-0.00022217,0.00017901,0.00014314,-0.00004127,
 -0.00019286,-0.00497451,0.00080514,-0.00025767,-0.00010617,-0.00007529
 ,0.00008452,-0.00289227,-0.00193799,0.00306840,-0.00004723,0.00007610,
 -0.00002857,0.00121401,0.02925758,-0.00724756,0.00004449,0.00003486,-0
 .00001205,0.00879189,-0.02424283,0.00529866,0.00004756,-0.00004032,0.0
 0001628,-0.06563123,0.03952799,-0.00661230,-0.00004600,0.00000327,-0.0
 0000569,0.00014095,0.00137487,0.00021328,0.00007342,0.00006886,-0.0000
 1051,0.00024042,-0.00110040,-0.00009545,0.00004631,-0.00002487,-0.0000
 1118,-0.00026655,-0.00037011,-0.00039173,0.00005631,0.00009425,0.00043
 912,-0.00021071,0.00026914,0.00002596,-0.00014643,-0.00004125,-0.00014
 701,0.00104471,-0.00044923,-0.00002334,0.00000042,-0.00000567,-0.00000
 211,0.00064947,0.00026691,-0.00109842,0.00000263,0.00000563,0.00000366
 ,0.06309052,-0.00013239,0.00053753,-0.00014572,-0.00003452,-0.00002713
 ,-0.00031977,0.00179130,0.00168859,0.00173945,-0.00003352,-0.00002373,
 -0.00001081,-0.00234572,0.00095052,0.00271657,0.00001716,-0.00002760,0
 .00000393,-0.00174538,-0.00728454,0.00246871,0.00001192,-0.00000049,0.
 00000900,0.00574947,-0.01240699,0.00280680,-0.00000678,-0.00001216,0.0
 0000561,0.03991639,-0.31612808,0.07420623,-0.00000770,0.00000472,-0.00
 000783,-0.00004333,-0.00074940,-0.00006346,0.00000130,-0.00002155,-0.0
 0001068,0.00020444,-0.00081902,-0.00011406,0.00001214,-0.00000551,-0.0
 0005275,-0.00013251,0.00041801,0.00017459,0.00027275,0.00020529,0.0004
 4334,0.00024666,-0.00021252,0.00002203,-0.00025516,-0.00008574,-0.0001
 3481,0.00025582,0.00050844,-0.00119974,0.00000544,-0.00000360,0.000002
 66,-0.00053253,0.00049820,-0.00118346,-0.00000580,-0.00000488,0.000003
 93,-0.04310959,0.33317812,0.00045816,-0.00015202,-0.00024891,-0.000183
 89,-0.00037536,-0.00107566,-0.00073751,0.00011298,0.00681518,-0.000166
 38,-0.00000774,0.00009003,0.00408541,0.00154878,0.00554857,0.00016713,
 -0.00004750,0.00011939,-0.00125586,0.00041417,0.00244744,-0.00001179,0
 .00000285,0.00001295,-0.00182305,0.00920305,0.00044716,0.00000659,-0.0
 0005062,0.00002896,-0.00610302,0.07259347,-0.05497804,-0.00002842,0.00
 000806,-0.00002335,0.00038823,-0.00042920,0.00013328,0.00005420,0.0000
 5129,0.00000261,-0.00050931,0.00023514,0.00027588,-0.00004219,0.000092
 02,-0.00004999,-0.00033671,0.00034026,0.00003514,0.00028210,0.00004607
 ,-0.00004608,0.00016151,-0.00010365,0.00000258,-0.00000066,-0.00001036
 ,0.00005149,0.00007786,-0.00089957,-0.00338217,-0.00000412,0.00000134,
 0.00000015,-0.00119080,-0.00115530,-0.00303756,0.00000058,-0.00000560,
 0.00000207,0.00674947,-0.08146557,0.04703282,0.00017113,0.00000252,0.0
 0001334,-0.00122252,-0.00006831,-0.00002047,-0.00006950,0.00004656,-0.
 00003897,-0.00403317,-0.00198659,0.00124170,-0.00005349,-0.00008295,0.
 00006468,-0.00441500,0.00150103,-0.00157855,0.00005019,-0.00001824,0.0
 0001142,0.00638118,-0.02731906,0.00395832,0.00003669,0.00003410,-0.000
 01978,0.00450996,0.02859891,-0.00406275,-0.00003420,-0.00000590,0.0000
 0913,-0.06083251,0.01078710,-0.00227389,0.00004101,-0.00001120,-0.0000
 1358,0.00010496,-0.00125715,-0.00005828,0.00005185,0.00004009,0.000007
 57,0.00017909,0.00125531,0.00017366,-0.00003110,0.00016382,0.00047035,
 -0.00002979,-0.00009940,-0.00050946,-0.00009775,-0.00001638,-0.0002018
 4,-0.00015013,0.00001994,0.00020189,0.00000190,0.00000757,0.00000166,0
 .00093122,0.00044370,-0.00038937,0.00000195,-0.00000623,-0.00000349,0.
 00093205,-0.00042085,0.00053156,0.00000246,-0.00000013,-0.00000264,0.0
 5789237,0.00000204,0.00000838,-0.00019876,-0.00010137,0.00054721,-0.00
 010896,0.00001976,-0.00001484,-0.00001115,-0.00262263,0.00092320,0.001
 51839,-0.00000194,-0.00004133,0.00000256,0.00219852,0.00134426,0.00145
 250,-0.00000299,-0.00000312,0.00001142,0.00399528,-0.01171313,0.001970
 26,0.00001379,0.00000585,-0.00000282,-0.00265803,-0.00970533,0.0015797
 0,-0.00000497,0.00000025,-0.00000553,0.01074558,-0.33253563,0.05051858
 ,0.00001985,-0.00000648,-0.00005545,0.00010989,-0.00079296,-0.00008391
 ,-0.00001873,-0.00000570,-0.00004239,-0.00011262,-0.00067291,-0.000138
 11,0.00012258,0.00018883,0.00044942,-0.00018655,0.00013932,0.00041193,
 -0.00016018,-0.00003761,-0.00019744,0.00021254,-0.00003909,-0.00015435
 ,-0.00000598,-0.00000464,0.00000412,-0.00026709,0.00068544,-0.00080250
 ,0.00000699,-0.00000340,0.00000278,0.00031391,0.00068354,-0.00075624,0
 .00000176,-0.00000771,0.00000353,-0.01164195,0.35126945,0.00000408,-0.
 00033119,-0.00107253,-0.00010286,-0.00007543,-0.00039084,0.00018891,0.
 00004671,0.00013863,0.00201344,0.00033874,0.00677521,-0.00011089,-0.00
 011034,0.00012853,-0.00231270,0.00038232,0.00673561,0.00002264,-0.0000
 1317,-0.00000107,0.00066680,0.00362124,0.00203965,-0.00000043,-0.00001
 688,0.00002445,-0.00060659,0.00397068,0.00195153,-0.00000671,-0.000006
 42,-0.00002125,-0.00238465,0.04890104,-0.04378842,-0.00004938,0.000025
 96,-0.00011353,-0.00026995,0.00001036,0.00003842,0.00000285,0.00009881
 ,-0.00004836,0.00042318,0.00000355,0.00008618,0.00015041,-0.00001330,0
 .00006858,-0.00030881,0.00004860,0.00014982,-0.00001274,-0.00002809,0.
 00004430,0.00007626,-0.00002541,-0.00000896,0.00000106,-0.00000336,0.0
 0000152,-0.00053388,-0.00065376,-0.00351062,0.00000072,-0.00000447,0.0
 0000173,0.00069036,-0.00058957,-0.00350821,0.00000191,0.00000468,0.000
 01180,0.00252158,-0.05546164,0.03438431,-0.00409514,0.00298356,-0.0014
 3528,0.00002714,0.00056401,0.00005458,-0.01987952,-0.02006047,0.007797
 91,-0.00036807,-0.00026058,-0.00012897,-0.00013195,-0.00169019,-0.0000
 2403,0.00003169,-0.00012612,0.00001460,0.00021137,-0.00295318,-0.00013
 230,0.00005470,0.00004246,-0.00001599,0.00027010,0.00057425,-0.0001779
 3,0.00001954,-0.00000327,-0.00000441,-0.00024967,0.00029590,0.00000278
 ,-0.00003088,-0.00004894,0.00003125,-0.13835586,-0.11014388,0.05219063
 ,-0.00072297,0.00007330,0.00142780,-0.00014458,0.00033081,0.00012041,0
 .00003657,-0.00002956,0.00000339,0.00932815,0.01019228,-0.00706602,0.0
 0009730,0.00009657,0.00004886,-0.00134392,0.00016472,0.00082012,-0.000
 06430,-0.00003234,-0.00002580,0.00012801,0.00169358,-0.00027401,0.0000
 0863,-0.00005616,-0.00001359,0.00004063,0.00005862,-0.00010145,0.00000
 089,-0.00001771,0.00000585,-0.00001754,-0.00000071,-0.00000392,0.00000
 561,-0.00000233,-0.00000353,0.15697192,0.00119583,0.00068624,0.0008677
 6,0.00003779,-0.00011759,0.00004121,0.00092169,0.00212218,-0.00194184,
 0.00039926,0.00101970,0.00049992,-0.00012302,0.00007707,0.00002313,0.0
 0004165,0.00001533,-0.00003931,0.00390530,-0.00065387,0.00062611,0.000
 14061,-0.00001226,0.00001037,0.00017036,-0.00019555,-0.00016705,-0.000
 02013,0.00000234,-0.00001578,-0.00005248,0.00024587,-0.00064631,0.0000
 2273,0.00004175,-0.00005298,-0.11820619,-0.18318472,0.06810840,0.00333
 590,-0.00103991,-0.00213630,-0.00000659,-0.00000774,-0.00003532,-0.000
 01926,0.00001002,0.00000291,-0.01702947,-0.02468110,0.01117284,0.00004
 678,0.00000394,0.00000992,0.00142371,0.00323237,-0.00221777,-0.0000450
 9,-0.00000498,-0.00000173,0.00094649,0.00009093,0.00102478,0.00000793,
 0.00003252,0.00001935,0.00004302,0.00006739,0.00014368,-0.00000684,-0.
 00000314,0.00000831,-0.00002010,0.00002381,0.00006375,0.00000755,0.000
 00225,0.00000390,0.12066994,0.19954007,-0.00150736,0.00182773,0.000218
 95,0.00014024,-0.00010038,0.00009684,-0.01123151,-0.01024197,0.0027616
 0,0.00025695,0.00031376,0.00013309,-0.00069024,-0.00037878,0.00022234,
 0.00001002,0.00003431,-0.00002189,-0.00096789,-0.00078719,-0.00025921,
 0.00004239,-0.00000331,-0.00004206,-0.00002811,-0.00015435,0.00015739,
 0.00002771,-0.00000924,-0.00002868,0.00014067,-0.00022094,-0.00009954,
 0.00000594,-0.00001526,-0.00001245,0.05385929,0.06377585,-0.06836939,0
 .00117452,-0.00018110,-0.00115796,-0.00012821,0.00018465,0.00005137,-0
 .00000865,-0.00000177,-0.00000634,-0.00347505,-0.00715292,0.00149922,-
 0.00000296,0.00001071,0.00002641,-0.00141960,0.00086596,0.00046032,0.0
 0001265,-0.00000444,-0.00001702,-0.00018301,0.00036466,0.00030667,0.00
 001135,0.00000386,-0.00000036,-0.00000036,0.00000131,-0.00001832,-0.00
 000053,0.00000170,0.00000741,0.00002931,-0.00002715,-0.00005347,0.0000
 0206,0.00000582,0.00001203,-0.05510989,-0.07247018,0.07622661,0.001588
 24,0.00165260,-0.00130441,0.00016005,0.00026310,-0.00039070,-0.0070262
 7,-0.00271832,-0.02985074,-0.00048805,0.00019355,0.00054346,-0.0002054
 8,0.00096216,0.00086594,0.00010162,-0.00017192,-0.00004394,-0.00099629
 ,-0.00046398,-0.00051276,0.00010950,-0.00011497,0.00006215,-0.00080214
 ,-0.00047750,0.00006510,0.00011322,0.00011407,0.00002913,0.00045538,-0
 .00008018,0.00130316,0.00011484,-0.00012294,-0.00002037,-0.04162984,0.
 00244773,0.01350297,-0.00019788,0.00165236,-0.00070708,-0.00004347,0.0
 0023130,0.00010512,-0.00003222,0.00006833,-0.00002715,-0.00087055,-0.0
 0115188,0.01411637,0.00014529,-0.00000280,-0.00002727,-0.00002321,0.00
 122417,-0.00163079,-0.00008652,-0.00001006,0.00000876,0.00010382,0.000
 08363,-0.00047770,0.00002830,-0.00005685,0.00001692,-0.00000799,-0.000
 00429,-0.00001197,-0.00000389,-0.00001001,0.00001131,-0.00002568,0.000
 04050,-0.00008221,0.00002272,0.00000806,-0.00002200,-0.00187415,0.0026
 7964,0.01926687,0.05127426,-0.00090811,-0.00074596,-0.00003214,-0.0000
 5304,0.00073092,0.00006813,0.00218918,0.00060459,0.00383616,0.00065760
 ,-0.00012338,-0.00082836,0.00006134,-0.00036515,0.00017667,-0.00036027
 ,-0.00044100,0.00014480,0.00116596,-0.00045161,0.00060205,-0.00037039,
 -0.00050608,0.00026090,0.00037238,0.00024833,-0.00008740,-0.00029484,0
 .00037277,-0.00007416,-0.00052296,-0.00005615,-0.00089442,0.00043650,0
 .00006225,0.00011051,0.00318076,-0.04242558,-0.03680986,0.00075285,-0.
 00485470,0.00143857,-0.00002949,0.00007352,0.00001275,0.00002048,-0.00
 002577,0.00000316,0.00579402,-0.00853877,-0.03276841,-0.00003863,-0.00
 005272,-0.00004616,-0.00321553,0.00188449,0.00222131,0.00003234,0.0000
 1730,0.00001250,-0.00002108,0.00008048,0.00063933,-0.00002061,0.000033
 53,-0.00005769,0.00003209,0.00003515,0.00007892,0.00000067,0.00000231,
 -0.00004870,0.00002659,-0.00001832,0.00006059,-0.00000361,-0.00001475,
 -0.00001348,-0.00254422,0.00339363,0.02464000,-0.00608378,0.05133515,0
 .00145951,0.00127040,0.00065817,0.00000964,-0.00052900,-0.00012669,-0.
 00525019,0.00015947,-0.01005429,0.00005521,0.00001784,-0.00023823,-0.0
 0065026,0.00069943,0.00003550,0.00010081,0.00000805,0.00000803,-0.0001
 7998,-0.00047130,0.00091795,-0.00014096,-0.00017924,0.00016445,-0.0001
 0754,-0.00033778,-0.00011007,0.00001317,0.00004996,-0.00001038,-0.0004
 0570,0.00011399,0.00063866,0.00012139,-0.00000956,0.00002571,0.0183471
 4,-0.03426904,-0.29763951,0.00077115,-0.00104249,0.00034277,0.00001031
 ,0.00005234,0.00005440,-0.00004931,0.00005897,-0.00000635,0.00046122,-
 0.00197356,-0.00743772,0.00008920,-0.00000881,-0.00001308,-0.00121596,
 0.00125506,0.00216660,-0.00004925,0.00000025,0.00000764,-0.00005233,-0
 .00010429,-0.00055424,-0.00000204,-0.00000022,-0.00001999,-0.00003741,
 -0.00003262,-0.00006186,-0.00000435,0.00000077,-0.00000350,-0.00003694
 ,0.00002879,-0.00002569,-0.00000197,-0.00000875,-0.00002030,0.00145105
 ,-0.00156090,-0.01148639,-0.01468381,0.03680183,0.32247944,0.00006912,
 -0.00012006,0.00003956,-0.00203133,-0.00370887,0.00198099,-0.00029022,
 0.00015647,0.00000827,-0.02047034,0.01780840,0.00616364,0.00018808,-0.
 00002746,-0.00005072,-0.00050094,0.00130184,-0.00033816,0.00011293,-0.
 00008881,0.00005607,0.00036219,0.00260949,-0.00072164,0.00005951,0.000
 12965,0.00000395,0.00029465,-0.00015652,0.00019161,-0.00012110,0.00001
 945,0.00001479,-0.00005985,-0.00034567,-0.00021657,-0.00094777,-0.0012
 9356,-0.00207467,-0.16030814,0.13034170,0.03884854,-0.00001705,-0.0000
 0366,-0.00002492,-0.00011196,-0.00037949,-0.00016130,0.00986850,-0.012
 30632,-0.00399034,0.00011155,-0.00001275,-0.00001347,0.00087529,0.0003
 5813,0.00173246,-0.00007163,-0.00000695,0.00001653,0.00001303,0.000037
 64,-0.00000765,0.00073524,-0.00123517,0.00050762,-0.00000886,0.0000128
 6,-0.00001266,0.00004599,-0.00005625,0.00009544,0.00000428,0.00000233,
 -0.00000466,-0.00000362,0.00000459,0.00000578,0.00009287,-0.00013853,-
 0.00001694,0.00024484,-0.00058937,-0.00015590,0.17567325,-0.00000271,-
 0.00018757,0.00010872,-0.00167223,-0.00167811,0.00107639,-0.00087367,0
 .00048206,-0.00026660,-0.01037318,0.00974402,0.00393927,0.00004275,0.0
 0002226,0.00004537,-0.00052027,0.00024718,-0.00015639,0.00007417,0.000
 06562,0.00003139,-0.00379361,-0.00045419,0.00130903,0.00008053,0.00000
 015,-0.00001276,-0.00023274,0.00016166,-0.00002104,-0.00001185,0.00004
 962,-0.00000837,0.00015978,0.00042496,0.00016043,-0.00186299,-0.001043
 22,-0.00329404,0.13126997,-0.19332678,-0.04320612,0.00000860,0.0000080
 8,0.00003503,-0.00008712,-0.00019662,-0.00015634,0.01638604,-0.0193256
 4,-0.00381050,0.00000741,-0.00007940,-0.00006525,-0.00089223,0.0036677
 4,0.00276649,0.00004079,0.00002954,0.00002600,0.00000515,0.00004157,-0
 .00000139,-0.00051504,-0.00026821,0.00041496,0.00000860,-0.00000019,-0
 .00001410,0.00001326,0.00000187,-0.00003531,0.00001724,-0.00001717,-0.
 00000654,0.00004537,0.00001388,-0.00002259,0.00001946,-0.00041137,-0.0
 0016989,0.00026317,-0.00107727,-0.00030674,-0.13574225,0.21324657,-0.0
 0013677,0.00031350,0.00001306,0.00084898,0.00162686,0.00016063,-0.0005
 0589,0.00065304,0.00025566,0.00796514,-0.00796191,-0.00314584,0.000233
 52,-0.00019828,-0.00001451,0.00044016,-0.00030319,0.00046083,0.0002315
 4,-0.00028083,0.00019427,0.00080637,-0.00085678,-0.00003871,0.00003632
 ,0.00023590,-0.00007318,0.00006636,-0.00016486,0.00001936,-0.00026178,
 -0.00005462,0.00006346,-0.00037266,0.00002928,-0.00014982,-0.00326036,
 -0.00242403,-0.00074474,0.03665629,-0.03989001,-0.06457804,-0.00000868
 ,-0.00001095,-0.00001636,0.00008557,0.00022773,0.00001179,0.01654980,-
 0.01912644,-0.00505959,-0.00001606,-0.00000464,0.00000075,0.00034126,0
 .00334134,0.00190762,0.00000120,-0.00000181,-0.00000786,0.00000012,0.0
 0002442,-0.00002248,0.00004151,0.00092856,0.00014584,0.00000409,0.0000
 0253,-0.00000912,-0.00004433,0.00003146,0.00001037,0.00000020,-0.00000
 171,-0.00000318,-0.00001410,-0.00002003,-0.00004332,0.00030661,-0.0008
 8505,-0.00042181,0.00011282,-0.00021528,-0.00010405,-0.04324380,0.0461
 5480,0.06303473,-0.00008896,-0.00100468,0.00037517,0.00105719,-0.00005
 626,0.00116252,0.00070201,-0.00047292,-0.00018310,0.00155240,-0.016004
 30,0.02494852,-0.00049413,0.00045076,-0.00011012,0.00025091,-0.0006907
 9,-0.00059808,-0.00029401,0.00067319,-0.00016727,-0.00281575,-0.000333
 90,0.00061608,-0.00012013,-0.00048525,0.00009525,-0.00036006,0.0000743
 6,0.00011604,0.00053078,0.00005375,-0.00007530,0.00009138,-0.00059064,
 -0.00116785,-0.00009023,-0.00032290,0.00184400,-0.05304433,0.03547703,
 -0.04780289,0.00004313,0.00004127,0.00005567,0.00002385,-0.00007207,-0
 .00001462,-0.00607297,0.00987208,-0.01375075,-0.00002381,-0.00001794,-
 0.00002098,-0.00151732,-0.00437207,-0.00107046,0.00004564,0.00001792,0
 .00000788,-0.00001493,-0.00003192,-0.00002421,0.00012369,-0.00011364,0
 .00047790,0.00001266,0.00000420,0.00003492,-0.00000243,0.00001544,0.00
 002628,0.00001820,-0.00000456,0.00000963,-0.00014703,-0.00012566,-0.00
 001073,0.00003417,-0.00031094,-0.00015571,-0.00003335,0.00034685,0.000
 16198,-0.00367057,0.00821610,-0.01690823,0.06434220,0.00018147,0.00185
 778,0.00015277,0.00175140,-0.00117339,-0.00131216,-0.00115265,0.000367
 76,0.00016039,-0.00127328,-0.00893307,0.01329701,0.00057861,-0.0004517
 2,0.00002377,0.00001376,0.00008619,-0.00034167,0.00053966,-0.00095978,
 0.00033198,-0.00124232,0.00032686,0.00076415,0.00022240,0.00067014,-0.
 00018715,0.00035745,-0.00039221,0.00008394,-0.00075892,-0.00002699,0.0
 0016062,-0.00099508,-0.00055211,-0.00098699,0.00016179,-0.00129321,0.0
 0062627,0.03643270,-0.11217305,0.10357724,-0.00001254,-0.00008909,-0.0
 0004836,0.00000163,-0.00000353,-0.00002372,-0.00334119,0.01405287,-0.0
 1856877,0.00003222,0.00005190,0.00002820,-0.00396889,-0.00327155,-0.00
 007749,-0.00006951,-0.00002334,-0.00000809,0.00002370,0.00000733,-0.00
 001595,-0.00022813,0.00047576,0.00074155,-0.00002067,-0.00000169,-0.00
 004827,-0.00009101,0.00004477,0.00014901,-0.00002114,0.00000121,-0.000
 02597,-0.00013073,-0.00010495,-0.00001900,0.00027243,-0.00030267,-0.00
 005519,-0.00026391,0.00082169,0.00036776,0.00335429,-0.01022071,0.0188
 6543,-0.03028605,0.12117010,0.00017992,-0.00005639,-0.00032004,-0.0012
 4374,0.00067990,0.00119741,0.00038742,-0.00030953,0.00009965,0.0008086
 0,0.00655578,-0.00784167,0.00004100,-0.00007513,-0.00005009,0.00038986
 ,0.00091253,0.00005425,0.00015416,-0.00020002,0.00026820,0.00145797,-0
 .00004837,-0.00063398,-0.00016259,0.00009243,0.00000542,0.00051028,-0.
 00049427,-0.00004303,-0.00010135,-0.00015233,0.00007719,-0.00053839,-0
 .00002477,0.00030799,-0.00046418,-0.00124625,0.00162360,-0.04522193,0.
 10613760,-0.22307407,-0.00002182,0.00001974,-0.00006339,0.00000440,-0.
 00000482,-0.00002891,-0.00760614,0.01417410,-0.01988629,-0.00003275,0.
 00007949,0.00010533,-0.00193198,-0.00429507,-0.00101684,0.00000152,-0.
 00004025,-0.00003918,-0.00000496,-0.00001991,-0.00002274,-0.00008656,0
 .00001232,-0.00008502,-0.00000420,0.00000317,0.00000803,0.00000026,-0.
 00001259,0.00003039,-0.00001741,0.00001150,-0.00002051,0.00005813,0.00
 006289,0.00001657,0.00014429,-0.00044478,-0.00023063,-0.00024901,0.000
 77545,0.00038318,0.00142694,-0.00443726,0.00815544,0.05212894,-0.11761
 715,0.24099615,0.00091438,-0.00003331,0.00116890,-0.00003168,-0.000817
 81,0.00049814,0.00028181,-0.00044759,-0.00036323,-0.00037978,0.0004169
 7,-0.00011630,0.00701150,-0.01465123,0.02031846,0.00030997,0.00005251,
 -0.00019938,-0.00023266,-0.00005078,0.00014886,-0.00016170,-0.00029083
 ,0.00003814,-0.00272154,-0.00068556,0.00109385,-0.00002714,0.00032122,
 0.00009688,-0.00007419,-0.00078081,-0.00082728,0.00029068,-0.00003511,
 0.00005013,0.00004657,-0.00002659,0.00001395,0.00003228,0.00005984,0.0
 0002895,-0.08254157,0.06284653,-0.07906779,0.00045379,-0.00146210,0.00
 124066,-0.00001050,-0.00004947,-0.00002613,-0.01190200,0.01166113,-0.0
 1532219,0.00001861,0.00002264,0.00001074,0.00007192,-0.00434802,0.0009
 6843,-0.00000291,0.00000713,-0.00000117,0.00000522,-0.00000162,0.00002
 233,0.00018263,-0.00007920,0.00036021,-0.00001689,-0.00003111,-0.00006
 461,-0.00015303,-0.00014374,0.00002984,0.00001296,-0.00000793,-0.00000
 574,0.00000534,-0.00000071,-0.00000565,-0.00005959,-0.00001406,-0.0000
 1448,0.00000150,0.00000206,-0.00000396,0.00002366,-0.00001187,-0.00000
 858,0.09580454,0.00140925,-0.00105229,-0.00161402,0.00039796,0.0016838
 7,-0.00009378,-0.00003949,0.00021255,-0.00019526,0.00043832,-0.0004821
 3,0.00006448,0.00236685,-0.01028178,0.01278867,-0.00051422,-0.00017944
 ,-0.00088028,0.00046712,-0.00043600,0.00005815,0.00037560,0.00052988,-
 0.00009383,-0.00151448,0.00031635,0.00124351,0.00052941,-0.00098896,0.
 00003657,-0.00106183,-0.00078973,-0.00048421,-0.00064052,0.00007210,0.
 00009860,0.00003146,-0.00001629,-0.00000892,-0.00002425,-0.00008265,-0
 .00000362,0.05857927,-0.11617583,0.09665054,0.00162978,-0.00216953,0.0
 0182668,0.00002531,0.00005172,0.00006689,-0.00874613,0.01377001,-0.015
 05399,-0.00005443,0.00000213,-0.00005974,-0.00096665,-0.00262892,0.001
 14181,-0.00007285,0.00004197,0.00011240,-0.00001322,0.00000647,-0.0000
 4377,-0.00017007,0.00050213,0.00052765,0.00000777,-0.00000565,-0.00004
 819,-0.00016406,-0.00014262,0.00000964,-0.00000792,-0.00000397,-0.0000
 0580,-0.00000919,-0.00000228,-0.00000900,-0.00007531,-0.00000813,-0.00
 001806,-0.00000027,0.00000597,0.00000728,-0.00001022,-0.00000282,0.000
 00210,-0.06012210,0.12938560,-0.00147092,0.00028579,0.00112032,0.00027
 583,0.00044749,-0.00020850,0.00038429,0.00121891,-0.00015174,0.0003209
 6,-0.00044096,0.00003771,-0.00365195,0.00903597,-0.01131025,-0.0002403
 6,-0.00014596,-0.00045218,0.00082728,-0.00078693,-0.00007635,0.0000164
 2,0.00041574,-0.00008320,0.00236760,0.00093450,-0.00119202,0.00036349,
 -0.00072802,0.00045471,-0.00103997,0.00010373,0.00071366,-0.00047548,-
 0.00012975,0.00009023,-0.00001606,-0.00003210,-0.00002875,-0.00002973,
 -0.00001611,-0.00004040,-0.07566617,0.10424666,-0.18507741,0.00053613,
 -0.00171378,0.00085721,-0.00004270,0.00018843,0.00008035,-0.01146805,0
 .01035799,-0.01579154,0.00001606,-0.00007682,-0.00003540,0.00088730,-0
 .00219849,0.00064023,0.00000961,-0.00000358,0.00007024,-0.00000913,0.0
 0000588,-0.00001396,-0.00015336,-0.00001369,-0.00016070,0.00001017,-0.
 00001212,-0.00003652,0.00008810,0.00009438,-0.00005205,-0.00001579,0.0
 0001353,-0.00002822,-0.00000851,0.00000129,0.00000280,0.00001749,-0.00
 001272,0.00002876,-0.00001376,-0.00001588,-0.00000794,-0.00000953,0.00
 000064,0.00000733,0.08277063,-0.11371952,0.19846686,-0.00083891,-0.003
 05522,0.00227150,-0.00008602,0.00016016,0.00014290,-0.00054625,0.00103
 084,-0.00044665,0.00036089,-0.00018124,-0.00002841,-0.01628852,0.01398
 593,0.00946836,-0.00064790,0.00033158,0.00018448,0.00033883,-0.0001427
 7,0.00016351,0.00012896,0.00025476,-0.00000772,0.00049978,0.00200074,-
 0.00115737,0.00013481,-0.00022086,0.00011146,-0.00028248,-0.00035120,-
 0.00023786,-0.00024509,0.00002333,-0.00000654,0.00000143,-0.00027906,-
 0.00004701,-0.00004460,-0.00003781,-0.00002471,-0.14007627,0.11173758,
 0.06713167,-0.00202491,-0.00177824,-0.00217116,0.00011073,-0.00000392,
 0.00006680,0.01205485,-0.01501116,-0.00809402,-0.00007827,0.00001852,-
 0.00005304,0.00120877,0.00184737,0.00070111,0.00004053,-0.00002759,0.0
 0009857,-0.00000590,0.00001805,-0.00000980,0.00084283,-0.00066725,0.00
 040345,0.00001123,0.00005490,0.00000161,-0.00000958,-0.00000559,0.0000
 1992,0.00000313,0.00000275,-0.00000748,-0.00009039,-0.00000608,-0.0000
 4515,-0.00007114,-0.00000489,-0.00001507,-0.00001059,0.00000668,0.0000
 0013,0.00000121,0.00000733,-0.00001062,-0.00688824,0.00821957,0.005627
 05,0.15199265,-0.00084959,-0.00191398,0.00142629,-0.00007995,-0.000155
 32,0.00009991,-0.00065683,0.00007281,-0.00020601,0.00006081,0.00003452
 ,0.00003727,-0.01058833,0.01011055,0.00756252,-0.00095375,0.00042763,-
 0.00019289,-0.00040772,0.00029333,0.00006621,0.00008990,0.00000512,0.0
 0000721,-0.00292047,-0.00029970,0.00186401,0.00004875,0.00010602,-0.00
 002291,0.00038959,0.00052402,0.00007798,-0.00000522,0.00005343,-0.0000
 1176,-0.00002211,-0.00020959,-0.00013615,-0.00000139,0.00001254,0.0000
 2142,0.11209726,-0.18055256,-0.07748149,-0.00254477,-0.00171514,-0.002
 15337,0.00005707,-0.00011457,-0.00004993,0.01574226,-0.01471348,-0.007
 78077,-0.00000042,0.00004329,0.00002933,-0.00077623,0.00302893,0.00216
 693,0.00000837,-0.00001772,-0.00007480,0.00000844,0.00000113,-0.000015
 46,-0.00012779,-0.00014022,0.00028986,0.00000246,0.00004884,0.00000229
 ,0.00003696,0.00000478,-0.00004765,0.00001789,-0.00001545,0.00000358,-
 0.00005487,0.00001202,-0.00004194,-0.00007083,-0.00000893,-0.00001886,
 0.00000658,0.00001182,0.00000075,0.00000315,0.00001151,-0.00001586,0.0
 0837558,-0.01136687,-0.00747244,-0.11741104,0.19699854,0.00061015,0.00
 203706,-0.00088014,-0.00024911,0.00052110,0.00025397,0.00052929,-0.000
 37092,0.00061420,0.00022970,-0.00033412,0.00001543,0.00947457,-0.01073
 637,-0.00654071,-0.00067299,0.00069565,0.00031690,0.00008536,-0.000150
 78,-0.00005362,0.00008210,0.00031374,-0.00007283,0.00086415,-0.0011224
 3,0.00012395,0.00019423,-0.00042073,0.00022234,-0.00041560,0.00007808,
 0.00005715,-0.00035038,-0.00005988,-0.00002170,0.00004701,0.00024375,-
 0.00005556,0.00000737,0.00000593,-0.00000516,0.06634580,-0.07545109,-0
 .09257355,-0.00296704,-0.00323514,-0.00113241,-0.00008469,0.00003271,-
 0.00003024,0.01155264,-0.01680367,-0.01102839,0.00003740,-0.00002340,0
 .00001701,0.00101153,0.00400049,0.00150917,-0.00006346,0.00003766,0.00
 000029,0.00000708,-0.00000140,-0.00000396,-0.00031454,0.00106920,-0.00
 019278,-0.00000871,0.00001537,-0.00000314,-0.00001680,-0.00001770,-0.0
 0002923,-0.00000608,-0.00000090,-0.00000026,0.00008238,-0.00000335,0.0
 0004555,0.00001683,0.00001374,0.00000897,0.00000308,-0.00000482,-0.000
 00910,-0.00000215,0.00000334,-0.00000606,-0.01332797,0.01680950,0.0113
 4604,-0.07322573,0.08321979,0.09872820,-0.00027398,0.00076046,-0.00055
 885,0.00120605,0.00014515,-0.00087966,-0.00027085,-0.00050098,0.000178
 10,0.00015226,0.00073126,0.00052553,0.00034553,0.00002428,0.00021043,0
 .00106841,0.01868772,-0.02399544,-0.00018888,0.00029231,-0.00001962,-0
 .00032420,-0.00008859,-0.00010634,0.00000524,-0.00039634,0.00001710,-0
 .00335313,0.00026821,-0.00078101,0.00031065,0.00004472,-0.00009982,-0.
 00000962,0.00073081,0.00116123,0.00001248,-0.00001988,-0.00003993,0.00
 000689,0.00006360,0.00000932,0.00014045,0.00145283,-0.00146232,-0.0480
 1971,-0.03553451,0.03978025,-0.00002540,0.00006516,0.00000812,-0.00663
 642,-0.01314623,0.01583159,0.00004683,-0.00003948,0.00001759,-0.001073
 64,0.00422630,-0.00076627,0.00000380,-0.00000066,-0.00001962,-0.000012
 86,-0.00002489,-0.00003312,-0.00001527,0.00004170,0.00007242,0.0000979
 0,0.00006789,-0.00050262,0.00001331,0.00001184,-0.00000710,-0.00020227
 ,0.00013703,-0.00001039,0.00001401,-0.00000676,-0.00000477,0.00001836,
 0.00000632,-0.00000258,-0.00000085,-0.00002400,-0.00001181,-0.00005270
 ,-0.00004147,0.00001576,-0.00029623,-0.00041868,-0.00036723,0.00000774
 ,0.00004542,-0.00004823,0.06040905,-0.00072242,0.00189192,-0.00010372,
 -0.00126823,-0.00149601,-0.00154421,-0.00038497,-0.00071139,0.00021212
 ,-0.00009176,0.00038001,-0.00012845,0.00048572,0.00002113,-0.00093849,
 0.00198234,-0.00855493,0.00985125,-0.00057542,0.00058512,-0.00005911,-
 0.00044195,-0.00062737,0.00010570,-0.00040338,-0.00132547,0.00017765,0
 .00102069,0.00070498,0.00085707,0.00078105,0.00020815,-0.00005866,0.00
 124758,-0.00045197,-0.00066903,0.00000139,-0.00002455,-0.00001348,0.00
 002096,0.00000387,-0.00003271,-0.00098796,-0.00208315,0.00177753,-0.03
 318084,-0.13494430,0.11434707,-0.00000145,0.00000915,-0.00001957,0.002
 80906,0.01267545,-0.01301204,0.00003235,-0.00001633,0.00001927,0.00145
 511,-0.00181861,0.00071773,0.00000900,0.00000401,-0.00005550,0.0000766
 2,0.00004384,0.00011619,-0.00001105,-0.00001288,-0.00003311,0.00018879
 ,0.00049925,0.00055318,0.00001272,-0.00000131,-0.00001583,0.00015063,-
 0.00009415,-0.00003035,0.00001496,-0.00000129,-0.00000333,0.00000941,0
 .00000805,-0.00000884,0.00001738,-0.00000059,-0.00000731,0.00003466,0.
 00003098,-0.00000574,0.00039520,0.00042806,0.00042306,-0.00005378,-0.0
 0016997,0.00032688,0.03125267,0.14852699,-0.00038815,0.00036052,-0.000
 01553,0.00129041,0.00033204,0.00101142,-0.00014824,-0.00037406,0.00003
 042,-0.00059665,0.00108041,-0.00002543,0.00016048,-0.00010917,-0.00057
 435,-0.00005368,0.00668972,-0.00744707,-0.00004200,0.00032846,-0.00011
 130,-0.00061943,-0.00085384,0.00001462,-0.00013393,-0.00066538,0.00058
 211,-0.00191967,0.00039747,-0.00061029,0.00040868,-0.00007244,0.000070
 87,0.00104861,0.00005389,0.00035982,-0.00002588,0.00000762,-0.00009474
 ,-0.00002565,-0.00003521,-0.00003850,-0.00019496,-0.00205516,0.0012108
 8,0.03571870,0.12177589,-0.19878401,0.00000852,0.00015689,0.00010713,0
 .00841029,0.01486020,-0.02039126,0.00002144,-0.00007452,-0.00002385,-0
 .00010438,-0.00322061,0.00080468,0.00001010,0.00000902,-0.00000268,0.0
 0000425,-0.00001231,0.00005270,-0.00001018,-0.00003335,-0.00005474,0.0
 0011002,0.00002829,-0.00007408,0.00000756,0.00001378,-0.00003131,-0.00
 006733,0.00005480,-0.00002024,0.00002147,-0.00000275,0.00000083,0.0000
 0527,-0.00001128,-0.00000171,0.00001197,-0.00001572,-0.00000933,-0.000
 00647,0.00000334,0.00003407,0.00045605,0.00057152,0.00061111,-0.000081
 73,-0.00025208,0.00025668,-0.04126881,-0.13184394,0.21321015,-0.000067
 12,0.00009447,-0.00008571,-0.00207302,0.00342251,-0.00217078,0.0002401
 7,0.00010588,-0.00001557,-0.00043726,-0.00124559,0.00040385,-0.0005535
 3,-0.00036594,-0.00000039,-0.01774460,-0.01941685,-0.00852543,0.000130
 73,-0.00015802,-0.00001089,0.00020017,0.00011263,-0.00020692,0.0000843
 6,0.00015610,-0.00009227,0.00013977,-0.00223576,0.00061102,-0.00016333
 ,-0.00005996,0.00003496,-0.00009425,0.00028090,0.00023483,0.00000115,0
 .00000782,0.00001722,-0.00017634,0.00035321,0.00017279,-0.00160264,0.0
 0116142,0.00255570,-0.12804737,-0.11396021,-0.05053414,0.00012351,0.00
 006087,0.00007669,0.01098296,0.01534306,0.00552355,-0.00006814,0.00000
 307,-0.00005426,0.00100936,-0.00137533,-0.00103258,-0.00000211,-0.0000
 1838,0.00001371,0.00003369,0.00005276,-0.00008280,0.00001895,-0.000053
 43,-0.00000064,0.00061878,0.00109524,-0.00052967,0.00000753,0.00000019
 ,0.00000360,-0.00001035,0.00000603,-0.00001050,-0.00000971,-0.00000401
 ,0.00000160,-0.00000272,-0.00000107,0.00000425,-0.00012803,-0.00006323
 ,0.00006042,-0.00001035,-0.00002146,-0.00000325,0.00003229,0.00014822,
 0.00016033,0.00049667,0.00048082,0.00057281,-0.00310292,-0.00387505,-0
 .00200669,0.14017370,0.00012825,-0.00022612,0.00003033,0.00128808,-0.0
 0135154,0.00090966,-0.00001885,0.00007816,0.00006103,0.00052344,0.0000
 5485,-0.00017776,0.00070948,0.00043263,-0.00039743,0.00763528,0.009046
 62,0.00488385,-0.00005385,-0.00004800,0.00002395,0.00036720,0.00034690
 ,-0.00000383,-0.00006178,0.00015252,-0.00006020,0.00355876,-0.00028141
 ,0.00149981,-0.00004826,0.00003896,-0.00000911,-0.00042465,0.00047434,
 0.00023625,0.00002848,0.00000730,0.00002573,0.00010857,-0.00015688,-0.
 00015866,0.00198692,-0.00106391,-0.00221973,-0.11481514,-0.21007446,-0
 .06919015,-0.00002502,-0.00013544,-0.00004310,-0.01281846,-0.01414905,
 -0.00443418,-0.00003087,0.00005281,0.00000556,0.00092152,0.00278066,0.
 00198415,-0.00001343,-0.00000753,-0.00001624,-0.00001256,-0.00000451,-
 0.00007784,-0.00000517,0.00003917,0.00000028,0.00045719,-0.00009994,0.
 00028069,-0.00001358,-0.00001914,0.00001149,-0.00004549,0.00000531,-0.
 00003590,-0.00001314,-0.00000097,-0.00000199,-0.00001430,0.00001011,-0
 .00000484,0.00005116,0.00006243,-0.00003517,0.00002597,-0.00000097,-0.
 00001850,-0.00006924,-0.00019289,-0.00025511,-0.00046238,-0.00040731,-
 0.00068728,-0.00881323,-0.01368668,-0.00709205,0.11996911,0.22832398,0
 .00018538,0.00050200,0.00027159,-0.00074143,0.00143688,-0.00011260,-0.
 00021486,-0.00033191,0.00003078,-0.00030750,-0.00031450,0.00047824,0.0
 0072521,0.00083652,0.00018106,-0.00579778,-0.00852101,-0.00386180,-0.0
 0013770,0.00027850,-0.00007010,-0.00007810,-0.00017366,-0.00000852,-0.
 00009620,-0.00041116,0.00028434,-0.00062612,-0.00097167,0.00001694,0.0
 0032688,-0.00001268,-0.00006146,0.00043291,0.00011562,-0.00006489,0.00
 000642,-0.00000342,-0.00002764,-0.00011535,0.00020484,0.00000397,0.003
 58333,-0.00306424,-0.00204333,-0.04989264,-0.06701632,-0.07648679,0.00
 004107,0.00002102,0.00003033,-0.01329025,-0.02115853,-0.01040608,-0.00
 001384,-0.00000398,-0.00001899,-0.00136856,0.00411290,0.00197527,-0.00
 000649,0.00000112,-0.00000073,0.00004736,0.00003800,0.00000700,0.00000
 227,0.00002449,-0.00001072,-0.00001905,0.00099048,0.00001166,0.0000021
 4,-0.00000077,-0.00000030,0.00001130,-0.00001329,-0.00003273,0.0000016
 5,-0.00000624,-0.00000389,-0.00000773,0.00000266,-0.00000618,-0.000060
 07,-0.00004023,0.00002517,0.00001762,-0.00000149,-0.00000776,0.0000393
 4,0.00031601,0.00021960,-0.00072246,-0.00090096,-0.00087701,0.01315811
 ,0.01909874,0.00995293,0.05491515,0.07496629,0.08061263\\0.00000003,-0
 .00000016,-0.00000006,-0.00000042,-0.00000004,0.00000002,0.00000052,-0
 .00000040,0.00000046,-0.00000002,0.00000024,-0.00000050,0.00000033,-0.
 00000052,0.00000028,0.00000028,0.00000059,-0.00000017,-0.00000143,0.,0
 .00000043,0.00000079,0.00000026,-0.00000059,-0.00000018,0.00000015,0.0
 0000051,0.00000062,0.00000004,-0.00000028,0.00000099,0.00000013,0.0000
 0040,-0.00000065,-0.00000054,-0.00000047,-0.00000074,0.00000014,0.0000
 0061,-0.00000006,0.00000036,-0.00000049,-0.00000063,-0.00000043,0.0000
 0026,-0.00000004,-0.00000069,-0.00000017,0.00000085,0.00000005,0.00000
 002,0.00000051,0.00000077,0.00000049,-0.00000057,-0.00000026,-0.000000
 52,-0.00000020,-0.00000012,0.00000016,0.00000070,0.00000062,0.00000038
 ,-0.00000030,0.00000003,-0.00000055,-0.00000021,0.00000005,0.00000061,
 -0.00000060,-0.00000032,-0.00000054,0.,0.00000018,0.00000070,-0.000000
 05,0.00000008,-0.00000075,0.00000014,-0.00000002,0.00000019,0.00000011
 ,-0.00000026,-0.00000033,0.00000005,-0.00000009,-0.00000034,-0.0000000
 4,0.00000007,0.00000026,0.00000007,-0.00000029,0.00000009,0.00000018,-
 0.00000030,0.00000026,0.00000003,0.00000056,-0.00000019,-0.00000005,0.
 00000014,-0.00000019\\\@
 The archive entry for this job was punched.


 WE TEND TO MEET ANY NEW SITUATION BY REORGANIZING. IT CAN BE A
 WONDERFUL METHOD FOR CREATING THE ILLUSION OF PROGRESS WHILE PRODUCING
 CONFUSION, INEFFICIENCY, AND DEMORALIZATION.
     -- PETRONIUS ARBITER, 210 B.C.
 Leave Link 9999 at Tue May 20 08:42:28 2025, MaxMem=   104857600 cpu:               1.0 elap:               0.0
 Job cpu time:       0 days  1 hours 45 minutes 56.5 seconds.
 Elapsed time:       0 days  0 hours  3 minutes 24.4 seconds.
 File lengths (MBytes):  RWF=    481 Int=      0 D2E=      0 Chk=     13 Scr=      1
 Normal termination of Gaussian 16 at Tue May 20 08:42:28 2025.
 (Enter /opt/linux/rocky/8/software/gaussian/16c01_avx2/g16/l1.exe)
 Link1:  Proceeding to internal job step number  2.
 ----------------------------------------------------------------------
 #P Geom=AllCheck Guess=TCheck SCRF=Check GenChk RB3LYP/6-31G(d,p) Freq
 ----------------------------------------------------------------------
 1/5=1,7=1,10=4,29=7,30=1,38=1,40=1/1,3;
 2/12=2,40=1/2;
 3/5=1,6=6,7=101,11=2,14=-4,25=1,30=1,70=2,71=2,74=-5,75=-5,116=1,140=1/1,2,3;
 4/5=101/1;
 5/5=2,6=10,38=6,98=1/2;
 8/6=4,10=90,11=11/1;
 11/6=1,8=1,9=11,15=111,16=1/1,2,10;
 10/6=1/2;
 6/7=2,8=2,9=2,10=2,28=1/1;
 7/8=1,10=1,25=1/1,2,3,16;
 1/5=1,7=1,10=4,30=1/3;
 99//99;
 Leave Link    1 at Tue May 20 08:42:28 2025, MaxMem=   104857600 cpu:               0.6 elap:               0.0
 (Enter /opt/linux/rocky/8/software/gaussian/16c01_avx2/g16/l101.exe)
 Structure from the checkpoint file:  "biphenyldiketone_ts.chk"
 -------------------
 Title Card Required
 -------------------
 Charge =  0 Multiplicity = 1
 Redundant internal coordinates found in file.  (old form).
 C,0,0.000448,0.764759,-0.030251
 C,0,0.091512,-0.720124,-0.118612
 C,0,1.117301,1.667077,-0.12999
 C,0,1.324244,-1.437937,-0.227263
 C,0,-1.260063,1.402166,0.226994
 C,0,-1.086105,-1.534279,-0.239828
 C,0,0.882741,3.008184,-0.461597
 C,0,1.363108,-2.819475,-0.014334
 C,0,-1.448065,2.75588,-0.069823
 C,0,-1.01382,-2.916569,-0.036382
 C,0,-0.397637,3.546024,-0.517351
 C,0,0.200948,-3.559544,0.163779
 C,0,2.513529,1.421513,0.423268
 C,0,2.606353,-0.825024,-0.759
 C,0,-2.386297,0.733359,0.99545
 C,0,-2.412439,-1.027966,-0.778864
 C,0,3.257686,0.121662,0.211062
 C,0,-3.244505,-0.217744,0.190259
 O,0,4.300257,-0.116525,0.786289
 O,0,-4.446768,-0.316563,0.306096
 H,0,1.740031,3.660696,-0.603653
 H,0,2.32621,-3.320331,-0.041991
 H,0,-2.429816,3.192471,0.090845
 H,0,-1.931406,-3.495929,-0.08594
 H,0,-0.554225,4.585094,-0.789042
 H,0,0.243569,-4.62891,0.344397
 H,0,3.18408,2.212467,0.065932
 H,0,2.464566,1.568932,1.510978
 H,0,3.316035,-1.616357,-1.005016
 H,0,2.372563,-0.263009,-1.674033
 H,0,-1.955221,0.130286,1.807128
 H,0,-3.029384,1.486873,1.454939
 H,0,-2.215579,-0.358582,-1.628945
 H,0,-3.01297,-1.860766,-1.149779
 Recover connectivity data from disk.
 ITRead=  0  0  0  0  0  0  0  0  0  0  0  0  0  0  0  0  0  0  0  0
 ITRead=  0  0  0  0  0  0  0  0  0  0  0  0  0  0
 MicOpt= -1 -1 -1 -1 -1 -1 -1 -1 -1 -1 -1 -1 -1 -1 -1 -1 -1 -1 -1 -1
 MicOpt= -1 -1 -1 -1 -1 -1 -1 -1 -1 -1 -1 -1 -1 -1
 NAtoms=     34 NQM=       34 NQMF=       0 NMMI=      0 NMMIF=      0
                NMic=       0 NMicF=      0.
                    Isotopes and Nuclear Properties:
 (Nuclear quadrupole moments (NQMom) in fm**2, nuclear magnetic moments (NMagM)
  in nuclear magnetons)

  Atom         1           2           3           4           5           6           7           8           9          10
 IAtWgt=          12          12          12          12          12          12          12          12          12          12
 AtmWgt=  12.0000000  12.0000000  12.0000000  12.0000000  12.0000000  12.0000000  12.0000000  12.0000000  12.0000000  12.0000000
 NucSpn=           0           0           0           0           0           0           0           0           0           0
 AtZEff=   3.6000000   3.6000000   3.6000000   3.6000000   3.6000000   3.6000000   3.6000000   3.6000000   3.6000000   3.6000000
 NQMom=    0.0000000   0.0000000   0.0000000   0.0000000   0.0000000   0.0000000   0.0000000   0.0000000   0.0000000   0.0000000
 NMagM=    0.0000000   0.0000000   0.0000000   0.0000000   0.0000000   0.0000000   0.0000000   0.0000000   0.0000000   0.0000000
 AtZNuc=   6.0000000   6.0000000   6.0000000   6.0000000   6.0000000   6.0000000   6.0000000   6.0000000   6.0000000   6.0000000

  Atom        11          12          13          14          15          16          17          18          19          20
 IAtWgt=          12          12          12          12          12          12          12          12          16          16
 AtmWgt=  12.0000000  12.0000000  12.0000000  12.0000000  12.0000000  12.0000000  12.0000000  12.0000000  15.9949146  15.9949146
 NucSpn=           0           0           0           0           0           0           0           0           0           0
 AtZEff=   3.6000000   3.6000000   3.6000000   3.6000000   3.6000000   3.6000000   3.6000000   3.6000000   5.6000000   5.6000000
 NQMom=    0.0000000   0.0000000   0.0000000   0.0000000   0.0000000   0.0000000   0.0000000   0.0000000   0.0000000   0.0000000
 NMagM=    0.0000000   0.0000000   0.0000000   0.0000000   0.0000000   0.0000000   0.0000000   0.0000000   0.0000000   0.0000000
 AtZNuc=   6.0000000   6.0000000   6.0000000   6.0000000   6.0000000   6.0000000   6.0000000   6.0000000   8.0000000   8.0000000

  Atom        21          22          23          24          25          26          27          28          29          30
 IAtWgt=           1           1           1           1           1           1           1           1           1           1
 AtmWgt=   1.0078250   1.0078250   1.0078250   1.0078250   1.0078250   1.0078250   1.0078250   1.0078250   1.0078250   1.0078250
 NucSpn=           1           1           1           1           1           1           1           1           1           1
 AtZEff=   1.0000000   1.0000000   1.0000000   1.0000000   1.0000000   1.0000000   1.0000000   1.0000000   1.0000000   1.0000000
 NQMom=    0.0000000   0.0000000   0.0000000   0.0000000   0.0000000   0.0000000   0.0000000   0.0000000   0.0000000   0.0000000
 NMagM=    2.7928460   2.7928460   2.7928460   2.7928460   2.7928460   2.7928460   2.7928460   2.7928460   2.7928460   2.7928460
 AtZNuc=   1.0000000   1.0000000   1.0000000   1.0000000   1.0000000   1.0000000   1.0000000   1.0000000   1.0000000   1.0000000

  Atom        31          32          33          34
 IAtWgt=           1           1           1           1
 AtmWgt=   1.0078250   1.0078250   1.0078250   1.0078250
 NucSpn=           1           1           1           1
 AtZEff=   1.0000000   1.0000000   1.0000000   1.0000000
 NQMom=    0.0000000   0.0000000   0.0000000   0.0000000
 NMagM=    2.7928460   2.7928460   2.7928460   2.7928460
 AtZNuc=   1.0000000   1.0000000   1.0000000   1.0000000
 Leave Link  101 at Tue May 20 08:42:29 2025, MaxMem=   104857600 cpu:               1.1 elap:               0.0
 (Enter /opt/linux/rocky/8/software/gaussian/16c01_avx2/g16/l103.exe)

 GradGradGradGradGradGradGradGradGradGradGradGradGradGradGradGradGradGrad
 Berny optimization.
 Initialization pass.
                           ----------------------------
                           !    Initial Parameters    !
                           ! (Angstroms and Degrees)  !
 --------------------------                            --------------------------
 ! Name  Definition              Value          Derivative Info.                !
 --------------------------------------------------------------------------------
 ! R1    R(1,2)                  1.4903         calculate D2E/DX2 analytically  !
 ! R2    R(1,3)                  1.4393         calculate D2E/DX2 analytically  !
 ! R3    R(1,5)                  1.4357         calculate D2E/DX2 analytically  !
 ! R4    R(2,4)                  1.4306         calculate D2E/DX2 analytically  !
 ! R5    R(2,6)                  1.4368         calculate D2E/DX2 analytically  !
 ! R6    R(3,7)                  1.4013         calculate D2E/DX2 analytically  !
 ! R7    R(3,13)                 1.5218         calculate D2E/DX2 analytically  !
 ! R8    R(4,8)                  1.3984         calculate D2E/DX2 analytically  !
 ! R9    R(4,14)                 1.5173         calculate D2E/DX2 analytically  !
 ! R10   R(5,9)                  1.3986         calculate D2E/DX2 analytically  !
 ! R11   R(5,15)                 1.5186         calculate D2E/DX2 analytically  !
 ! R12   R(6,10)                 1.3991         calculate D2E/DX2 analytically  !
 ! R13   R(6,16)                 1.5186         calculate D2E/DX2 analytically  !
 ! R14   R(7,11)                 1.3899         calculate D2E/DX2 analytically  !
 ! R15   R(7,21)                 1.0867         calculate D2E/DX2 analytically  !
 ! R16   R(8,12)                 1.3893         calculate D2E/DX2 analytically  !
 ! R17   R(8,22)                 1.0859         calculate D2E/DX2 analytically  !
 ! R18   R(9,11)                 1.3885         calculate D2E/DX2 analytically  !
 ! R19   R(9,23)                 1.0864         calculate D2E/DX2 analytically  !
 ! R20   R(10,12)                1.3889         calculate D2E/DX2 analytically  !
 ! R21   R(10,24)                1.0863         calculate D2E/DX2 analytically  !
 ! R22   R(11,25)                1.0854         calculate D2E/DX2 analytically  !
 ! R23   R(12,26)                1.0853         calculate D2E/DX2 analytically  !
 ! R24   R(13,17)                1.5128         calculate D2E/DX2 analytically  !
 ! R25   R(13,27)                1.0968         calculate D2E/DX2 analytically  !
 ! R26   R(13,28)                1.0987         calculate D2E/DX2 analytically  !
 ! R27   R(14,17)                1.5038         calculate D2E/DX2 analytically  !
 ! R28   R(14,29)                1.091          calculate D2E/DX2 analytically  !
 ! R29   R(14,30)                1.099          calculate D2E/DX2 analytically  !
 ! R30   R(15,18)                1.5131         calculate D2E/DX2 analytically  !
 ! R31   R(15,31)                1.0992         calculate D2E/DX2 analytically  !
 ! R32   R(15,32)                1.092          calculate D2E/DX2 analytically  !
 ! R33   R(16,18)                1.5126         calculate D2E/DX2 analytically  !
 ! R34   R(16,33)                1.0998         calculate D2E/DX2 analytically  !
 ! R35   R(16,34)                1.0917         calculate D2E/DX2 analytically  !
 ! R36   R(17,19)                1.2143         calculate D2E/DX2 analytically  !
 ! R37   R(18,20)                1.2119         calculate D2E/DX2 analytically  !
 ! A1    A(2,1,3)              124.9686         calculate D2E/DX2 analytically  !
 ! A2    A(2,1,5)              120.4386         calculate D2E/DX2 analytically  !
 ! A3    A(3,1,5)              114.5424         calculate D2E/DX2 analytically  !
 ! A4    A(1,2,4)              123.8542         calculate D2E/DX2 analytically  !
 ! A5    A(1,2,6)              121.2998         calculate D2E/DX2 analytically  !
 ! A6    A(4,2,6)              114.5523         calculate D2E/DX2 analytically  !
 ! A7    A(1,3,7)              119.1121         calculate D2E/DX2 analytically  !
 ! A8    A(1,3,13)             125.8456         calculate D2E/DX2 analytically  !
 ! A9    A(7,3,13)             113.2069         calculate D2E/DX2 analytically  !
 ! A10   A(2,4,8)              120.5363         calculate D2E/DX2 analytically  !
 ! A11   A(2,4,14)             123.5072         calculate D2E/DX2 analytically  !
 ! A12   A(8,4,14)             115.4015         calculate D2E/DX2 analytically  !
 ! A13   A(1,5,9)              120.6447         calculate D2E/DX2 analytically  !
 ! A14   A(1,5,15)             123.1098         calculate D2E/DX2 analytically  !
 ! A15   A(9,5,15)             115.7204         calculate D2E/DX2 analytically  !
 ! A16   A(2,6,10)             120.3479         calculate D2E/DX2 analytically  !
 ! A17   A(2,6,16)             123.8405         calculate D2E/DX2 analytically  !
 ! A18   A(10,6,16)            115.2243         calculate D2E/DX2 analytically  !
 ! A19   A(3,7,11)             122.2798         calculate D2E/DX2 analytically  !
 ! A20   A(3,7,21)             118.2656         calculate D2E/DX2 analytically  !
 ! A21   A(11,7,21)            119.2845         calculate D2E/DX2 analytically  !
 ! A22   A(4,8,12)             121.5042         calculate D2E/DX2 analytically  !
 ! A23   A(4,8,22)             118.4536         calculate D2E/DX2 analytically  !
 ! A24   A(12,8,22)            119.9665         calculate D2E/DX2 analytically  !
 ! A25   A(5,9,11)             121.1655         calculate D2E/DX2 analytically  !
 ! A26   A(5,9,23)             118.6248         calculate D2E/DX2 analytically  !
 ! A27   A(11,9,23)            120.1732         calculate D2E/DX2 analytically  !
 ! A28   A(6,10,12)            121.569          calculate D2E/DX2 analytically  !
 ! A29   A(6,10,24)            118.4676         calculate D2E/DX2 analytically  !
 ! A30   A(12,10,24)           119.897          calculate D2E/DX2 analytically  !
 ! A31   A(7,11,9)             117.6308         calculate D2E/DX2 analytically  !
 ! A32   A(7,11,25)            120.8916         calculate D2E/DX2 analytically  !
 ! A33   A(9,11,25)            121.0857         calculate D2E/DX2 analytically  !
 ! A34   A(8,12,10)            117.8108         calculate D2E/DX2 analytically  !
 ! A35   A(8,12,26)            120.8871         calculate D2E/DX2 analytically  !
 ! A36   A(10,12,26)           120.9598         calculate D2E/DX2 analytically  !
 ! A37   A(3,13,17)            122.6149         calculate D2E/DX2 analytically  !
 ! A38   A(3,13,27)            109.0332         calculate D2E/DX2 analytically  !
 ! A39   A(3,13,28)            107.2997         calculate D2E/DX2 analytically  !
 ! A40   A(17,13,27)           105.8553         calculate D2E/DX2 analytically  !
 ! A41   A(17,13,28)           106.0263         calculate D2E/DX2 analytically  !
 ! A42   A(27,13,28)           104.6562         calculate D2E/DX2 analytically  !
 ! A43   A(4,14,17)            113.217          calculate D2E/DX2 analytically  !
 ! A44   A(4,14,29)            109.6134         calculate D2E/DX2 analytically  !
 ! A45   A(4,14,30)            108.5786         calculate D2E/DX2 analytically  !
 ! A46   A(17,14,29)           108.6821         calculate D2E/DX2 analytically  !
 ! A47   A(17,14,30)           107.8962         calculate D2E/DX2 analytically  !
 ! A48   A(29,14,30)           108.756          calculate D2E/DX2 analytically  !
 ! A49   A(5,15,18)            115.3524         calculate D2E/DX2 analytically  !
 ! A50   A(5,15,31)            108.931          calculate D2E/DX2 analytically  !
 ! A51   A(5,15,32)            110.2288         calculate D2E/DX2 analytically  !
 ! A52   A(18,15,31)           105.6944         calculate D2E/DX2 analytically  !
 ! A53   A(18,15,32)           108.8829         calculate D2E/DX2 analytically  !
 ! A54   A(31,15,32)           107.3861         calculate D2E/DX2 analytically  !
 ! A55   A(6,16,18)            115.5702         calculate D2E/DX2 analytically  !
 ! A56   A(6,16,33)            108.7216         calculate D2E/DX2 analytically  !
 ! A57   A(6,16,34)            110.2865         calculate D2E/DX2 analytically  !
 ! A58   A(18,16,33)           105.5261         calculate D2E/DX2 analytically  !
 ! A59   A(18,16,34)           108.8872         calculate D2E/DX2 analytically  !
 ! A60   A(33,16,34)           107.4676         calculate D2E/DX2 analytically  !
 ! A61   A(13,17,14)           114.7306         calculate D2E/DX2 analytically  !
 ! A62   A(13,17,19)           121.6306         calculate D2E/DX2 analytically  !
 ! A63   A(14,17,19)           123.6385         calculate D2E/DX2 analytically  !
 ! A64   A(15,18,16)           111.447          calculate D2E/DX2 analytically  !
 ! A65   A(15,18,20)           124.2693         calculate D2E/DX2 analytically  !
 ! A66   A(16,18,20)           124.2836         calculate D2E/DX2 analytically  !
 ! D1    D(3,1,2,4)              4.2858         calculate D2E/DX2 analytically  !
 ! D2    D(3,1,2,6)           -169.1463         calculate D2E/DX2 analytically  !
 ! D3    D(5,1,2,4)           -172.9889         calculate D2E/DX2 analytically  !
 ! D4    D(5,1,2,6)             13.579          calculate D2E/DX2 analytically  !
 ! D5    D(2,1,3,7)            159.5797         calculate D2E/DX2 analytically  !
 ! D6    D(2,1,3,13)           -36.941          calculate D2E/DX2 analytically  !
 ! D7    D(5,1,3,7)            -23.0033         calculate D2E/DX2 analytically  !
 ! D8    D(5,1,3,13)           140.476          calculate D2E/DX2 analytically  !
 ! D9    D(2,1,5,9)           -161.1106         calculate D2E/DX2 analytically  !
 ! D10   D(2,1,5,15)            27.5615         calculate D2E/DX2 analytically  !
 ! D11   D(3,1,5,9)             21.3444         calculate D2E/DX2 analytically  !
 ! D12   D(3,1,5,15)          -149.9836         calculate D2E/DX2 analytically  !
 ! D13   D(1,2,4,8)            165.9849         calculate D2E/DX2 analytically  !
 ! D14   D(1,2,4,14)           -22.9577         calculate D2E/DX2 analytically  !
 ! D15   D(6,2,4,8)            -20.1834         calculate D2E/DX2 analytically  !
 ! D16   D(6,2,4,14)           150.874          calculate D2E/DX2 analytically  !
 ! D17   D(1,2,6,10)          -166.3279         calculate D2E/DX2 analytically  !
 ! D18   D(1,2,6,16)            22.887          calculate D2E/DX2 analytically  !
 ! D19   D(4,2,6,10)            19.6665         calculate D2E/DX2 analytically  !
 ! D20   D(4,2,6,16)          -151.1186         calculate D2E/DX2 analytically  !
 ! D21   D(1,3,7,11)             9.1237         calculate D2E/DX2 analytically  !
 ! D22   D(1,3,7,21)          -175.6555         calculate D2E/DX2 analytically  !
 ! D23   D(13,3,7,11)         -156.3518         calculate D2E/DX2 analytically  !
 ! D24   D(13,3,7,21)           18.8691         calculate D2E/DX2 analytically  !
 ! D25   D(1,3,13,17)           47.3168         calculate D2E/DX2 analytically  !
 ! D26   D(1,3,13,27)          171.6402         calculate D2E/DX2 analytically  !
 ! D27   D(1,3,13,28)          -75.5435         calculate D2E/DX2 analytically  !
 ! D28   D(7,3,13,17)         -148.3658         calculate D2E/DX2 analytically  !
 ! D29   D(7,3,13,27)          -24.0424         calculate D2E/DX2 analytically  !
 ! D30   D(7,3,13,28)           88.7739         calculate D2E/DX2 analytically  !
 ! D31   D(2,4,8,12)             7.0665         calculate D2E/DX2 analytically  !
 ! D32   D(2,4,8,22)          -176.1012         calculate D2E/DX2 analytically  !
 ! D33   D(14,4,8,12)         -164.684          calculate D2E/DX2 analytically  !
 ! D34   D(14,4,8,22)           12.1483         calculate D2E/DX2 analytically  !
 ! D35   D(2,4,14,17)           74.1518         calculate D2E/DX2 analytically  !
 ! D36   D(2,4,14,29)         -164.3235         calculate D2E/DX2 analytically  !
 ! D37   D(2,4,14,30)          -45.6455         calculate D2E/DX2 analytically  !
 ! D38   D(8,4,14,17)         -114.3717         calculate D2E/DX2 analytically  !
 ! D39   D(8,4,14,29)            7.1531         calculate D2E/DX2 analytically  !
 ! D40   D(8,4,14,30)          125.8311         calculate D2E/DX2 analytically  !
 ! D41   D(1,5,9,11)            -5.2651         calculate D2E/DX2 analytically  !
 ! D42   D(1,5,9,23)           176.9291         calculate D2E/DX2 analytically  !
 ! D43   D(15,5,9,11)          166.6764         calculate D2E/DX2 analytically  !
 ! D44   D(15,5,9,23)          -11.1295         calculate D2E/DX2 analytically  !
 ! D45   D(1,5,15,18)          -81.6182         calculate D2E/DX2 analytically  !
 ! D46   D(1,5,15,31)           36.9995         calculate D2E/DX2 analytically  !
 ! D47   D(1,5,15,32)          154.5836         calculate D2E/DX2 analytically  !
 ! D48   D(9,5,15,18)          106.6605         calculate D2E/DX2 analytically  !
 ! D49   D(9,5,15,31)         -134.7218         calculate D2E/DX2 analytically  !
 ! D50   D(9,5,15,32)          -17.1377         calculate D2E/DX2 analytically  !
 ! D51   D(2,6,10,12)           -6.0276         calculate D2E/DX2 analytically  !
 ! D52   D(2,6,10,24)          176.9404         calculate D2E/DX2 analytically  !
 ! D53   D(16,6,10,12)         165.5176         calculate D2E/DX2 analytically  !
 ! D54   D(16,6,10,24)         -11.5144         calculate D2E/DX2 analytically  !
 ! D55   D(2,6,16,18)          -78.6794         calculate D2E/DX2 analytically  !
 ! D56   D(2,6,16,33)           39.711          calculate D2E/DX2 analytically  !
 ! D57   D(2,6,16,34)          157.3027         calculate D2E/DX2 analytically  !
 ! D58   D(10,6,16,18)         110.1075         calculate D2E/DX2 analytically  !
 ! D59   D(10,6,16,33)        -131.502          calculate D2E/DX2 analytically  !
 ! D60   D(10,6,16,34)         -13.9104         calculate D2E/DX2 analytically  !
 ! D61   D(3,7,11,9)             7.8899         calculate D2E/DX2 analytically  !
 ! D62   D(3,7,11,25)         -179.2196         calculate D2E/DX2 analytically  !
 ! D63   D(21,7,11,9)         -167.2839         calculate D2E/DX2 analytically  !
 ! D64   D(21,7,11,25)           5.6066         calculate D2E/DX2 analytically  !
 ! D65   D(4,8,12,10)            7.6551         calculate D2E/DX2 analytically  !
 ! D66   D(4,8,12,26)         -178.9996         calculate D2E/DX2 analytically  !
 ! D67   D(22,8,12,10)        -169.1301         calculate D2E/DX2 analytically  !
 ! D68   D(22,8,12,26)           4.2153         calculate D2E/DX2 analytically  !
 ! D69   D(5,9,11,7)            -9.8497         calculate D2E/DX2 analytically  !
 ! D70   D(5,9,11,25)          177.2743         calculate D2E/DX2 analytically  !
 ! D71   D(23,9,11,7)          167.9224         calculate D2E/DX2 analytically  !
 ! D72   D(23,9,11,25)          -4.9536         calculate D2E/DX2 analytically  !
 ! D73   D(6,10,12,8)           -8.1422         calculate D2E/DX2 analytically  !
 ! D74   D(6,10,12,26)         178.5176         calculate D2E/DX2 analytically  !
 ! D75   D(24,10,12,8)         168.8481         calculate D2E/DX2 analytically  !
 ! D76   D(24,10,12,26)         -4.4921         calculate D2E/DX2 analytically  !
 ! D77   D(3,13,17,14)           8.9202         calculate D2E/DX2 analytically  !
 ! D78   D(3,13,17,19)        -171.296          calculate D2E/DX2 analytically  !
 ! D79   D(27,13,17,14)       -116.8277         calculate D2E/DX2 analytically  !
 ! D80   D(27,13,17,19)         62.9561         calculate D2E/DX2 analytically  !
 ! D81   D(28,13,17,14)        132.3641         calculate D2E/DX2 analytically  !
 ! D82   D(28,13,17,19)        -47.8522         calculate D2E/DX2 analytically  !
 ! D83   D(4,14,17,13)         -70.2074         calculate D2E/DX2 analytically  !
 ! D84   D(4,14,17,19)         110.0137         calculate D2E/DX2 analytically  !
 ! D85   D(29,14,17,13)        167.746          calculate D2E/DX2 analytically  !
 ! D86   D(29,14,17,19)        -12.0329         calculate D2E/DX2 analytically  !
 ! D87   D(30,14,17,13)         49.9795         calculate D2E/DX2 analytically  !
 ! D88   D(30,14,17,19)       -129.7994         calculate D2E/DX2 analytically  !
 ! D89   D(5,15,18,16)          39.0922         calculate D2E/DX2 analytically  !
 ! D90   D(5,15,18,20)        -140.8213         calculate D2E/DX2 analytically  !
 ! D91   D(31,15,18,16)        -81.3084         calculate D2E/DX2 analytically  !
 ! D92   D(31,15,18,20)         98.7781         calculate D2E/DX2 analytically  !
 ! D93   D(32,15,18,16)        163.5952         calculate D2E/DX2 analytically  !
 ! D94   D(32,15,18,20)        -16.3183         calculate D2E/DX2 analytically  !
 ! D95   D(6,16,18,15)          41.1178         calculate D2E/DX2 analytically  !
 ! D96   D(6,16,18,20)        -138.9687         calculate D2E/DX2 analytically  !
 ! D97   D(33,16,18,15)        -79.0295         calculate D2E/DX2 analytically  !
 ! D98   D(33,16,18,20)        100.884          calculate D2E/DX2 analytically  !
 ! D99   D(34,16,18,15)        165.8634         calculate D2E/DX2 analytically  !
 ! D100  D(34,16,18,20)        -14.2231         calculate D2E/DX2 analytically  !
 --------------------------------------------------------------------------------
 Trust Radius=3.00D-01 FncErr=1.00D-07 GrdErr=1.00D-07 EigMax=2.50D+02 EigMin=1.00D-04
 Number of steps in this run=      2 maximum allowed number of steps=      2.
 Search for a saddle point of order  1.
 GradGradGradGradGradGradGradGradGradGradGradGradGradGradGradGradGradGrad

 Leave Link  103 at Tue May 20 08:42:29 2025, MaxMem=   104857600 cpu:               0.2 elap:               0.0
 (Enter /opt/linux/rocky/8/software/gaussian/16c01_avx2/g16/l202.exe)
                          Input orientation:                          
 ---------------------------------------------------------------------
 Center     Atomic      Atomic             Coordinates (Angstroms)
 Number     Number       Type             X           Y           Z
 ---------------------------------------------------------------------
      1          6           0        0.000448    0.764759   -0.030251
      2          6           0        0.091512   -0.720124   -0.118612
      3          6           0        1.117301    1.667077   -0.129990
      4          6           0        1.324244   -1.437937   -0.227263
      5          6           0       -1.260063    1.402166    0.226994
      6          6           0       -1.086105   -1.534279   -0.239828
      7          6           0        0.882741    3.008184   -0.461597
      8          6           0        1.363108   -2.819475   -0.014334
      9          6           0       -1.448065    2.755880   -0.069823
     10          6           0       -1.013820   -2.916569   -0.036382
     11          6           0       -0.397637    3.546024   -0.517351
     12          6           0        0.200948   -3.559544    0.163779
     13          6           0        2.513529    1.421513    0.423268
     14          6           0        2.606353   -0.825024   -0.759000
     15          6           0       -2.386297    0.733359    0.995450
     16          6           0       -2.412439   -1.027966   -0.778864
     17          6           0        3.257686    0.121662    0.211062
     18          6           0       -3.244505   -0.217744    0.190259
     19          8           0        4.300257   -0.116525    0.786289
     20          8           0       -4.446768   -0.316563    0.306096
     21          1           0        1.740031    3.660696   -0.603653
     22          1           0        2.326210   -3.320331   -0.041991
     23          1           0       -2.429816    3.192471    0.090845
     24          1           0       -1.931406   -3.495929   -0.085940
     25          1           0       -0.554225    4.585094   -0.789042
     26          1           0        0.243569   -4.628910    0.344397
     27          1           0        3.184080    2.212467    0.065932
     28          1           0        2.464566    1.568932    1.510978
     29          1           0        3.316035   -1.616357   -1.005016
     30          1           0        2.372563   -0.263009   -1.674033
     31          1           0       -1.955221    0.130286    1.807128
     32          1           0       -3.029384    1.486873    1.454939
     33          1           0       -2.215579   -0.358582   -1.628945
     34          1           0       -3.012970   -1.860766   -1.149779
 ---------------------------------------------------------------------
                    Distance matrix (angstroms):
                    1          2          3          4          5
     1  C    0.000000
     2  C    1.490295   0.000000
     3  C    1.439266   2.598288   0.000000
     4  C    2.577425   1.430625   3.113422   0.000000
     5  C    1.435740   2.539747   2.418569   3.866675   0.000000
     6  C    2.551489   1.436775   3.887897   2.412306   2.978405
     7  C    2.448970   3.826743   1.401267   4.474129   2.764970
     8  C    3.834557   2.456645   4.494769   1.398391   4.976095
     9  C    2.462584   3.802010   2.787510   5.029770   1.398566
    10  C    3.818501   2.460262   5.055715   2.772964   4.333760
    11  C    2.851521   4.312572   2.444489   5.280994   2.427747
    12  C    4.333295   2.855526   5.314468   2.432267   5.172728
    13  C    2.636775   3.278172   1.521791   3.164497   3.778742
    14  C    3.138348   2.597215   2.970437   1.517304   4.569653
    15  C    2.597999   3.081117   3.796530   4.469638   1.518628
    16  C    3.097791   2.607771   4.488135   3.799360   2.871456
    17  C    3.328874   3.292711   2.661930   2.522435   4.695743
    18  C    3.397596   3.387742   4.762401   4.747280   2.561927
    19  O    4.464500   4.347035   3.761916   3.410289   5.791061
    20  O    4.589130   4.575940   5.923163   5.903095   3.621516
    21  H    3.426571   4.705790   2.141650   5.129387   3.845971
    22  H    4.700773   3.429406   5.132586   2.140483   5.935965
    23  H    3.437242   4.659331   3.867510   5.969492   2.142907
    24  H    4.678528   3.434874   5.996098   3.854161   4.953783
    25  H    3.934258   5.386259   3.426831   6.334125   3.414904
    26  H    5.412128   3.939049   6.374002   3.417157   6.216797
    27  H    3.498660   4.265926   2.146488   4.107360   4.520280
    28  H    3.015619   3.677870   2.125449   3.655554   3.943258
    29  H    4.196784   3.462152   4.047350   2.145685   5.618719
    30  H    3.063537   2.798479   2.772180   2.138357   4.425233
    31  H    2.757383   2.936118   3.943925   4.165689   2.144236
    32  H    3.450669   4.133629   4.442912   5.508030   2.155347
    33  H    2.954402   2.781095   4.178307   3.957280   2.730889
    34  H    4.150592   3.464416   5.526734   4.454351   3.951571
                    6          7          8          9         10
     6  C    0.000000
     7  C    4.955755   0.000000
     8  C    2.775107   5.864504   0.000000
     9  C    4.308756   2.376931   6.244226   0.000000
    10  C    1.399050   6.235419   2.379012   5.689144   0.000000
    11  C    5.134246   1.389873   6.623657   1.388527   6.509694
    12  C    2.433332   6.632570   1.389260   6.531339   1.388936
    13  C    4.704654   2.441307   4.415987   4.209264   5.610029
    14  C    3.795633   4.213404   2.465364   5.453086   4.242922
    15  C    2.891123   4.240805   5.263110   2.470967   4.033652
    16  C    1.518576   5.220094   4.248384   3.968658   2.464597
    17  C    4.670542   3.798005   3.505783   5.400194   5.247651
    18  C    2.564553   5.278796   5.295372   3.483860   3.508700
    19  O    5.663553   4.795878   4.071091   6.482811   6.062710
    20  O    3.615926   6.328267   6.334185   4.309691   4.320006
    21  H    5.925131   1.086691   6.517820   3.356728   7.153035
    22  H    3.856555   6.504596   1.085904   7.153060   3.364351
    23  H    4.925147   3.363360   7.109207   1.086398   6.272288
    24  H    2.141562   7.096762   3.364007   6.270486   1.086314
    25  H    6.166949   2.158411   7.687911   2.159224   7.553322
    26  H    3.418493   7.706061   2.157802   7.587379   2.158270
    27  H    5.689119   2.491508   5.351899   4.665886   6.628714
    28  H    5.030160   2.909410   4.774715   4.383658   5.883299
    29  H    4.468902   5.253818   2.498573   6.533582   4.623467
    30  H    3.954169   3.793452   3.210782   5.126829   4.603354
    31  H    2.777799   4.635023   4.798971   3.267093   3.683489
    32  H    3.971892   4.614349   6.324348   2.536897   5.067232
    33  H    2.141873   4.722012   4.633569   3.566485   3.244037
    34  H    2.155786   6.273502   4.621517   4.992860   2.520114
                   11         12         13         14         15
    11  C    0.000000
    12  C    7.163193   0.000000
    13  C    3.724674   5.497845   0.000000
    14  C    5.309276   3.757006   2.540335   0.000000
    15  C    3.762236   5.080800   4.980888   5.516630   0.000000
    16  C    5.004918   3.758624   5.631184   5.022933   2.500228
    17  C    5.061445   4.785098   1.512750   1.503818   5.730967
    18  C    4.771930   4.799945   5.991361   5.958391   1.513093
    19  O    6.097864   5.389456   2.385318   2.399833   6.743594
    20  O    5.656245   5.669078   7.174982   7.151187   2.413107
    21  H    2.142480   7.422236   2.582016   4.571250   5.305941
    22  H    7.402171   2.148558   4.768295   2.611348   6.302096
    23  H    2.150501   7.246789   5.261507   6.498115   2.620579
    24  H    7.219949   2.147869   6.648156   5.308295   4.388987
    25  H    1.085358   8.234882   4.570455   6.265743   4.623501
    26  H    8.245199   1.085349   6.462705   4.611917   6.007828
    27  H    3.866173   6.498058   1.096784   3.200099   5.837882
    28  H    4.026812   5.765430   1.098746   3.302110   4.949225
    29  H    6.378037   3.853028   3.451473   1.091046   6.483797
    30  H    4.849810   4.354378   2.693726   1.099001   5.546678
    31  H    4.415488   4.578701   4.853047   5.320300   1.099247
    32  H    3.880222   6.129312   5.638484   6.481352   1.092005
    33  H    4.448202   4.393133   5.453877   4.921931   2.847618
    34  H    6.039314   3.865301   6.617403   5.727326   3.424064
                   16         17         18         19         20
    16  C    0.000000
    17  C    5.869575   0.000000
    18  C    1.512611   6.511076   0.000000
    19  O    6.952749   1.214320   7.568945   0.000000
    20  O    2.412826   7.717492   1.211866   8.762479   0.000000
    21  H    6.265561   3.935962   6.365390   4.770125   7.410986
    22  H    5.315328   3.574773   6.380662   3.853217   7.417346
    23  H    4.309151   6.464673   3.507587   7.531732   4.053116
    24  H    2.608137   6.332602   3.542176   7.142463   4.072973
    25  H    5.912656   5.954250   5.591412   6.939228   6.354326
    26  H    4.613338   5.627665   5.625727   6.083881   6.371583
    27  H    6.521895   2.097128   6.873724   2.681225   8.042606
    28  H    5.981006   2.100812   6.126173   2.595323   7.264528
    29  H    5.763052   2.122018   6.813625   2.535145   7.979323
    30  H    4.927751   2.117781   5.918538   3.129001   7.101201
    31  H    2.870183   5.451780   2.097056   6.343030   2.942886
    32  H    3.419782   6.552731   2.133404   7.532703   2.565385
    33  H    1.099757   5.794212   2.094762   6.953277   2.953702
    34  H    1.091683   6.715879   2.132799   7.763635   2.561232
                   21         22         23         24         25
    21  H    0.000000
    22  H    7.028073   0.000000
    23  H    4.253138   8.065607   0.000000
    24  H    8.060072   4.261462   6.709274   0.000000
    25  H    2.480422   8.446936   2.496286   8.227631   0.000000
    26  H    8.476778   2.489793   8.269539   2.489850   9.317673
    27  H    2.151973   5.599950   5.698847   7.666619   4.509464
    28  H    3.061387   5.131837   5.348610   6.894022   4.847724
    29  H    5.521971   2.193330   7.572354   5.649171   7.313245
    30  H    4.115978   3.465967   6.173976   5.612304   5.731789
    31  H    5.650712   5.801435   3.542294   4.090686   5.343052
    32  H    5.631219   7.350673   2.264796   5.329932   4.556406
    33  H    5.731725   5.649622   3.951399   3.507786   5.282562
    34  H    7.305875   5.644853   5.235878   2.230536   6.908304
                   26         27         28         29         30
    26  H    0.000000
    27  H    7.451751   0.000000
    28  H    6.686328   1.737813   0.000000
    29  H    4.509594   3.977969   4.147444   0.000000
    30  H    5.260016   3.132734   3.675428   1.780245   0.000000
    31  H    5.442812   5.812027   4.657459   6.224553   5.568023
    32  H    7.024836   6.408039   5.494849   7.479690   6.483331
    33  H    5.308219   6.216045   5.956357   5.707017   4.589359
    34  H    4.527718   7.514826   6.988981   6.335377   5.641953
                   31         32         33         34
    31  H    0.000000
    32  H    1.765840   0.000000
    33  H    3.480428   3.684878   0.000000
    34  H    3.718389   4.241640   1.766915   0.000000
 Stoichiometry    C18H14O2
 Framework group  C1[X(C18H14O2)]
 Deg. of freedom    96
 Full point group                 C1      NOp   1
 RotChk:  IX=0 Diff= 1.96D-15
 Largest Abelian subgroup         C1      NOp   1
 Largest concise Abelian subgroup C1      NOp   1
                         Standard orientation:                         
 ---------------------------------------------------------------------
 Center     Atomic      Atomic             Coordinates (Angstroms)
 Number     Number       Type             X           Y           Z
 ---------------------------------------------------------------------
      1          6           0        0.000448    0.764759   -0.030251
      2          6           0        0.091512   -0.720124   -0.118612
      3          6           0        1.117301    1.667077   -0.129990
      4          6           0        1.324244   -1.437937   -0.227263
      5          6           0       -1.260063    1.402166    0.226994
      6          6           0       -1.086105   -1.534279   -0.239828
      7          6           0        0.882741    3.008184   -0.461597
      8          6           0        1.363108   -2.819475   -0.014334
      9          6           0       -1.448065    2.755880   -0.069823
     10          6           0       -1.013820   -2.916569   -0.036382
     11          6           0       -0.397637    3.546024   -0.517351
     12          6           0        0.200948   -3.559544    0.163779
     13          6           0        2.513529    1.421513    0.423268
     14          6           0        2.606353   -0.825024   -0.759000
     15          6           0       -2.386297    0.733359    0.995450
     16          6           0       -2.412439   -1.027966   -0.778864
     17          6           0        3.257686    0.121662    0.211062
     18          6           0       -3.244505   -0.217744    0.190259
     19          8           0        4.300257   -0.116525    0.786289
     20          8           0       -4.446768   -0.316563    0.306096
     21          1           0        1.740031    3.660696   -0.603653
     22          1           0        2.326210   -3.320331   -0.041991
     23          1           0       -2.429816    3.192471    0.090845
     24          1           0       -1.931406   -3.495929   -0.085940
     25          1           0       -0.554225    4.585094   -0.789042
     26          1           0        0.243569   -4.628910    0.344397
     27          1           0        3.184080    2.212467    0.065932
     28          1           0        2.464566    1.568932    1.510978
     29          1           0        3.316035   -1.616357   -1.005016
     30          1           0        2.372563   -0.263009   -1.674033
     31          1           0       -1.955221    0.130286    1.807128
     32          1           0       -3.029384    1.486873    1.454939
     33          1           0       -2.215579   -0.358582   -1.628945
     34          1           0       -3.012970   -1.860766   -1.149779
 ---------------------------------------------------------------------
 Rotational constants (GHZ):           0.4816773           0.3493254           0.2137402
 Leave Link  202 at Tue May 20 08:42:29 2025, MaxMem=   104857600 cpu:               0.1 elap:               0.0
 (Enter /opt/linux/rocky/8/software/gaussian/16c01_avx2/g16/l301.exe)
 Standard basis: 6-31G(d,p) (6D, 7F)
 Ernie: Thresh=  0.10000D-02 Tol=  0.10000D-05 Strict=F.
 There are   370 symmetry adapted cartesian basis functions of A   symmetry.
 There are   370 symmetry adapted basis functions of A   symmetry.
   370 basis functions,   658 primitive gaussians,   370 cartesian basis functions
    69 alpha electrons       69 beta electrons
       nuclear repulsion energy      1467.2161128507 Hartrees.
 IExCor=  402 DFT=T Ex+Corr=B3LYP ExCW=0 ScaHFX=  0.200000
 ScaDFX=  0.800000  0.720000  1.000000  0.810000 ScalE2=  1.000000  1.000000
 IRadAn=      5 IRanWt=     -1 IRanGd=            0 ICorTp=0 IEmpDi=  4
 NAtoms=   34 NActive=   34 NUniq=   34 SFac= 1.00D+00 NAtFMM=   60 NAOKFM=F Big=F
 Integral buffers will be    131072 words long.
 Raffenetti 2 integral format.
 Two-electron integral symmetry is turned on.
 Leave Link  301 at Tue May 20 08:42:29 2025, MaxMem=   104857600 cpu:               0.5 elap:               0.0
 (Enter /opt/linux/rocky/8/software/gaussian/16c01_avx2/g16/l302.exe)
 NPDir=0 NMtPBC=     1 NCelOv=     1 NCel=       1 NClECP=     1 NCelD=      1
         NCelK=      1 NCelE2=     1 NClLst=     1 CellRange=     0.0.
 One-electron integrals computed using PRISM.
 One-electron integral symmetry used in STVInt
 PrsmSu:  requested number of processors reduced to:  28 ShMem   1 Linda.
 NBasis=   370 RedAO= T EigKep=  4.11D-04  NBF=   370
 NBsUse=   370 1.00D-06 EigRej= -1.00D+00 NBFU=   370
 Precomputing XC quadrature grid using
 IXCGrd= 4 IRadAn=           5 IRanWt=          -1 IRanGd=           0 AccXCQ= 0.00D+00.
 Generated NRdTot=       0 NPtTot=           0 NUsed=           0 NTot=          32
 NSgBfM=   369   369   369   369   369 MxSgAt=    34 MxSgA2=    34.
 Leave Link  302 at Tue May 20 08:42:29 2025, MaxMem=   104857600 cpu:               6.9 elap:               0.2
 (Enter /opt/linux/rocky/8/software/gaussian/16c01_avx2/g16/l303.exe)
 DipDrv:  MaxL=1.
 Leave Link  303 at Tue May 20 08:42:30 2025, MaxMem=   104857600 cpu:               3.5 elap:               0.2
 (Enter /opt/linux/rocky/8/software/gaussian/16c01_avx2/g16/l401.exe)
 Initial guess from the checkpoint file:  "biphenyldiketone_ts.chk"
 B after Tr=    -0.000000    0.000000   -0.000000
         Rot=    1.000000   -0.000000    0.000000   -0.000000 Ang=   0.00 deg.
 Guess basis will be translated and rotated to current coordinates.
 JPrj=2 DoOrth=T DoCkMO=T.
 Leave Link  401 at Tue May 20 08:42:32 2025, MaxMem=   104857600 cpu:              58.5 elap:               2.8
 (Enter /opt/linux/rocky/8/software/gaussian/16c01_avx2/g16/l502.exe)
 Integral symmetry usage will be decided dynamically.
 Closed shell SCF:
 Using DIIS extrapolation, IDIIS=  1040.
 NGot=   104857600 LenX=   104567246 LenY=   104429905
 Requested convergence on RMS density matrix=1.00D-10 within 128 cycles.
 Requested convergence on MAX density matrix=1.00D-08.
 Requested convergence on             energy=1.00D-08.
 No special actions if energy rises.
 Fock matrices will be formed incrementally for  20 cycles.

 Cycle   1  Pass 1  IDiag  1:
 FoFJK:  IHMeth= 1 ICntrl=       0 DoSepK=F KAlg= 0 I1Cent=           0 FoldK=F
 IRaf= 830000000 NMat=       1 IRICut=       1 DoRegI=T DoRafI=F ISym2E= 0 IDoP0=0 IntGTp=1.
 FoFCou: FMM=F IPFlag=           0 FMFlag=      100000 FMFlg1=           0
         NFxFlg=           0 DoJE=F BraDBF=F KetDBF=F FulRan=T
         wScrn=  0.000000 ICntrl=         0 IOpCl=  0 I1Cent=           0 NGrid=           0
         NMat0=    1 NMatS0=      1 NMatT0=    0 NMatD0=    1 NMtDS0=    0 NMtDT0=    0
 Symmetry not used in FoFCou.
 E= -844.788810756009    
 DIIS: error= 1.96D-10 at cycle   1 NSaved=   1.
 NSaved= 1 IEnMin= 1 EnMin= -844.788810756009     IErMin= 1 ErrMin= 1.96D-10
 ErrMax= 1.96D-10  0.00D+00 EMaxC= 1.00D-01 BMatC= 3.03D-17 BMatP= 3.03D-17
 IDIUse=1 WtCom= 1.00D+00 WtEn= 0.00D+00
 Coeff-Com:  0.100D+01
 Coeff:      0.100D+01
 Gap=     0.160 Goal=   None    Shift=    0.000
 RMSDP=4.56D-11 MaxDP=1.98D-09              OVMax= 4.28D-09

 SCF Done:  E(RB3LYP) =  -844.788810756     A.U. after    1 cycles
            NFock=  1  Conv=0.46D-10     -V/T= 2.0095
 KE= 8.368469836126D+02 PE=-4.895964888829D+03 EE= 1.747112981609D+03
 Leave Link  502 at Tue May 20 08:42:34 2025, MaxMem=   104857600 cpu:              34.8 elap:               1.1
 (Enter /opt/linux/rocky/8/software/gaussian/16c01_avx2/g16/l801.exe)
 DoSCS=F DFT=T ScalE2(SS,OS)=  1.000000  1.000000
 Range of M.O.s used for correlation:     1   370
 NBasis=   370 NAE=    69 NBE=    69 NFC=     0 NFV=     0
 NROrb=    370 NOA=    69 NOB=    69 NVA=   301 NVB=   301
 Leave Link  801 at Tue May 20 08:42:34 2025, MaxMem=   104857600 cpu:               0.2 elap:               0.0
 (Enter /opt/linux/rocky/8/software/gaussian/16c01_avx2/g16/l1101.exe)
 Using compressed storage, NAtomX=    34.
 Will process     35 centers per pass.
 PrsmSu:  requested number of processors reduced to:  25 ShMem   1 Linda.
 PrsmSu:  requested number of processors reduced to:  11 ShMem   1 Linda.
 Leave Link 1101 at Tue May 20 08:42:34 2025, MaxMem=   104857600 cpu:               3.5 elap:               0.2
 (Enter /opt/linux/rocky/8/software/gaussian/16c01_avx2/g16/l1102.exe)
 Symmetrizing basis deriv contribution to polar:
 IMax=3 JMax=2 DiffMx= 0.00D+00
 Leave Link 1102 at Tue May 20 08:42:34 2025, MaxMem=   104857600 cpu:               0.6 elap:               0.0
 (Enter /opt/linux/rocky/8/software/gaussian/16c01_avx2/g16/l1110.exe)
 Forming Gx(P) for the SCF density, NAtomX=    34.
 Integral derivatives from FoFJK, PRISM(SPDF).
 Do as many integral derivatives as possible in FoFJK.
 G2DrvN: MDV=     104853962.
 G2DrvN: will do     4 centers at a time, making    9 passes.
 G2DrvN:  IPasSy=1 do centers    0 through    3.
 Calling FoFCou, ICntrl=  3107 FMM=F I1Cent=   0 AccDes= 0.00D+00.
 FoFJK:  IHMeth= 1 ICntrl=    3107 DoSepK=F KAlg= 0 I1Cent=           0 FoldK=F
 IRaf=         0 NMat=       1 IRICut=       1 DoRegI=T DoRafI=F ISym2E= 0 IDoP0=0 IntGTp=1.
 FoFCou: FMM=F IPFlag=           0 FMFlag=      100000 FMFlg1=           0
         NFxFlg=           0 DoJE=F BraDBF=F KetDBF=F FulRan=T
         wScrn=  0.000000 ICntrl=      3107 IOpCl=  0 I1Cent=           0 NGrid=           0
         NMat0=    1 NMatS0=      1 NMatT0=    0 NMatD0=    1 NMtDS0=    0 NMtDT0=    0
 Symmetry not used in FoFCou.
 CoulSu:  requested number of processors reduced to:  31 ShMem   1 Linda.
 G2DrvN:  IPasSy=1 do centers    4 through    7.
 Calling FoFCou, ICntrl=  3107 FMM=F I1Cent=   0 AccDes= 0.00D+00.
 CoulSu:  requested number of processors reduced to:  31 ShMem   1 Linda.
 G2DrvN:  IPasSy=1 do centers    8 through   11.
 Calling FoFCou, ICntrl=  3107 FMM=F I1Cent=   0 AccDes= 0.00D+00.
 CoulSu:  requested number of processors reduced to:  31 ShMem   1 Linda.
 G2DrvN:  IPasSy=1 do centers   12 through   15.
 Calling FoFCou, ICntrl=  3107 FMM=F I1Cent=   0 AccDes= 0.00D+00.
 CoulSu:  requested number of processors reduced to:  31 ShMem   1 Linda.
 G2DrvN:  IPasSy=1 do centers   16 through   19.
 Calling FoFCou, ICntrl=  3107 FMM=F I1Cent=   0 AccDes= 0.00D+00.
 CoulSu:  requested number of processors reduced to:  31 ShMem   1 Linda.
 G2DrvN:  IPasSy=1 do centers   20 through   23.
 Calling FoFCou, ICntrl=  3107 FMM=F I1Cent=   0 AccDes= 0.00D+00.
 CoulSu:  requested number of processors reduced to:  31 ShMem   1 Linda.
 G2DrvN:  IPasSy=1 do centers   24 through   27.
 Calling FoFCou, ICntrl=  3107 FMM=F I1Cent=   0 AccDes= 0.00D+00.
 CoulSu:  requested number of processors reduced to:  31 ShMem   1 Linda.
 G2DrvN:  IPasSy=1 do centers   28 through   31.
 Calling FoFCou, ICntrl=  3107 FMM=F I1Cent=   0 AccDes= 0.00D+00.
 CoulSu:  requested number of processors reduced to:  31 ShMem   1 Linda.
 G2DrvN:  IPasSy=1 do centers   32 through   34.
 Calling FoFCou, ICntrl=  3107 FMM=F I1Cent=   0 AccDes= 0.00D+00.
 End of G2Drv F.D. properties file   721 does not exist.
 End of G2Drv F.D. properties file   722 does not exist.
 End of G2Drv F.D. properties file   788 does not exist.
 Leave Link 1110 at Tue May 20 08:43:21 2025, MaxMem=   104857600 cpu:            1486.6 elap:              47.2
 (Enter /opt/linux/rocky/8/software/gaussian/16c01_avx2/g16/l1002.exe)
 Minotr:  Closed shell wavefunction.
          IDoAtm=1111111111111111111111111111111111
          Direct CPHF calculation.
          Differentiating once with respect to electric field.
                with respect to dipole field.
          Differentiating once with respect to nuclear coordinates.
          Requested convergence is 1.0D-08 RMS, and 1.0D-07 maximum.
          Secondary convergence is 1.0D-12 RMS, and 1.0D-12 maximum.
          NewPWx=T KeepS1=F KeepF1=F KeepIn=T MapXYZ=F SortEE=F KeepMc=T.
        10189 words used for storage of precomputed grid.
 Two-electron integrals replicated using symmetry.
          MDV=     104857600 using IRadAn=       1.
          Solving linear equations simultaneously, MaxMat=     384.
 FoF2E skips out because all densities are zero.
 CalDSu exits because no D1Ps are significant.
 FoFJK:  IHMeth= 1 ICntrl=       0 DoSepK=F KAlg= 0 I1Cent=           0 FoldK=F
 IRaf= 770000000 NMat=      12 IRICut=       1 DoRegI=T DoRafI=F ISym2E= 2 IDoP0=0 IntGTp=1.
 FoFCou: FMM=F IPFlag=           0 FMFlag=      100000 FMFlg1=           0
         NFxFlg=           0 DoJE=F BraDBF=F KetDBF=F FulRan=T
         wScrn=  0.000000 ICntrl=         0 IOpCl=  0 I1Cent=           0 NGrid=           0
         NMat0=   12 NMatS0=     12 NMatT0=    0 NMatD0=   12 NMtDS0=    0 NMtDT0=    0
 Integrals replicated using symmetry in FoFCou.
          There are   105 degrees of freedom in the 1st order CPHF.  IDoFFX=6 NUNeed=     3.
    105 vectors produced by pass  0 Test12= 2.08D-14 1.00D-09 XBig12= 3.92D+02 1.06D+01.
 AX will form    12 AO Fock derivatives at one time.
    103 vectors produced by pass  1 Test12= 2.08D-14 1.00D-09 XBig12= 5.07D+01 8.78D-01.
    102 vectors produced by pass  2 Test12= 2.08D-14 1.00D-09 XBig12= 4.85D-01 1.21D-01.
    102 vectors produced by pass  3 Test12= 2.08D-14 1.00D-09 XBig12= 2.76D-03 8.22D-03.
    102 vectors produced by pass  4 Test12= 2.08D-14 1.00D-09 XBig12= 5.87D-06 2.93D-04.
     87 vectors produced by pass  5 Test12= 2.08D-14 1.00D-09 XBig12= 6.71D-09 7.25D-06.
     20 vectors produced by pass  6 Test12= 2.08D-14 1.00D-09 XBig12= 6.88D-12 2.66D-07.
      6 vectors produced by pass  7 Test12= 2.08D-14 1.00D-09 XBig12= 7.10D-15 7.44D-09.
 InvSVY:  IOpt=1 It=  1 EMax= 7.11D-15
 Solved reduced A of dimension   627 with   105 vectors.
 FullF1:  Do perturbations      1 to       3.
 Isotropic polarizability for W=    0.000000      192.90 Bohr**3.
 End of Minotr F.D. properties file   721 does not exist.
 End of Minotr F.D. properties file   722 does not exist.
 End of Minotr F.D. properties file   788 does not exist.
 Leave Link 1002 at Tue May 20 08:44:57 2025, MaxMem=   104857600 cpu:            3030.7 elap:              96.1
 (Enter /opt/linux/rocky/8/software/gaussian/16c01_avx2/g16/l601.exe)
 Copying SCF densities to generalized density rwf, IOpCl= 0 IROHF=0.

 **********************************************************************

            Population analysis using the SCF Density.

 **********************************************************************

 Orbital symmetries:
       Occupied  (A) (A) (A) (A) (A) (A) (A) (A) (A) (A) (A) (A)
                 (A) (A) (A) (A) (A) (A) (A) (A) (A) (A) (A) (A)
                 (A) (A) (A) (A) (A) (A) (A) (A) (A) (A) (A) (A)
                 (A) (A) (A) (A) (A) (A) (A) (A) (A) (A) (A) (A)
                 (A) (A) (A) (A) (A) (A) (A) (A) (A) (A) (A) (A)
                 (A) (A) (A) (A) (A) (A) (A) (A) (A)
       Virtual   (A) (A) (A) (A) (A) (A) (A) (A) (A) (A) (A) (A)
                 (A) (A) (A) (A) (A) (A) (A) (A) (A) (A) (A) (A)
                 (A) (A) (A) (A) (A) (A) (A) (A) (A) (A) (A) (A)
                 (A) (A) (A) (A) (A) (A) (A) (A) (A) (A) (A) (A)
                 (A) (A) (A) (A) (A) (A) (A) (A) (A) (A) (A) (A)
                 (A) (A) (A) (A) (A) (A) (A) (A) (A) (A) (A) (A)
                 (A) (A) (A) (A) (A) (A) (A) (A) (A) (A) (A) (A)
                 (A) (A) (A) (A) (A) (A) (A) (A) (A) (A) (A) (A)
                 (A) (A) (A) (A) (A) (A) (A) (A) (A) (A) (A) (A)
                 (A) (A) (A) (A) (A) (A) (A) (A) (A) (A) (A) (A)
                 (A) (A) (A) (A) (A) (A) (A) (A) (A) (A) (A) (A)
                 (A) (A) (A) (A) (A) (A) (A) (A) (A) (A) (A) (A)
                 (A) (A) (A) (A) (A) (A) (A) (A) (A) (A) (A) (A)
                 (A) (A) (A) (A) (A) (A) (A) (A) (A) (A) (A) (A)
                 (A) (A) (A) (A) (A) (A) (A) (A) (A) (A) (A) (A)
                 (A) (A) (A) (A) (A) (A) (A) (A) (A) (A) (A) (A)
                 (A) (A) (A) (A) (A) (A) (A) (A) (A) (A) (A) (A)
                 (A) (A) (A) (A) (A) (A) (A) (A) (A) (A) (A) (A)
                 (A) (A) (A) (A) (A) (A) (A) (A) (A) (A) (A) (A)
                 (A) (A) (A) (A) (A) (A) (A) (A) (A) (A) (A) (A)
                 (A) (A) (A) (A) (A) (A) (A) (A) (A) (A) (A) (A)
                 (A) (A) (A) (A) (A) (A) (A) (A) (A) (A) (A) (A)
                 (A) (A) (A) (A) (A) (A) (A) (A) (A) (A) (A) (A)
                 (A) (A) (A) (A) (A) (A) (A) (A) (A) (A) (A) (A)
                 (A) (A) (A) (A) (A) (A) (A) (A) (A) (A) (A) (A)
                 (A)
 The electronic state is 1-A.
 Alpha  occ. eigenvalues --  -19.14491 -19.14183 -10.28069 -10.28066 -10.22406
 Alpha  occ. eigenvalues --  -10.22224 -10.21891 -10.21819 -10.21664 -10.21640
 Alpha  occ. eigenvalues --  -10.20765 -10.20337 -10.20332 -10.20314 -10.19996
 Alpha  occ. eigenvalues --  -10.19926 -10.19743 -10.19736 -10.19673 -10.19662
 Alpha  occ. eigenvalues --   -1.04556  -1.04380  -0.88953  -0.86345  -0.82710
 Alpha  occ. eigenvalues --   -0.79812  -0.79146  -0.76495  -0.75683  -0.72093
 Alpha  occ. eigenvalues --   -0.69704  -0.68943  -0.63958  -0.61016  -0.58725
 Alpha  occ. eigenvalues --   -0.57973  -0.55012  -0.53987  -0.51368  -0.50324
 Alpha  occ. eigenvalues --   -0.48915  -0.48241  -0.47900  -0.46906  -0.45804
 Alpha  occ. eigenvalues --   -0.45331  -0.44657  -0.43979  -0.43376  -0.42000
 Alpha  occ. eigenvalues --   -0.41443  -0.41044  -0.39792  -0.39256  -0.38999
 Alpha  occ. eigenvalues --   -0.38007  -0.37033  -0.36504  -0.35879  -0.35209
 Alpha  occ. eigenvalues --   -0.34726  -0.33956  -0.33442  -0.29059  -0.27673
 Alpha  occ. eigenvalues --   -0.25290  -0.24858  -0.22555  -0.22430
 Alpha virt. eigenvalues --   -0.06416  -0.02641  -0.01692  -0.01205  -0.00160
 Alpha virt. eigenvalues --    0.01129   0.08303   0.08870   0.09813   0.10406
 Alpha virt. eigenvalues --    0.11188   0.11688   0.12494   0.13689   0.14751
 Alpha virt. eigenvalues --    0.15591   0.16035   0.16268   0.17034   0.18533
 Alpha virt. eigenvalues --    0.19579   0.19673   0.21329   0.21925   0.22867
 Alpha virt. eigenvalues --    0.23083   0.24583   0.25337   0.25728   0.27887
 Alpha virt. eigenvalues --    0.29271   0.30870   0.31639   0.32299   0.32776
 Alpha virt. eigenvalues --    0.33439   0.36240   0.36358   0.37926   0.38297
 Alpha virt. eigenvalues --    0.38611   0.45938   0.48552   0.49160   0.50497
 Alpha virt. eigenvalues --    0.50992   0.51349   0.52248   0.52950   0.53533
 Alpha virt. eigenvalues --    0.54358   0.54620   0.54893   0.55682   0.56345
 Alpha virt. eigenvalues --    0.57058   0.58339   0.58580   0.59349   0.59765
 Alpha virt. eigenvalues --    0.60249   0.60475   0.60553   0.61101   0.62244
 Alpha virt. eigenvalues --    0.62796   0.64285   0.65382   0.66893   0.67475
 Alpha virt. eigenvalues --    0.67923   0.68500   0.68783   0.69361   0.70149
 Alpha virt. eigenvalues --    0.70288   0.71424   0.73336   0.73830   0.77373
 Alpha virt. eigenvalues --    0.78860   0.79052   0.79734   0.80472   0.81065
 Alpha virt. eigenvalues --    0.81146   0.81266   0.81709   0.82290   0.82967
 Alpha virt. eigenvalues --    0.84023   0.85255   0.86650   0.86970   0.88115
 Alpha virt. eigenvalues --    0.89330   0.90200   0.90962   0.91095   0.91803
 Alpha virt. eigenvalues --    0.93410   0.94238   0.96112   0.96684   0.97266
 Alpha virt. eigenvalues --    0.98487   0.99213   1.01144   1.01595   1.02382
 Alpha virt. eigenvalues --    1.03822   1.07419   1.07819   1.09213   1.09625
 Alpha virt. eigenvalues --    1.10101   1.10832   1.12673   1.13623   1.14190
 Alpha virt. eigenvalues --    1.16574   1.17769   1.20215   1.23037   1.24535
 Alpha virt. eigenvalues --    1.27196   1.27710   1.30785   1.31646   1.32627
 Alpha virt. eigenvalues --    1.34433   1.36065   1.36668   1.38883   1.40758
 Alpha virt. eigenvalues --    1.41022   1.41669   1.44382   1.45869   1.46729
 Alpha virt. eigenvalues --    1.49737   1.51288   1.54666   1.56735   1.57442
 Alpha virt. eigenvalues --    1.61745   1.63140   1.64206   1.65074   1.67177
 Alpha virt. eigenvalues --    1.68042   1.69035   1.71570   1.72146   1.73731
 Alpha virt. eigenvalues --    1.74268   1.75658   1.76852   1.78109   1.78532
 Alpha virt. eigenvalues --    1.79213   1.79757   1.81003   1.81965   1.82716
 Alpha virt. eigenvalues --    1.83539   1.84148   1.85541   1.86467   1.87009
 Alpha virt. eigenvalues --    1.87774   1.89523   1.89595   1.90673   1.92507
 Alpha virt. eigenvalues --    1.93190   1.94073   1.94823   1.95935   1.98240
 Alpha virt. eigenvalues --    2.00014   2.00652   2.01212   2.01758   2.04308
 Alpha virt. eigenvalues --    2.05274   2.07168   2.07362   2.08843   2.09343
 Alpha virt. eigenvalues --    2.11124   2.12871   2.14999   2.16896   2.17588
 Alpha virt. eigenvalues --    2.19268   2.20004   2.21644   2.22933   2.24047
 Alpha virt. eigenvalues --    2.25645   2.26168   2.26857   2.28738   2.30188
 Alpha virt. eigenvalues --    2.30426   2.32576   2.33593   2.34000   2.36288
 Alpha virt. eigenvalues --    2.37322   2.38464   2.39372   2.39801   2.40798
 Alpha virt. eigenvalues --    2.41360   2.43616   2.44444   2.45032   2.45465
 Alpha virt. eigenvalues --    2.46152   2.48540   2.50521   2.51101   2.53091
 Alpha virt. eigenvalues --    2.53928   2.55848   2.56091   2.56383   2.56917
 Alpha virt. eigenvalues --    2.57689   2.58380   2.59464   2.59556   2.62544
 Alpha virt. eigenvalues --    2.64038   2.64813   2.66038   2.66535   2.69010
 Alpha virt. eigenvalues --    2.69658   2.69846   2.71676   2.72385   2.73028
 Alpha virt. eigenvalues --    2.77883   2.78408   2.79179   2.82657   2.84952
 Alpha virt. eigenvalues --    2.85638   2.87490   2.88358   2.90502   2.96284
 Alpha virt. eigenvalues --    2.96596   2.99748   3.01398   3.02793   3.05510
 Alpha virt. eigenvalues --    3.06862   3.08469   3.12276   3.13764   3.19518
 Alpha virt. eigenvalues --    3.24498   3.25160   3.26280   3.29709   3.30261
 Alpha virt. eigenvalues --    3.31232   3.32339   3.35354   3.39038   3.39747
 Alpha virt. eigenvalues --    3.45808   3.46081   3.47845   3.50189   3.75593
 Alpha virt. eigenvalues --    3.78729   4.02831   4.06008   4.09430   4.13706
 Alpha virt. eigenvalues --    4.14497   4.16028   4.20416   4.21960   4.26604
 Alpha virt. eigenvalues --    4.27304   4.40958   4.44595   4.49139   4.50706
 Alpha virt. eigenvalues --    4.57940   4.59794   4.68551   4.76542   4.80983
 Alpha virt. eigenvalues --    4.83462
          Condensed to atoms (all electrons):
               1          2          3          4          5          6
     1  C    5.004443   0.357826   0.448689  -0.044101   0.445689  -0.040033
     2  C    0.357826   4.974116  -0.045217   0.440281  -0.034910   0.447963
     3  C    0.448689  -0.045217   5.003590  -0.017668  -0.048051   0.006626
     4  C   -0.044101   0.440281  -0.017668   4.928413   0.007372  -0.043199
     5  C    0.445689  -0.034910  -0.048051   0.007372   4.969541  -0.031089
     6  C   -0.040033   0.447963   0.006626  -0.043199  -0.031089   4.963976
     7  C   -0.024037   0.006263   0.505403   0.000215  -0.049643  -0.000144
     8  C    0.006699  -0.018630   0.000200   0.534985  -0.000199  -0.047554
     9  C   -0.025585   0.005718  -0.044989  -0.000194   0.527743   0.000657
    10  C    0.005982  -0.025748  -0.000165  -0.045474   0.000539   0.529125
    11  C   -0.033076   0.000199  -0.034191   0.000001  -0.033832  -0.000011
    12  C    0.000169  -0.034551  -0.000002  -0.036322   0.000002  -0.034384
    13  C   -0.052162  -0.006043   0.275106   0.001115   0.003915  -0.000015
    14  C   -0.014576  -0.055480   0.015632   0.344281   0.000001   0.004394
    15  C   -0.047638  -0.009997   0.004258   0.000008   0.314890   0.010488
    16  C   -0.010261  -0.048080  -0.000019   0.004144   0.011424   0.316602
    17  C   -0.000179  -0.000522  -0.018430  -0.029397  -0.000255  -0.000054
    18  C   -0.003326  -0.002693  -0.000130  -0.000113  -0.032197  -0.032660
    19  O    0.000157  -0.000118   0.003901  -0.000252   0.000001  -0.000001
    20  O   -0.000047  -0.000051   0.000001   0.000001   0.001762   0.001662
    21  H    0.004403  -0.000155  -0.043716   0.000003   0.000777   0.000001
    22  H   -0.000162   0.004486   0.000001  -0.035772   0.000001   0.000815
    23  H    0.004407  -0.000178   0.000822   0.000001  -0.037151  -0.000006
    24  H   -0.000186   0.004235   0.000001   0.000904  -0.000004  -0.036939
    25  H    0.000545   0.000003   0.004688  -0.000000   0.004709   0.000000
    26  H    0.000006   0.000821  -0.000000   0.004575   0.000000   0.004519
    27  H    0.003366   0.000091  -0.036169   0.000051  -0.000097   0.000002
    28  H   -0.003042  -0.000170  -0.033656   0.000364   0.000203  -0.000006
    29  H    0.000246   0.003824  -0.000238  -0.030426   0.000006  -0.000142
    30  H   -0.000394  -0.003658   0.004336  -0.034153  -0.000059   0.000278
    31  H   -0.002423  -0.001875   0.000595  -0.000340  -0.033969   0.009593
    32  H    0.003656   0.000200  -0.000164   0.000006  -0.031394   0.000121
    33  H   -0.001620  -0.002806  -0.000337   0.000450   0.010520  -0.033739
    34  H    0.000198   0.003642   0.000007  -0.000128   0.000099  -0.031536
               7          8          9         10         11         12
     1  C   -0.024037   0.006699  -0.025585   0.005982  -0.033076   0.000169
     2  C    0.006263  -0.018630   0.005718  -0.025748   0.000199  -0.034551
     3  C    0.505403   0.000200  -0.044989  -0.000165  -0.034191  -0.000002
     4  C    0.000215   0.534985  -0.000194  -0.045474   0.000001  -0.036322
     5  C   -0.049643  -0.000199   0.527743   0.000539  -0.033832   0.000002
     6  C   -0.000144  -0.047554   0.000657   0.529125  -0.000011  -0.034384
     7  C    4.922591   0.000001  -0.035148  -0.000000   0.519247   0.000000
     8  C    0.000001   4.877157   0.000000  -0.035567   0.000000   0.527393
     9  C   -0.035148   0.000000   4.887216   0.000005   0.531973  -0.000000
    10  C   -0.000000  -0.035567   0.000005   4.887677  -0.000000   0.531236
    11  C    0.519247   0.000000   0.531973  -0.000000   4.822736   0.000000
    12  C    0.000000   0.527393  -0.000000   0.531236   0.000000   4.820373
    13  C   -0.037351   0.000002   0.000022   0.000005   0.005489   0.000013
    14  C    0.000044  -0.044053   0.000015   0.000340  -0.000014   0.006480
    15  C    0.000319   0.000023  -0.047575  -0.000732   0.006024   0.000000
    16  C    0.000027   0.000291  -0.000975  -0.046788  -0.000008   0.006060
    17  C    0.002962  -0.001008  -0.000002  -0.000013  -0.000149  -0.000068
    18  C   -0.000009  -0.000002   0.001224   0.000967  -0.000061  -0.000086
    19  O   -0.000089   0.000061   0.000000   0.000000   0.000000  -0.000001
    20  O    0.000000   0.000000   0.000089   0.000066   0.000000   0.000000
    21  H    0.368060  -0.000000   0.004614  -0.000000  -0.038863  -0.000000
    22  H    0.000000   0.365618  -0.000000   0.004389  -0.000000  -0.039821
    23  H    0.004402  -0.000000   0.364130   0.000000  -0.038900  -0.000000
    24  H   -0.000000   0.004328   0.000000   0.364405  -0.000000  -0.038987
    25  H   -0.038506   0.000000  -0.038145   0.000000   0.365774  -0.000000
    26  H    0.000000  -0.037605   0.000000  -0.038049  -0.000000   0.364556
    27  H   -0.005326  -0.000005  -0.000028  -0.000000   0.000257   0.000000
    28  H   -0.005986   0.000006   0.000250   0.000001  -0.000268  -0.000003
    29  H   -0.000007  -0.008663  -0.000000  -0.000004   0.000000   0.000521
    30  H    0.000114  -0.000333   0.000000   0.000085  -0.000008  -0.000180
    31  H    0.000067   0.000020   0.001542   0.000812  -0.000195  -0.000082
    32  H   -0.000002  -0.000000  -0.008900  -0.000014   0.000259  -0.000000
    33  H    0.000024   0.000058   0.001093   0.001088  -0.000113  -0.000181
    34  H   -0.000000  -0.000006  -0.000018  -0.009007  -0.000000   0.000308
              13         14         15         16         17         18
     1  C   -0.052162  -0.014576  -0.047638  -0.010261  -0.000179  -0.003326
     2  C   -0.006043  -0.055480  -0.009997  -0.048080  -0.000522  -0.002693
     3  C    0.275106   0.015632   0.004258  -0.000019  -0.018430  -0.000130
     4  C    0.001115   0.344281   0.000008   0.004144  -0.029397  -0.000113
     5  C    0.003915   0.000001   0.314890   0.011424  -0.000255  -0.032197
     6  C   -0.000015   0.004394   0.010488   0.316602  -0.000054  -0.032660
     7  C   -0.037351   0.000044   0.000319   0.000027   0.002962  -0.000009
     8  C    0.000002  -0.044053   0.000023   0.000291  -0.001008  -0.000002
     9  C    0.000022   0.000015  -0.047575  -0.000975  -0.000002   0.001224
    10  C    0.000005   0.000340  -0.000732  -0.046788  -0.000013   0.000967
    11  C    0.005489  -0.000014   0.006024  -0.000008  -0.000149  -0.000061
    12  C    0.000013   0.006480   0.000000   0.006060  -0.000068  -0.000086
    13  C    5.357709  -0.138212  -0.000087  -0.000002   0.253962  -0.000001
    14  C   -0.138212   5.233751  -0.000003  -0.000109   0.319647  -0.000002
    15  C   -0.000087  -0.000003   5.308853  -0.152041  -0.000003   0.289832
    16  C   -0.000002  -0.000109  -0.152041   5.304353  -0.000002   0.294488
    17  C    0.253962   0.319647  -0.000003  -0.000002   4.582840  -0.000000
    18  C   -0.000001  -0.000002   0.289832   0.294488  -0.000000   4.549586
    19  O   -0.071445  -0.070811  -0.000000  -0.000000   0.563469  -0.000000
    20  O   -0.000000  -0.000000  -0.073186  -0.073069   0.000000   0.584814
    21  H   -0.011659   0.000033   0.000007   0.000000   0.000194  -0.000000
    22  H   -0.000005  -0.011798   0.000000   0.000009   0.000150   0.000000
    23  H    0.000007   0.000000  -0.010199   0.000075  -0.000000   0.000082
    24  H   -0.000000   0.000011   0.000049  -0.010538   0.000000   0.000112
    25  H   -0.000142  -0.000000  -0.000190  -0.000001   0.000001   0.000001
    26  H   -0.000000  -0.000201  -0.000001  -0.000194   0.000001   0.000001
    27  H    0.359800   0.003635   0.000002   0.000000  -0.020114   0.000000
    28  H    0.367137   0.004815   0.000020  -0.000000  -0.028833   0.000000
    29  H    0.008601   0.354734   0.000000   0.000002  -0.025970   0.000000
    30  H    0.002532   0.361005  -0.000001   0.000016  -0.035962   0.000000
    31  H    0.000007  -0.000002   0.360631  -0.005193   0.000002  -0.026306
    32  H    0.000004   0.000000   0.356174   0.008284   0.000000  -0.023946
    33  H   -0.000003   0.000008  -0.005609   0.359733   0.000001  -0.027309
    34  H    0.000000   0.000003   0.008506   0.355578  -0.000000  -0.024344
              19         20         21         22         23         24
     1  C    0.000157  -0.000047   0.004403  -0.000162   0.004407  -0.000186
     2  C   -0.000118  -0.000051  -0.000155   0.004486  -0.000178   0.004235
     3  C    0.003901   0.000001  -0.043716   0.000001   0.000822   0.000001
     4  C   -0.000252   0.000001   0.000003  -0.035772   0.000001   0.000904
     5  C    0.000001   0.001762   0.000777   0.000001  -0.037151  -0.000004
     6  C   -0.000001   0.001662   0.000001   0.000815  -0.000006  -0.036939
     7  C   -0.000089   0.000000   0.368060   0.000000   0.004402  -0.000000
     8  C    0.000061   0.000000  -0.000000   0.365618  -0.000000   0.004328
     9  C    0.000000   0.000089   0.004614  -0.000000   0.364130   0.000000
    10  C    0.000000   0.000066  -0.000000   0.004389   0.000000   0.364405
    11  C    0.000000   0.000000  -0.038863  -0.000000  -0.038900  -0.000000
    12  C   -0.000001   0.000000  -0.000000  -0.039821  -0.000000  -0.038987
    13  C   -0.071445  -0.000000  -0.011659  -0.000005   0.000007  -0.000000
    14  C   -0.070811  -0.000000   0.000033  -0.011798   0.000000   0.000011
    15  C   -0.000000  -0.073186   0.000007   0.000000  -0.010199   0.000049
    16  C   -0.000000  -0.073069   0.000000   0.000009   0.000075  -0.010538
    17  C    0.563469   0.000000   0.000194   0.000150  -0.000000   0.000000
    18  C   -0.000000   0.584814  -0.000000   0.000000   0.000082   0.000112
    19  O    8.016694  -0.000000  -0.000000   0.000066   0.000000  -0.000000
    20  O   -0.000000   7.992368   0.000000   0.000000  -0.000022  -0.000024
    21  H   -0.000000   0.000000   0.628917   0.000000  -0.000228   0.000000
    22  H    0.000066   0.000000   0.000000   0.615282   0.000000  -0.000221
    23  H    0.000000  -0.000022  -0.000228   0.000000   0.617634   0.000000
    24  H   -0.000000  -0.000024   0.000000  -0.000221   0.000000   0.618174
    25  H   -0.000000  -0.000000  -0.005902  -0.000000  -0.005272  -0.000000
    26  H    0.000000  -0.000000  -0.000000  -0.005379  -0.000000  -0.005394
    27  H   -0.000588   0.000000   0.007127   0.000000  -0.000000   0.000000
    28  H    0.000256  -0.000000   0.000506   0.000001  -0.000000  -0.000000
    29  H    0.003598   0.000000  -0.000000   0.006316  -0.000000  -0.000000
    30  H    0.002302  -0.000000  -0.000006   0.000216  -0.000000  -0.000000
    31  H   -0.000000   0.000490  -0.000000   0.000000   0.000152   0.000014
    32  H    0.000000   0.002580  -0.000000   0.000000   0.005902   0.000000
    33  H    0.000000   0.000569   0.000000  -0.000000   0.000025   0.000156
    34  H    0.000000   0.003030   0.000000  -0.000000   0.000000   0.006096
              25         26         27         28         29         30
     1  C    0.000545   0.000006   0.003366  -0.003042   0.000246  -0.000394
     2  C    0.000003   0.000821   0.000091  -0.000170   0.003824  -0.003658
     3  C    0.004688  -0.000000  -0.036169  -0.033656  -0.000238   0.004336
     4  C   -0.000000   0.004575   0.000051   0.000364  -0.030426  -0.034153
     5  C    0.004709   0.000000  -0.000097   0.000203   0.000006  -0.000059
     6  C    0.000000   0.004519   0.000002  -0.000006  -0.000142   0.000278
     7  C   -0.038506   0.000000  -0.005326  -0.005986  -0.000007   0.000114
     8  C    0.000000  -0.037605  -0.000005   0.000006  -0.008663  -0.000333
     9  C   -0.038145   0.000000  -0.000028   0.000250  -0.000000   0.000000
    10  C    0.000000  -0.038049  -0.000000   0.000001  -0.000004   0.000085
    11  C    0.365774  -0.000000   0.000257  -0.000268   0.000000  -0.000008
    12  C   -0.000000   0.364556   0.000000  -0.000003   0.000521  -0.000180
    13  C   -0.000142  -0.000000   0.359800   0.367137   0.008601   0.002532
    14  C   -0.000000  -0.000201   0.003635   0.004815   0.354734   0.361005
    15  C   -0.000190  -0.000001   0.000002   0.000020   0.000000  -0.000001
    16  C   -0.000001  -0.000194   0.000000  -0.000000   0.000002   0.000016
    17  C    0.000001   0.000001  -0.020114  -0.028833  -0.025970  -0.035962
    18  C    0.000001   0.000001   0.000000   0.000000   0.000000   0.000000
    19  O   -0.000000   0.000000  -0.000588   0.000256   0.003598   0.002302
    20  O   -0.000000  -0.000000   0.000000  -0.000000   0.000000  -0.000000
    21  H   -0.005902  -0.000000   0.007127   0.000506  -0.000000  -0.000006
    22  H   -0.000000  -0.005379   0.000000   0.000001   0.006316   0.000216
    23  H   -0.005272  -0.000000  -0.000000  -0.000000  -0.000000  -0.000000
    24  H   -0.000000  -0.005394   0.000000  -0.000000  -0.000000  -0.000000
    25  H    0.620689  -0.000000  -0.000019   0.000002   0.000000   0.000000
    26  H   -0.000000   0.619302  -0.000000   0.000000  -0.000023   0.000004
    27  H   -0.000019  -0.000000   0.565963  -0.021656  -0.000250  -0.000205
    28  H    0.000002   0.000000  -0.021656   0.556460  -0.000165   0.000389
    29  H    0.000000  -0.000023  -0.000250  -0.000165   0.589688  -0.027642
    30  H    0.000000   0.000004  -0.000205   0.000389  -0.027642   0.596226
    31  H    0.000003   0.000000  -0.000000  -0.000013   0.000000  -0.000000
    32  H   -0.000017  -0.000000  -0.000000  -0.000000   0.000000   0.000000
    33  H    0.000000   0.000004  -0.000000   0.000000   0.000000  -0.000015
    34  H   -0.000000  -0.000019  -0.000000   0.000000  -0.000000   0.000000
              31         32         33         34
     1  C   -0.002423   0.003656  -0.001620   0.000198
     2  C   -0.001875   0.000200  -0.002806   0.003642
     3  C    0.000595  -0.000164  -0.000337   0.000007
     4  C   -0.000340   0.000006   0.000450  -0.000128
     5  C   -0.033969  -0.031394   0.010520   0.000099
     6  C    0.009593   0.000121  -0.033739  -0.031536
     7  C    0.000067  -0.000002   0.000024  -0.000000
     8  C    0.000020  -0.000000   0.000058  -0.000006
     9  C    0.001542  -0.008900   0.001093  -0.000018
    10  C    0.000812  -0.000014   0.001088  -0.009007
    11  C   -0.000195   0.000259  -0.000113  -0.000000
    12  C   -0.000082  -0.000000  -0.000181   0.000308
    13  C    0.000007   0.000004  -0.000003   0.000000
    14  C   -0.000002   0.000000   0.000008   0.000003
    15  C    0.360631   0.356174  -0.005609   0.008506
    16  C   -0.005193   0.008284   0.359733   0.355578
    17  C    0.000002   0.000000   0.000001  -0.000000
    18  C   -0.026306  -0.023946  -0.027309  -0.024344
    19  O   -0.000000   0.000000   0.000000   0.000000
    20  O    0.000490   0.002580   0.000569   0.003030
    21  H   -0.000000  -0.000000   0.000000   0.000000
    22  H    0.000000   0.000000  -0.000000  -0.000000
    23  H    0.000152   0.005902   0.000025   0.000000
    24  H    0.000014   0.000000   0.000156   0.006096
    25  H    0.000003  -0.000017   0.000000  -0.000000
    26  H    0.000000  -0.000000   0.000004  -0.000019
    27  H   -0.000000  -0.000000  -0.000000  -0.000000
    28  H   -0.000013  -0.000000   0.000000   0.000000
    29  H    0.000000   0.000000   0.000000  -0.000000
    30  H   -0.000000   0.000000  -0.000015   0.000000
    31  H    0.569734  -0.024327   0.000768  -0.000233
    32  H   -0.024327   0.581717  -0.000219  -0.000154
    33  H    0.000768  -0.000219   0.572102  -0.024472
    34  H   -0.000233  -0.000154  -0.024472   0.583727
 Mulliken charges:
               1
     1  C    0.016366
     2  C    0.041213
     3  C    0.049288
     4  C    0.050368
     5  C    0.033653
     6  C    0.034688
     7  C   -0.133490
     8  C   -0.123214
     9  C   -0.124734
    10  C   -0.125162
    11  C   -0.072272
    12  C   -0.072440
    13  C   -0.318295
    14  C   -0.313567
    15  C   -0.312822
    16  C   -0.313807
    17  C    0.437731
    18  C    0.452078
    19  O   -0.447200
    20  O   -0.441032
    21  H    0.085888
    22  H    0.095807
    23  H    0.094317
    24  H    0.093810
    25  H    0.091778
    26  H    0.093078
    27  H    0.144164
    28  H    0.163389
    29  H    0.125995
    30  H    0.135114
    31  H    0.150526
    32  H    0.130235
    33  H    0.149823
    34  H    0.128725
 Sum of Mulliken charges =   0.00000
 Mulliken charges with hydrogens summed into heavy atoms:
               1
     1  C    0.016366
     2  C    0.041213
     3  C    0.049288
     4  C    0.050368
     5  C    0.033653
     6  C    0.034688
     7  C   -0.047602
     8  C   -0.027407
     9  C   -0.030417
    10  C   -0.031352
    11  C    0.019506
    12  C    0.020638
    13  C   -0.010742
    14  C   -0.052458
    15  C   -0.032061
    16  C   -0.035260
    17  C    0.437731
    18  C    0.452078
    19  O   -0.447200
    20  O   -0.441032
 APT charges:
               1
     1  C    0.051600
     2  C    0.031444
     3  C    0.008947
     4  C    0.049572
     5  C    0.038080
     6  C    0.046265
     7  C   -0.087939
     8  C   -0.091813
     9  C   -0.088774
    10  C   -0.096675
    11  C    0.020966
    12  C    0.031305
    13  C   -0.013905
    14  C   -0.102394
    15  C   -0.103032
    16  C   -0.102694
    17  C    0.819016
    18  C    0.864520
    19  O   -0.701945
    20  O   -0.725801
    21  H    0.017915
    22  H    0.026701
    23  H    0.026117
    24  H    0.023502
    25  H    0.018931
    26  H    0.018231
    27  H    0.003766
    28  H   -0.017510
    29  H   -0.002644
    30  H    0.009579
    31  H    0.017821
    32  H   -0.002361
    33  H    0.016373
    34  H   -0.003165
 Sum of APT charges =  -0.00000
 APT charges with hydrogens summed into heavy atoms:
               1
     1  C    0.051600
     2  C    0.031444
     3  C    0.008947
     4  C    0.049572
     5  C    0.038080
     6  C    0.046265
     7  C   -0.070024
     8  C   -0.065112
     9  C   -0.062656
    10  C   -0.073173
    11  C    0.039897
    12  C    0.049535
    13  C   -0.027649
    14  C   -0.095459
    15  C   -0.087572
    16  C   -0.089486
    17  C    0.819016
    18  C    0.864520
    19  O   -0.701945
    20  O   -0.725801
 Electronic spatial extent (au):  <R**2>=           4958.1295
 Charge=              0.0000 electrons
 Dipole moment (field-independent basis, Debye):
    X=              0.3965    Y=              0.8095    Z=             -1.3768  Tot=              1.6456
 Quadrupole moment (field-independent basis, Debye-Ang):
   XX=           -141.3287   YY=            -99.7697   ZZ=           -114.3330
   XY=              0.5716   XZ=             -4.7072   YZ=              0.4781
 Traceless Quadrupole moment (field-independent basis, Debye-Ang):
   XX=            -22.8516   YY=             18.7074   ZZ=              4.1441
   XY=              0.5716   XZ=             -4.7072   YZ=              0.4781
 Octapole moment (field-independent basis, Debye-Ang**2):
  XXX=             20.0023  YYY=             -4.0634  ZZZ=              7.0861  XYY=              1.7067
  XXY=             17.6722  XXZ=            -35.1569  XZZ=             -6.0037  YZZ=              1.4442
  YYZ=             -1.4327  XYZ=             -1.0615
 Hexadecapole moment (field-independent basis, Debye-Ang**3):
 XXXX=          -4399.0458 YYYY=          -2510.1054 ZZZZ=           -300.4196 XXXY=            -11.0334
 XXXZ=            -78.3449 YYYX=             -2.8873 YYYZ=            -46.7263 ZZZX=              3.9204
 ZZZY=              8.1370 XXYY=           -946.8906 XXZZ=           -626.8808 YYZZ=           -545.6076
 XXYZ=             20.6793 YYXZ=              0.5512 ZZXY=              5.7793
 N-N= 1.467216112851D+03 E-N=-4.895964888947D+03  KE= 8.368469836126D+02
  Exact polarizability:     233.001      -3.590     250.503      -1.617      -9.243      95.184
 Approx polarizability:     385.726      -7.900     412.160      -2.935     -27.791     158.151
 No NMR shielding tensors so no spin-rotation constants.
 Leave Link  601 at Tue May 20 08:44:59 2025, MaxMem=   104857600 cpu:              31.9 elap:               1.4
 (Enter /opt/linux/rocky/8/software/gaussian/16c01_avx2/g16/l701.exe)
 ... and contract with generalized density number  0.
 Compute integral second derivatives.
 PrsmSu:  requested number of processors reduced to:  28 ShMem   1 Linda.
 PrsmSu:  requested number of processors reduced to:  29 ShMem   1 Linda.
 Leave Link  701 at Tue May 20 08:44:59 2025, MaxMem=   104857600 cpu:               3.9 elap:               0.1
 (Enter /opt/linux/rocky/8/software/gaussian/16c01_avx2/g16/l702.exe)
 L702 exits ... SP integral derivatives will be done elsewhere.
 Leave Link  702 at Tue May 20 08:44:59 2025, MaxMem=   104857600 cpu:               0.2 elap:               0.0
 (Enter /opt/linux/rocky/8/software/gaussian/16c01_avx2/g16/l703.exe)
 Integral derivatives from FoFJK, PRISM(SPDF).
 Compute integral second derivatives, UseDBF=F ICtDFT=           0.
 Calling FoFJK, ICntrl=    100127 FMM=F ISym2X=0 I1Cent= 0 IOpClX= 0 NMat=1 NMatS=1 NMatT=0.
 FoFJK:  IHMeth= 1 ICntrl=  100127 DoSepK=F KAlg= 0 I1Cent=           0 FoldK=F
 IRaf=         0 NMat=       1 IRICut=       1 DoRegI=T DoRafI=F ISym2E= 0 IDoP0=0 IntGTp=1.
 FoFCou: FMM=F IPFlag=           0 FMFlag=      100000 FMFlg1=         800
         NFxFlg=           0 DoJE=F BraDBF=F KetDBF=F FulRan=T
         wScrn=  0.000000 ICntrl=    100127 IOpCl=  0 I1Cent=           0 NGrid=           0
         NMat0=    1 NMatS0=      1 NMatT0=    0 NMatD0=    1 NMtDS0=    0 NMtDT0=    0
 Symmetry not used in FoFCou.
 CoulSu:  requested number of processors reduced to:  29 ShMem   1 Linda.
 Leave Link  703 at Tue May 20 08:45:40 2025, MaxMem=   104857600 cpu:            1258.1 elap:              40.7
 (Enter /opt/linux/rocky/8/software/gaussian/16c01_avx2/g16/l716.exe)
 Dipole        = 1.56002629D-01 3.18490312D-01-5.41672777D-01
 Polarizability= 2.33001301D+02-3.59040956D+00 2.50502731D+02
                -1.61742421D+00-9.24300974D+00 9.51841847D+01
 Full mass-weighted force constant matrix:
 Low frequencies ---  -45.3464   -2.3637   -0.0008   -0.0006    0.0001    2.7019
 Low frequencies ---    4.4640   44.5882   64.8048
 ******    1 imaginary frequencies (negative Signs) ****** 
 Diagonal vibrational polarizability:
       22.6924694      35.4164689      68.9535309
 Harmonic frequencies (cm**-1), IR intensities (KM/Mole), Raman scattering
 activities (A**4/AMU), depolarization ratios for plane and unpolarized
 incident light, reduced masses (AMU), force constants (mDyne/A),
 and normal coordinates:
                      1                      2                      3
                      A                      A                      A
 Frequencies --    -45.3445                44.5878                64.8036
 Red. masses --      3.6136                 7.1525                 5.3217
 Frc consts  --      0.0044                 0.0084                 0.0132
 IR Inten    --      4.2764                 2.4024                 0.2069
  Atom  AN      X      Y      Z        X      Y      Z        X      Y      Z
     1   6     0.03   0.00  -0.01    -0.00   0.02  -0.04     0.01   0.00   0.00
     2   6     0.02  -0.00  -0.03    -0.01   0.03  -0.04    -0.01  -0.00   0.00
     3   6     0.00   0.02  -0.09     0.02   0.00   0.02     0.01   0.00  -0.02
     4   6     0.01  -0.02  -0.01    -0.01   0.03  -0.06    -0.02  -0.05   0.13
     5   6     0.03  -0.02   0.05    -0.01   0.05  -0.12     0.01  -0.00   0.02
     6   6     0.01   0.02  -0.04    -0.01   0.03  -0.04    -0.03   0.05  -0.12
     7   6    -0.05   0.02  -0.08     0.07  -0.00  -0.04    -0.00   0.00  -0.01
     8   6    -0.01  -0.02  -0.02    -0.01   0.02  -0.11    -0.11  -0.05   0.14
     9   6    -0.02  -0.02   0.07     0.04   0.05  -0.19     0.00   0.00   0.04
    10   6    -0.01   0.01  -0.05    -0.01   0.02  -0.09    -0.11   0.04  -0.13
    11   6    -0.06  -0.00   0.01     0.08   0.01  -0.16    -0.00   0.01   0.04
    12   6    -0.02  -0.01  -0.05    -0.00   0.01  -0.14    -0.16  -0.00   0.01
    13   6     0.07   0.09  -0.22    -0.04  -0.03   0.15     0.02   0.02  -0.05
    14   6     0.04  -0.04   0.03     0.00   0.06   0.01     0.03  -0.13   0.17
    15   6     0.06  -0.05   0.07    -0.01   0.12  -0.07     0.00  -0.03  -0.01
    16   6     0.01   0.04  -0.02    -0.03   0.03   0.02     0.02   0.13  -0.15
    17   6    -0.04  -0.00   0.05    -0.03  -0.02   0.11     0.06   0.03  -0.01
    18   6     0.03   0.00   0.04     0.01  -0.05   0.12     0.02  -0.03  -0.02
    19   8    -0.14  -0.04   0.23    -0.08  -0.08   0.16     0.16   0.18  -0.13
    20   8     0.03   0.02   0.04     0.05  -0.26   0.37     0.04  -0.18   0.10
    21   1    -0.07   0.03  -0.15     0.09  -0.02   0.00    -0.01   0.00  -0.03
    22   1    -0.02  -0.04  -0.01    -0.00   0.03  -0.13    -0.13  -0.09   0.24
    23   1    -0.02  -0.04   0.13     0.04   0.07  -0.26     0.01   0.00   0.07
    24   1    -0.02   0.03  -0.07    -0.01   0.02  -0.10    -0.13   0.08  -0.22
    25   1    -0.09  -0.00   0.02     0.11  -0.00  -0.22    -0.01   0.01   0.05
    26   1    -0.04  -0.01  -0.06     0.00   0.01  -0.18    -0.22  -0.01   0.01
    27   1     0.07  -0.06  -0.56    -0.01   0.00   0.29     0.01   0.02  -0.07
    28   1     0.24   0.43  -0.26    -0.16  -0.13   0.16     0.03   0.04  -0.06
    29   1     0.06  -0.04   0.11     0.01   0.07  -0.03     0.04  -0.18   0.32
    30   1     0.08  -0.08  -0.00     0.03   0.13   0.05     0.10  -0.27   0.06
    31   1     0.09  -0.10   0.02    -0.00   0.27   0.04    -0.01  -0.03  -0.01
    32   1     0.08  -0.07   0.14    -0.04   0.17  -0.18    -0.01  -0.04  -0.00
    33   1     0.01   0.08   0.01    -0.07   0.09   0.05     0.07   0.27  -0.03
    34   1     0.01   0.06  -0.05    -0.03   0.04  -0.00     0.04   0.19  -0.30
                      4                      5                      6
                      A                      A                      A
 Frequencies --     84.1034               169.3735               174.0824
 Red. masses --      5.4455                 3.5176                 3.7763
 Frc consts  --      0.0227                 0.0595                 0.0674
 IR Inten    --      2.1812                 4.8083                 0.8461
  Atom  AN      X      Y      Z        X      Y      Z        X      Y      Z
     1   6     0.00  -0.04   0.07     0.01   0.02   0.18     0.01   0.00   0.09
     2   6     0.00  -0.04   0.07     0.01   0.01   0.18     0.02   0.04   0.04
     3   6    -0.01  -0.03   0.01     0.01   0.01   0.10     0.01   0.00   0.04
     4   6     0.01  -0.03   0.04    -0.00  -0.00   0.07     0.01   0.04   0.00
     5   6     0.01  -0.03   0.06    -0.02   0.03   0.06     0.01  -0.03   0.13
     6   6    -0.01  -0.02   0.02     0.01   0.02   0.13     0.02   0.06  -0.04
     7   6    -0.03  -0.07  -0.13     0.01  -0.01   0.01    -0.03  -0.05  -0.10
     8   6    -0.00  -0.06  -0.11    -0.01  -0.03  -0.09     0.00   0.05   0.06
     9   6    -0.02  -0.07  -0.07    -0.00   0.01  -0.05    -0.03  -0.06   0.01
    10   6    -0.01  -0.05  -0.13     0.00  -0.00   0.02    -0.01   0.07  -0.01
    11   6    -0.05  -0.10  -0.19     0.01  -0.01  -0.05    -0.06  -0.10  -0.15
    12   6    -0.01  -0.08  -0.23    -0.00  -0.04  -0.11    -0.02   0.08   0.08
    13   6    -0.05   0.02   0.10     0.10   0.05  -0.09    -0.02  -0.03   0.10
    14   6     0.04  -0.01   0.13    -0.04   0.01   0.00    -0.06   0.07  -0.10
    15   6     0.05  -0.02   0.13    -0.13   0.10  -0.03     0.04  -0.09   0.12
    16   6    -0.03   0.01   0.10     0.06   0.03   0.03     0.09   0.15  -0.11
    17   6     0.03   0.06   0.08     0.02  -0.00  -0.03    -0.02  -0.02  -0.03
    18   6    -0.00   0.08   0.09    -0.03  -0.00  -0.04     0.05   0.00  -0.02
    19   8     0.09   0.16   0.00     0.02  -0.05  -0.05    -0.05  -0.13  -0.03
    20   8    -0.02   0.23  -0.02    -0.03  -0.12  -0.08     0.06  -0.04  -0.04
    21   1    -0.04  -0.07  -0.19     0.01  -0.02  -0.05    -0.06  -0.03  -0.19
    22   1    -0.01  -0.06  -0.15    -0.01  -0.03  -0.21    -0.01   0.04   0.07
    23   1    -0.03  -0.07  -0.09    -0.02   0.02  -0.15    -0.03  -0.06   0.00
    24   1    -0.01  -0.04  -0.19    -0.01   0.01  -0.03    -0.01   0.08  -0.06
    25   1    -0.07  -0.14  -0.30     0.02  -0.04  -0.14    -0.10  -0.14  -0.29
    26   1    -0.01  -0.10  -0.37    -0.00  -0.06  -0.25    -0.04   0.08   0.13
    27   1    -0.06   0.08   0.22     0.07  -0.05  -0.39    -0.01   0.03   0.24
    28   1    -0.15  -0.06   0.11     0.33   0.27  -0.11    -0.09  -0.18   0.11
    29   1     0.07   0.00   0.18    -0.05   0.01  -0.05    -0.07   0.10  -0.22
    30   1     0.08  -0.04   0.10    -0.10   0.01   0.02    -0.16   0.14  -0.03
    31   1     0.08  -0.07   0.07    -0.26   0.18   0.10     0.05  -0.17   0.04
    32   1     0.10  -0.01   0.19    -0.20   0.14  -0.20     0.05  -0.13   0.20
    33   1    -0.06  -0.01   0.08     0.15   0.05   0.07     0.18   0.28   0.02
    34   1    -0.07   0.03   0.14     0.10   0.04  -0.05     0.11   0.22  -0.28
                      7                      8                      9
                      A                      A                      A
 Frequencies --    197.6029               207.2163               259.4337
 Red. masses --      3.8486                 3.9553                 5.4760
 Frc consts  --      0.0885                 0.1001                 0.2172
 IR Inten    --      0.1933                 0.1826                 0.0716
  Atom  AN      X      Y      Z        X      Y      Z        X      Y      Z
     1   6    -0.05  -0.00  -0.01     0.04  -0.01  -0.02     0.00   0.02  -0.06
     2   6    -0.00  -0.00   0.01     0.06   0.00  -0.05     0.03  -0.04   0.12
     3   6    -0.02  -0.05  -0.14     0.01   0.03   0.03    -0.05   0.08  -0.06
     4   6     0.00  -0.00  -0.05     0.02  -0.05  -0.14    -0.01  -0.10   0.11
     5   6    -0.00   0.05   0.10     0.01  -0.05  -0.03     0.03   0.06  -0.07
     6   6     0.01  -0.01   0.06     0.01   0.06   0.07     0.06  -0.06   0.10
     7   6     0.03  -0.07  -0.23    -0.03   0.04   0.09    -0.04   0.12   0.05
     8   6    -0.00  -0.01  -0.09    -0.07  -0.07  -0.24    -0.02  -0.13   0.02
     9   6     0.09   0.11   0.24    -0.04  -0.07  -0.08    -0.02   0.06  -0.06
    10   6    -0.00  -0.00   0.09    -0.09   0.09   0.26     0.00  -0.08   0.01
    11   6     0.06   0.03   0.03    -0.05  -0.03  -0.01    -0.04   0.13   0.05
    12   6     0.01  -0.01  -0.01    -0.09   0.02   0.04    -0.02  -0.15  -0.06
    13   6    -0.10  -0.05   0.03    -0.00   0.00   0.03    -0.13   0.00   0.02
    14   6     0.03  -0.01   0.01     0.09  -0.05   0.01    -0.11  -0.06  -0.01
    15   6    -0.08   0.06  -0.01     0.03  -0.05   0.01     0.12   0.04   0.00
    16   6     0.05   0.01   0.00     0.05   0.07  -0.03     0.17   0.03   0.01
    17   6    -0.02   0.01   0.02     0.01   0.00   0.03    -0.15   0.01  -0.07
    18   6     0.00  -0.00  -0.04     0.00  -0.00  -0.02     0.18   0.02  -0.00
    19   8    -0.01   0.07   0.04     0.03   0.08   0.03    -0.16   0.02  -0.05
    20   8     0.01  -0.09  -0.06     0.00  -0.03  -0.02     0.18   0.01  -0.03
    21   1     0.06  -0.14  -0.39    -0.04   0.08   0.16    -0.02   0.12   0.16
    22   1    -0.01  -0.02  -0.16    -0.12  -0.15  -0.40    -0.02  -0.13  -0.06
    23   1     0.16   0.18   0.41    -0.07  -0.12  -0.14    -0.05   0.00  -0.05
    24   1    -0.01   0.00   0.14    -0.14   0.16   0.47    -0.03  -0.03  -0.07
    25   1     0.08   0.04   0.06    -0.08  -0.03  -0.01    -0.04   0.15   0.13
    26   1     0.02  -0.01  -0.03    -0.13   0.03   0.10    -0.04  -0.17  -0.19
    27   1    -0.08   0.03   0.24     0.01   0.00   0.06    -0.07   0.05   0.26
    28   1    -0.30  -0.18   0.04    -0.01  -0.02   0.03    -0.27  -0.21   0.05
    29   1     0.04  -0.02   0.05     0.13  -0.05   0.12    -0.04  -0.01   0.01
    30   1     0.09  -0.01  -0.01     0.21  -0.07  -0.04    -0.22  -0.15  -0.03
    31   1    -0.16   0.09   0.06     0.05  -0.09  -0.03     0.20   0.08  -0.01
    32   1    -0.14   0.06  -0.09     0.07  -0.04   0.06     0.09   0.01   0.01
    33   1     0.11   0.01   0.02     0.11   0.11   0.03     0.29   0.05   0.06
    34   1     0.05   0.02  -0.03     0.09   0.08  -0.11     0.13   0.10  -0.07
                     10                     11                     12
                      A                      A                      A
 Frequencies --    282.8855               339.7305               355.6453
 Red. masses --      3.7589                 4.0997                 3.4043
 Frc consts  --      0.1772                 0.2788                 0.2537
 IR Inten    --      0.3340                 0.2052                 0.1247
  Atom  AN      X      Y      Z        X      Y      Z        X      Y      Z
     1   6    -0.06   0.00  -0.01    -0.02  -0.09   0.07     0.01  -0.09  -0.09
     2   6     0.07   0.02  -0.04    -0.02  -0.10  -0.10     0.02  -0.06   0.06
     3   6    -0.07  -0.02  -0.02    -0.04  -0.07   0.12     0.01  -0.10  -0.11
     4   6     0.09  -0.00  -0.04    -0.01  -0.07  -0.14     0.04  -0.00   0.07
     5   6    -0.08   0.01   0.02     0.03   0.01   0.09     0.00  -0.12  -0.11
     6   6     0.07   0.04  -0.01    -0.01  -0.10  -0.12    -0.02   0.02   0.09
     7   6    -0.06   0.01   0.06     0.02  -0.07   0.09     0.04  -0.08   0.01
     8   6     0.06   0.02   0.07     0.01  -0.05  -0.01     0.05  -0.00   0.04
     9   6    -0.08  -0.01  -0.05     0.06  -0.01  -0.00     0.03  -0.11  -0.04
    10   6     0.07   0.03  -0.08    -0.01  -0.10  -0.03    -0.01   0.01   0.02
    11   6    -0.06   0.00   0.01     0.06  -0.04  -0.04     0.06  -0.05   0.13
    12   6     0.05   0.03   0.00     0.01  -0.04   0.14     0.02   0.02  -0.04
    13   6    -0.08  -0.13  -0.05    -0.02   0.04  -0.01    -0.02   0.00  -0.04
    14   6     0.17  -0.16  -0.07    -0.04   0.06  -0.06    -0.05   0.12  -0.04
    15   6    -0.11   0.12   0.07    -0.05   0.13   0.03    -0.03   0.00  -0.03
    16   6     0.06   0.11   0.08     0.03   0.05  -0.05     0.04   0.16  -0.00
    17   6     0.04  -0.08  -0.07    -0.08   0.06   0.01     0.01   0.05  -0.01
    18   6    -0.03   0.04   0.08     0.07   0.05   0.01    -0.09   0.03   0.02
    19   8    -0.01  -0.01   0.04    -0.06   0.16   0.01    -0.01   0.06   0.04
    20   8    -0.04   0.01  -0.03     0.08   0.05   0.02    -0.09   0.03   0.03
    21   1    -0.05   0.01   0.11     0.06  -0.12   0.10     0.04  -0.07   0.10
    22   1     0.06   0.00   0.15     0.02  -0.04   0.05     0.04  -0.02   0.02
    23   1    -0.09  -0.01  -0.10     0.06   0.00  -0.06     0.04  -0.10  -0.02
    24   1     0.07   0.03  -0.13     0.00  -0.12   0.01     0.01  -0.01  -0.02
    25   1    -0.05   0.00   0.02     0.08  -0.07  -0.16     0.07   0.00   0.32
    26   1     0.03   0.03   0.02     0.03  -0.00   0.34     0.01   0.00  -0.15
    27   1    -0.07  -0.08   0.08    -0.07  -0.04  -0.27    -0.04   0.03  -0.02
    28   1    -0.11  -0.26  -0.04     0.18   0.23  -0.03    -0.08   0.02  -0.04
    29   1     0.16  -0.23   0.14     0.02   0.12  -0.12    -0.06   0.18  -0.27
    30   1     0.29  -0.30  -0.18    -0.05   0.12  -0.02    -0.24   0.23   0.08
    31   1    -0.16   0.23   0.18    -0.19   0.27   0.21    -0.04  -0.00  -0.02
    32   1    -0.14   0.18  -0.07    -0.15   0.19  -0.21     0.07   0.08  -0.02
    33   1     0.05   0.20   0.15     0.08   0.10  -0.00     0.22   0.36   0.20
    34   1     0.07   0.14  -0.01    -0.07   0.14  -0.10     0.10   0.24  -0.31
                     13                     14                     15
                      A                      A                      A
 Frequencies --    374.6067               395.6493               407.2111
 Red. masses --      4.5867                 4.3161                 5.2529
 Frc consts  --      0.3792                 0.3981                 0.5132
 IR Inten    --      0.4713                 0.5667                21.3770
  Atom  AN      X      Y      Z        X      Y      Z        X      Y      Z
     1   6    -0.15  -0.00  -0.07    -0.04   0.03   0.04    -0.03  -0.00   0.15
     2   6    -0.11   0.01   0.00    -0.04   0.05   0.04    -0.01   0.02   0.16
     3   6    -0.09  -0.12  -0.02    -0.01  -0.05   0.01    -0.05  -0.05   0.09
     4   6    -0.07   0.11   0.00    -0.04   0.08  -0.02     0.02   0.04   0.06
     5   6    -0.12   0.09  -0.07    -0.03   0.04   0.03    -0.01   0.03   0.01
     6   6    -0.04  -0.07   0.02    -0.02   0.02   0.05    -0.03   0.01   0.04
     7   6    -0.07  -0.10   0.03     0.15  -0.03   0.08    -0.01  -0.07   0.01
     8   6    -0.01   0.11  -0.06    -0.06   0.09   0.02     0.07   0.04  -0.04
     9   6    -0.12   0.09  -0.04     0.08   0.04  -0.11    -0.01   0.02   0.01
    10   6    -0.00  -0.07   0.07    -0.03   0.02  -0.04     0.06   0.01   0.04
    11   6    -0.02   0.01   0.02     0.18  -0.01  -0.03     0.01  -0.02   0.01
    12   6     0.06   0.02  -0.01    -0.03   0.05  -0.02     0.09   0.03  -0.01
    13   6    -0.01  -0.09  -0.05    -0.05  -0.07  -0.07    -0.06  -0.09  -0.05
    14   6    -0.01   0.04   0.08    -0.00  -0.03  -0.07     0.07  -0.10  -0.06
    15   6     0.06   0.01   0.06     0.07  -0.12   0.13     0.03  -0.08  -0.17
    16   6     0.08   0.06  -0.05    -0.01  -0.04   0.08    -0.03  -0.02  -0.20
    17   6     0.07  -0.09   0.12    -0.05   0.00  -0.07    -0.02  -0.02  -0.11
    18   6     0.12   0.02   0.01     0.00  -0.07   0.06    -0.03   0.08  -0.20
    19   8     0.16  -0.06   0.00    -0.09   0.17   0.05    -0.08   0.09   0.04
    20   8     0.13   0.02  -0.01    -0.01  -0.11  -0.13     0.01   0.13   0.23
    21   1    -0.04  -0.13   0.04     0.20  -0.09   0.16     0.01  -0.13  -0.08
    22   1     0.02   0.17  -0.11    -0.05   0.10   0.04     0.06   0.05  -0.16
    23   1    -0.08   0.14   0.01     0.10   0.12  -0.23    -0.02   0.02  -0.03
    24   1     0.02  -0.11   0.09    -0.03   0.02  -0.10     0.10  -0.05   0.02
    25   1     0.11   0.04   0.07     0.23  -0.01  -0.05     0.06  -0.03  -0.05
    26   1     0.17   0.02  -0.04     0.01   0.05  -0.06     0.11   0.02  -0.08
    27   1    -0.06  -0.18  -0.35    -0.05  -0.09  -0.12    -0.09  -0.06  -0.03
    28   1     0.11   0.24  -0.09     0.04  -0.06  -0.07     0.03  -0.18  -0.04
    29   1    -0.12  -0.02  -0.04    -0.04  -0.09  -0.00     0.03  -0.18   0.11
    30   1     0.06   0.19   0.16     0.04  -0.08  -0.11     0.13  -0.26  -0.17
    31   1     0.22   0.01  -0.03     0.29  -0.26  -0.09     0.01  -0.29  -0.32
    32   1     0.01  -0.09   0.15     0.15  -0.22   0.40     0.04  -0.19   0.03
    33   1     0.23   0.13   0.05    -0.07  -0.05   0.06     0.10  -0.13  -0.25
    34   1     0.01   0.16  -0.18    -0.01  -0.05   0.12     0.02  -0.08  -0.17
                     16                     17                     18
                      A                      A                      A
 Frequencies --    442.9491               476.6068               478.1294
 Red. masses --      2.9800                 4.2580                 3.0295
 Frc consts  --      0.3445                 0.5699                 0.4081
 IR Inten    --      2.7909                 5.0299                 1.1973
  Atom  AN      X      Y      Z        X      Y      Z        X      Y      Z
     1   6     0.01  -0.03   0.02     0.00   0.02   0.02     0.01  -0.01  -0.04
     2   6    -0.00   0.02   0.05    -0.02  -0.06   0.01    -0.10  -0.01  -0.06
     3   6     0.01  -0.05  -0.06     0.03   0.05   0.03     0.05   0.02  -0.12
     4   6     0.01   0.06   0.03     0.01  -0.01  -0.10    -0.08   0.09  -0.01
     5   6     0.03  -0.05   0.03     0.00   0.07  -0.00     0.08  -0.04   0.15
     6   6    -0.01   0.04   0.02    -0.06  -0.13   0.12    -0.09  -0.08   0.05
     7   6    -0.04  -0.05   0.02    -0.04   0.06  -0.00     0.04   0.06   0.08
     8   6    -0.09   0.06   0.02    -0.08  -0.03   0.07    -0.00   0.11   0.01
     9   6    -0.04  -0.09  -0.01    -0.04   0.09   0.02     0.05  -0.08  -0.02
    10   6    -0.09   0.05  -0.02    -0.11  -0.18  -0.04    -0.01  -0.09   0.07
    11   6    -0.05  -0.06   0.06    -0.05   0.07  -0.06     0.00  -0.04  -0.04
    12   6    -0.10   0.06  -0.04    -0.07  -0.10   0.03     0.08   0.00  -0.06
    13   6     0.01  -0.04  -0.04     0.09   0.02   0.00     0.02   0.05  -0.03
    14   6     0.02   0.05  -0.07     0.09   0.05  -0.15    -0.00  -0.03   0.08
    15   6    -0.00   0.07  -0.02     0.02  -0.02  -0.03    -0.02   0.02   0.04
    16   6    -0.01  -0.10   0.01     0.02   0.02   0.02    -0.01   0.02  -0.05
    17   6     0.09   0.01  -0.06     0.20   0.04  -0.09     0.00   0.05  -0.04
    18   6     0.13   0.01  -0.03    -0.05   0.02  -0.03     0.00   0.03  -0.04
    19   8     0.02   0.04   0.08     0.08   0.02   0.14    -0.03  -0.05  -0.02
    20   8     0.14   0.01  -0.01    -0.05  -0.01   0.02     0.01  -0.01   0.01
    21   1    -0.06  -0.02   0.05    -0.05   0.07  -0.05     0.02   0.13   0.26
    22   1    -0.11   0.00   0.02    -0.08  -0.04   0.19     0.04   0.20   0.07
    23   1    -0.06  -0.13  -0.04    -0.05   0.07   0.03     0.01  -0.12  -0.14
    24   1    -0.10   0.08  -0.07    -0.10  -0.19  -0.17     0.03  -0.16   0.09
    25   1    -0.05  -0.05   0.12    -0.04   0.06  -0.13    -0.08  -0.06  -0.08
    26   1    -0.10   0.05  -0.09     0.03  -0.09   0.05     0.20  -0.00  -0.14
    27   1    -0.03   0.06   0.13     0.04   0.18   0.24     0.04   0.14   0.22
    28   1    -0.10  -0.19  -0.02     0.01  -0.26   0.04    -0.15  -0.15  -0.01
    29   1    -0.06   0.02  -0.21     0.01   0.02  -0.31    -0.01  -0.13   0.38
    30   1    -0.08   0.11  -0.01     0.01   0.14  -0.07     0.20  -0.24  -0.10
    31   1    -0.16   0.23   0.19     0.10  -0.17  -0.18    -0.19   0.04   0.14
    32   1    -0.12   0.13  -0.30     0.08  -0.09   0.17    -0.06   0.07  -0.10
    33   1    -0.15  -0.35  -0.22     0.24   0.11   0.15     0.16   0.06   0.02
    34   1    -0.07  -0.20   0.35     0.01   0.12  -0.20    -0.06   0.11  -0.17
                     19                     20                     21
                      A                      A                      A
 Frequencies --    491.5889               497.2565               512.6614
 Red. masses --      3.8099                 2.9531                 4.1564
 Frc consts  --      0.5425                 0.4302                 0.6436
 IR Inten    --      6.1487                 8.2547                 1.9770
  Atom  AN      X      Y      Z        X      Y      Z        X      Y      Z
     1   6    -0.01  -0.05  -0.13    -0.01   0.00  -0.09    -0.06  -0.01  -0.03
     2   6     0.02  -0.01  -0.12     0.02  -0.02  -0.08    -0.02  -0.03  -0.05
     3   6    -0.03  -0.05   0.20    -0.02   0.01  -0.04    -0.02  -0.04   0.06
     4   6     0.03   0.03  -0.02     0.03  -0.06   0.08     0.07  -0.01   0.24
     5   6    -0.00  -0.02  -0.11     0.03   0.04   0.12    -0.08   0.05  -0.02
     6   6    -0.01   0.02   0.12    -0.00   0.04  -0.02     0.01  -0.02  -0.21
     7   6    -0.05  -0.10   0.04    -0.01   0.06   0.10     0.01  -0.05   0.03
     8   6    -0.01   0.05   0.13     0.07  -0.07   0.06     0.03  -0.05  -0.05
     9   6     0.02   0.02   0.14     0.02   0.03   0.03    -0.01   0.08   0.00
    10   6    -0.06   0.03   0.06     0.03   0.04   0.08    -0.01   0.01   0.13
    11   6    -0.02  -0.08  -0.08    -0.03   0.00  -0.11     0.04   0.01  -0.04
    12   6    -0.03   0.02  -0.15     0.03  -0.04  -0.08    -0.01  -0.03  -0.05
    13   6     0.01   0.06   0.06    -0.04  -0.10  -0.05     0.05   0.06  -0.03
    14   6     0.05  -0.01  -0.02    -0.05   0.02  -0.02     0.02   0.02   0.00
    15   6     0.04   0.03  -0.07    -0.01   0.02   0.04    -0.02  -0.01   0.07
    16   6     0.03   0.02   0.07    -0.04   0.02  -0.03    -0.04  -0.01  -0.07
    17   6    -0.05   0.06  -0.04     0.01  -0.09   0.04     0.13   0.13  -0.17
    18   6     0.03   0.05  -0.02    -0.04   0.12  -0.08     0.01  -0.11   0.10
    19   8    -0.07  -0.02  -0.05     0.05   0.05   0.04    -0.04  -0.05   0.06
    20   8     0.03  -0.03  -0.02    -0.02  -0.06   0.01    -0.01   0.04  -0.03
    21   1    -0.04  -0.12  -0.03    -0.00   0.08   0.23     0.03  -0.09   0.00
    22   1    -0.01   0.04   0.28     0.07  -0.07   0.04    -0.00  -0.11  -0.23
    23   1     0.08   0.06   0.36     0.01   0.01   0.01     0.03   0.16   0.04
    24   1    -0.06   0.05   0.06     0.02   0.05   0.18    -0.05   0.04   0.39
    25   1     0.03  -0.10  -0.21    -0.07  -0.04  -0.26     0.12   0.00  -0.09
    26   1    -0.02  -0.01  -0.34    -0.05  -0.06  -0.21    -0.04  -0.04  -0.11
    27   1    -0.07   0.02  -0.17     0.01  -0.16  -0.10    -0.09   0.29   0.21
    28   1     0.25   0.16   0.06    -0.03  -0.01  -0.06     0.01  -0.26   0.01
    29   1     0.12  -0.02   0.22    -0.10   0.08  -0.39     0.01   0.01   0.03
    30   1     0.14  -0.19  -0.16    -0.27   0.25   0.18    -0.19  -0.17  -0.06
    31   1     0.08  -0.02  -0.12    -0.06  -0.18  -0.08     0.07   0.16   0.15
    32   1     0.11   0.04   0.01     0.06  -0.01   0.20    -0.13  -0.03  -0.03
    33   1     0.09  -0.06   0.02    -0.08  -0.19  -0.20    -0.17   0.15   0.03
    34   1     0.03   0.01   0.12    -0.09  -0.05   0.20    -0.05   0.03  -0.15
                     22                     23                     24
                      A                      A                      A
 Frequencies --    526.3469               573.7111               590.1742
 Red. masses --      2.8018                 4.0314                 3.7458
 Frc consts  --      0.4573                 0.7818                 0.7687
 IR Inten    --     10.1015                 0.6023                 0.4508
  Atom  AN      X      Y      Z        X      Y      Z        X      Y      Z
     1   6    -0.01  -0.05   0.05    -0.09  -0.01   0.05    -0.05  -0.03  -0.15
     2   6    -0.01  -0.06   0.03     0.09  -0.02  -0.05     0.03  -0.01   0.14
     3   6    -0.01  -0.06  -0.03    -0.09  -0.03  -0.09    -0.05  -0.05  -0.09
     4   6     0.03  -0.03   0.00     0.12  -0.03  -0.07     0.04   0.02   0.05
     5   6     0.00   0.02  -0.01    -0.07   0.04   0.14     0.00   0.00   0.00
     6   6    -0.03  -0.01  -0.03     0.05   0.00   0.05     0.04   0.01   0.05
     7   6    -0.04  -0.07  -0.02     0.05  -0.00  -0.01    -0.00   0.00   0.18
     8   6     0.04  -0.03  -0.04    -0.02  -0.04   0.11    -0.04  -0.01  -0.14
     9   6    -0.03   0.01  -0.07     0.02   0.04  -0.11     0.06   0.04   0.12
    10   6     0.01  -0.01  -0.03    -0.08   0.01   0.04    -0.01   0.00  -0.15
    11   6     0.00   0.02   0.07     0.09   0.06   0.03     0.00  -0.05  -0.17
    12   6     0.02   0.02   0.06    -0.09  -0.02  -0.08    -0.04   0.06   0.15
    13   6     0.01   0.08   0.01    -0.09   0.08   0.01    -0.04   0.03  -0.04
    14   6     0.03   0.02   0.03     0.12   0.10  -0.01     0.03   0.04   0.04
    15   6     0.03   0.08   0.05    -0.08  -0.08   0.04    -0.01  -0.02  -0.04
    16   6    -0.05   0.07   0.03     0.05  -0.07  -0.05     0.04  -0.03   0.04
    17   6     0.02   0.09  -0.03    -0.02   0.09   0.07     0.02   0.06  -0.00
    18   6    -0.02   0.21  -0.05     0.00  -0.05  -0.06    -0.02  -0.02  -0.01
    19   8    -0.02  -0.07  -0.02     0.02  -0.11  -0.07     0.01  -0.06  -0.02
    20   8     0.01  -0.13  -0.03     0.01   0.07   0.07    -0.02   0.02   0.02
    21   1    -0.02  -0.09  -0.02     0.11  -0.06   0.09     0.01   0.04   0.45
    22   1     0.03  -0.06  -0.06    -0.05  -0.12   0.26    -0.09  -0.09  -0.31
    23   1    -0.04  -0.01  -0.08    -0.00   0.07  -0.31     0.11   0.09   0.24
    24   1     0.03  -0.05  -0.00    -0.11   0.08   0.02     0.01   0.00  -0.33
    25   1     0.07   0.06   0.17     0.12   0.07   0.07     0.00  -0.08  -0.30
    26   1     0.00   0.03   0.15    -0.12  -0.03  -0.15    -0.05   0.08   0.27
    27   1    -0.06   0.18   0.10    -0.14   0.05  -0.14    -0.10   0.07  -0.04
    28   1    -0.07  -0.01   0.02    -0.13   0.30  -0.02    -0.10   0.05  -0.04
    29   1     0.10   0.03   0.20     0.25   0.19   0.06     0.06   0.05   0.11
    30   1     0.08  -0.12  -0.06     0.12   0.08  -0.02     0.03  -0.02   0.00
    31   1     0.10  -0.23  -0.21    -0.09  -0.13   0.01    -0.02  -0.05  -0.06
    32   1     0.24   0.04   0.39    -0.20  -0.19   0.06    -0.00  -0.03  -0.02
    33   1    -0.10  -0.24  -0.22     0.06  -0.13  -0.09     0.02  -0.03   0.03
    34   1    -0.21   0.02   0.38     0.13  -0.14  -0.02     0.10  -0.07   0.03
                     25                     26                     27
                      A                      A                      A
 Frequencies --    620.0159               655.4229               668.8429
 Red. masses --      5.3412                 5.0599                 4.3781
 Frc consts  --      1.2097                 1.2807                 1.1539
 IR Inten    --      4.9333                 0.2632                 1.5634
  Atom  AN      X      Y      Z        X      Y      Z        X      Y      Z
     1   6     0.04  -0.12   0.06     0.07  -0.06   0.10    -0.05   0.02  -0.12
     2   6    -0.01  -0.14   0.12    -0.03  -0.05  -0.00    -0.05  -0.04   0.12
     3   6    -0.13   0.06   0.06     0.05  -0.15  -0.11     0.01   0.05   0.04
     4   6     0.13   0.05   0.08    -0.04  -0.10  -0.13    -0.03  -0.11  -0.11
     5   6     0.13  -0.06  -0.04     0.15   0.14   0.08    -0.13  -0.04  -0.07
     6   6    -0.13  -0.07  -0.05    -0.10   0.09   0.07    -0.17   0.07   0.16
     7   6    -0.06   0.12  -0.04    -0.14  -0.15   0.10     0.07   0.06  -0.03
     8   6     0.06   0.07  -0.00     0.12  -0.07   0.05     0.13  -0.12   0.03
     9   6     0.15  -0.03   0.00    -0.07   0.15  -0.01    -0.01  -0.01  -0.00
    10   6    -0.13  -0.05   0.04     0.04   0.13  -0.01     0.04   0.08  -0.02
    11   6    -0.03   0.19  -0.04    -0.06   0.08  -0.03     0.04  -0.02  -0.02
    12   6    -0.01   0.16  -0.03     0.03   0.08  -0.04     0.05   0.04   0.02
    13   6    -0.15  -0.06   0.00     0.03   0.02  -0.04     0.05   0.06   0.04
    14   6     0.14   0.02  -0.06    -0.05  -0.00   0.05     0.01  -0.04  -0.04
    15   6     0.10   0.02  -0.00     0.13   0.00  -0.10    -0.05  -0.05   0.17
    16   6    -0.13   0.01  -0.04    -0.09  -0.03   0.01    -0.13   0.03  -0.17
    17   6    -0.02  -0.06   0.05    -0.01   0.03   0.02     0.03   0.02  -0.01
    18   6     0.01  -0.05   0.07     0.01  -0.14   0.05     0.06  -0.03  -0.00
    19   8     0.04  -0.04  -0.03    -0.01   0.00  -0.00     0.02   0.00   0.02
    20   8    -0.01  -0.03  -0.07    -0.02  -0.00  -0.05     0.07   0.01  -0.01
    21   1     0.03  -0.00  -0.10    -0.12  -0.16   0.16     0.05   0.10   0.03
    22   1    -0.02  -0.07  -0.12     0.13  -0.06   0.21     0.13  -0.13   0.03
    23   1     0.09  -0.19   0.03    -0.17  -0.01  -0.14     0.10   0.16   0.20
    24   1    -0.05  -0.19   0.05     0.09   0.07  -0.04     0.15  -0.08  -0.32
    25   1    -0.17   0.17  -0.06     0.17   0.08  -0.16     0.01   0.01   0.11
    26   1     0.08   0.14  -0.12    -0.15   0.07  -0.05    -0.11   0.00  -0.11
    27   1    -0.11  -0.20  -0.25     0.01   0.13   0.17     0.04   0.06   0.02
    28   1     0.02   0.20  -0.03    -0.18  -0.12  -0.03     0.10   0.04   0.05
    29   1     0.13   0.01  -0.06     0.00   0.04   0.06     0.04  -0.03   0.01
    30   1     0.11   0.04  -0.04     0.02   0.02   0.04     0.08  -0.06  -0.08
    31   1     0.07   0.18   0.13     0.12   0.15   0.02    -0.04   0.21   0.34
    32   1     0.11   0.12  -0.15     0.03  -0.02  -0.21    -0.22  -0.03  -0.09
    33   1    -0.15   0.12   0.04    -0.06   0.23   0.22    -0.07  -0.14  -0.28
    34   1    -0.20   0.08  -0.10     0.03   0.01  -0.25    -0.19  -0.02   0.02
                     28                     29                     30
                      A                      A                      A
 Frequencies --    696.9773               729.2247               758.1357
 Red. masses --      4.3211                 3.6163                 4.2518
 Frc consts  --      1.2368                 1.1330                 1.4399
 IR Inten    --      1.5382                46.0939                 0.2356
  Atom  AN      X      Y      Z        X      Y      Z        X      Y      Z
     1   6     0.05   0.07  -0.08     0.01   0.02   0.19    -0.01   0.04   0.12
     2   6     0.03   0.00   0.12     0.00   0.02   0.17    -0.00  -0.08  -0.11
     3   6     0.19  -0.03  -0.12    -0.00   0.00  -0.11     0.07   0.06  -0.05
     4   6     0.11   0.03   0.06    -0.05  -0.01  -0.14     0.10  -0.04   0.06
     5   6     0.02   0.10   0.03    -0.08  -0.05  -0.16    -0.13   0.00  -0.05
     6   6     0.00  -0.06  -0.07     0.04  -0.01  -0.13    -0.09  -0.05   0.04
     7   6     0.01  -0.07   0.00     0.03   0.04   0.08     0.11   0.08   0.02
     8   6    -0.01   0.03   0.03    -0.02   0.00   0.08     0.13  -0.03  -0.04
     9   6    -0.16   0.08   0.00     0.04  -0.01   0.09    -0.08   0.03   0.06
    10   6    -0.08  -0.09   0.04     0.01  -0.00   0.08    -0.12  -0.04  -0.05
    11   6    -0.05  -0.10   0.00    -0.00  -0.08  -0.10     0.02  -0.11   0.02
    12   6    -0.02  -0.01  -0.00     0.01  -0.09  -0.11    -0.01   0.19  -0.02
    13   6     0.10  -0.02   0.15    -0.04   0.02  -0.06     0.04  -0.04  -0.07
    14   6     0.11   0.01  -0.13     0.02   0.03  -0.00     0.02   0.02   0.08
    15   6     0.02   0.04   0.04     0.00   0.02  -0.02    -0.09  -0.05  -0.10
    16   6    -0.05  -0.02  -0.07    -0.02   0.04  -0.02    -0.03   0.03   0.13
    17   6    -0.14  -0.05   0.07     0.00   0.01   0.03    -0.06  -0.03   0.01
    18   6    -0.03  -0.01   0.02     0.01   0.02   0.04     0.08   0.01  -0.01
    19   8    -0.06   0.06  -0.06     0.02  -0.02  -0.00    -0.04   0.01  -0.03
    20   8    -0.04  -0.01  -0.01     0.01  -0.00  -0.01     0.10   0.01  -0.00
    21   1    -0.10   0.15   0.29    -0.00   0.13   0.30     0.04   0.13  -0.16
    22   1    -0.07  -0.08  -0.18     0.05   0.11   0.39     0.06  -0.16   0.05
    23   1    -0.12   0.15   0.09     0.14   0.12   0.37    -0.07   0.11  -0.10
    24   1    -0.06  -0.12   0.01    -0.06   0.08   0.36    -0.06  -0.16   0.11
    25   1     0.12  -0.03   0.16    -0.02  -0.03   0.09    -0.05  -0.18  -0.20
    26   1     0.08  -0.03  -0.14     0.01  -0.05   0.13    -0.01   0.22   0.15
    27   1     0.27  -0.28  -0.13    -0.01   0.05   0.07     0.16  -0.04   0.16
    28   1     0.15   0.28   0.10    -0.20  -0.03  -0.06    -0.09  -0.20  -0.05
    29   1     0.20   0.04   0.01     0.02   0.03   0.03     0.09   0.11  -0.04
    30   1     0.13  -0.05  -0.17     0.13   0.08  -0.00    -0.10   0.10   0.16
    31   1     0.01   0.09   0.09     0.13   0.04  -0.08     0.02  -0.17  -0.25
    32   1    -0.01   0.05  -0.00     0.06   0.03   0.05    -0.14  -0.19   0.07
    33   1    -0.08   0.00  -0.06    -0.14   0.02  -0.07     0.07   0.11   0.21
    34   1    -0.08  -0.00  -0.05    -0.07   0.03   0.07    -0.13   0.15   0.03
                     31                     32                     33
                      A                      A                      A
 Frequencies --    776.8234               786.9065               790.4700
 Red. masses --      1.9941                 1.5763                 2.1838
 Frc consts  --      0.7090                 0.5751                 0.8039
 IR Inten    --     20.9904                 1.4672                 8.9051
  Atom  AN      X      Y      Z        X      Y      Z        X      Y      Z
     1   6     0.01  -0.06   0.01     0.00  -0.00  -0.12    -0.06   0.03  -0.05
     2   6     0.02  -0.06  -0.01     0.02  -0.02   0.12    -0.06   0.02   0.03
     3   6     0.02  -0.01   0.01     0.01  -0.01   0.03    -0.03   0.02  -0.01
     4   6     0.00  -0.01  -0.00    -0.00  -0.00  -0.03    -0.03  -0.01   0.05
     5   6    -0.01  -0.01   0.01     0.01   0.01   0.01     0.02   0.01   0.09
     6   6     0.03  -0.02  -0.00     0.02  -0.01  -0.01    -0.04   0.03  -0.01
     7   6    -0.05  -0.02  -0.05     0.00   0.01   0.02     0.03  -0.00  -0.06
     8   6     0.02   0.03  -0.03     0.01   0.00  -0.03     0.02  -0.05  -0.02
     9   6     0.02   0.01  -0.06    -0.02   0.01   0.01     0.01  -0.03  -0.01
    10   6    -0.04   0.00  -0.03    -0.03  -0.01  -0.03     0.04   0.02  -0.05
    11   6    -0.02   0.09  -0.09     0.01   0.02   0.06    -0.00  -0.04   0.00
    12   6    -0.01   0.11  -0.05    -0.00   0.02  -0.08     0.01  -0.04  -0.04
    13   6     0.08   0.01   0.03     0.02  -0.02  -0.01    -0.05   0.02   0.09
    14   6    -0.06  -0.05   0.02    -0.01   0.01   0.02     0.02  -0.02  -0.09
    15   6    -0.06  -0.02   0.05    -0.00  -0.00   0.04     0.01  -0.02  -0.11
    16   6     0.08  -0.03   0.01     0.02  -0.01  -0.03    -0.07   0.02   0.10
    17   6    -0.01  -0.03  -0.02    -0.01  -0.00  -0.01     0.05   0.02  -0.02
    18   6    -0.01   0.00  -0.03    -0.02  -0.00  -0.00     0.04  -0.00  -0.01
    19   8    -0.01   0.03   0.01    -0.01   0.01  -0.00     0.03  -0.01   0.02
    20   8    -0.01   0.01   0.03    -0.02   0.00   0.01     0.06  -0.00  -0.01
    21   1    -0.04   0.07   0.39     0.02  -0.09  -0.35     0.01   0.11   0.32
    22   1     0.03   0.03   0.19     0.06   0.07   0.42     0.07   0.03   0.19
    23   1     0.14   0.11   0.38    -0.10  -0.07  -0.25     0.01  -0.02  -0.05
    24   1    -0.06   0.01   0.20    -0.09   0.05   0.37    -0.03   0.09   0.38
    25   1     0.08   0.25   0.47    -0.03  -0.10  -0.36    -0.03   0.01   0.24
    26   1     0.02   0.16   0.22     0.01   0.12   0.47    -0.09   0.02   0.38
    27   1     0.10  -0.01   0.05     0.02   0.00   0.03    -0.10  -0.06  -0.21
    28   1     0.12  -0.09   0.04     0.02  -0.06  -0.00     0.12   0.27   0.06
    29   1    -0.10  -0.06  -0.03    -0.01   0.01   0.01    -0.01  -0.07  -0.02
    30   1    -0.10  -0.03   0.04     0.00   0.01   0.02    -0.01  -0.15  -0.15
    31   1    -0.09  -0.08   0.03    -0.02   0.03   0.07    -0.06  -0.12  -0.14
    32   1    -0.08  -0.05   0.07    -0.00   0.02  -0.01    -0.02  -0.07  -0.07
    33   1     0.11  -0.10  -0.03     0.01  -0.07  -0.08    -0.03   0.20   0.24
    34   1     0.12  -0.07   0.03     0.05  -0.05   0.02    -0.09   0.12  -0.07
                     34                     35                     36
                      A                      A                      A
 Frequencies --    807.3994               840.7029               864.3067
 Red. masses --      2.7666                 3.7348                 3.2034
 Frc consts  --      1.0626                 1.5553                 1.4099
 IR Inten    --      8.8692                 1.5567                 1.6151
  Atom  AN      X      Y      Z        X      Y      Z        X      Y      Z
     1   6     0.05   0.06   0.06    -0.03   0.05  -0.14    -0.03   0.02   0.07
     2   6     0.03   0.06  -0.12     0.02  -0.01   0.14    -0.02  -0.02  -0.06
     3   6    -0.00   0.01   0.05    -0.05   0.08   0.17    -0.04   0.04  -0.04
     4   6     0.05   0.04   0.08    -0.00  -0.04  -0.13    -0.01  -0.04   0.01
     5   6     0.02   0.03  -0.02     0.06   0.07   0.13    -0.01   0.03  -0.03
     6   6    -0.04   0.02   0.15     0.03  -0.04  -0.10     0.00  -0.03   0.02
     7   6     0.01  -0.02  -0.01     0.06   0.00  -0.07     0.06   0.03  -0.01
     8   6    -0.03  -0.03  -0.09     0.05  -0.01   0.05     0.05  -0.01  -0.01
     9   6    -0.04  -0.01  -0.03    -0.07  -0.04  -0.07    -0.03  -0.00   0.05
    10   6     0.01  -0.03  -0.06    -0.05  -0.00   0.06    -0.04   0.00  -0.02
    11   6     0.00  -0.06  -0.02     0.02  -0.14   0.02     0.01  -0.14   0.04
    12   6     0.00  -0.09   0.00    -0.01   0.07  -0.01    -0.01   0.13  -0.03
    13   6    -0.07  -0.08  -0.07    -0.04  -0.04  -0.14    -0.09   0.10   0.05
    14   6     0.08   0.08   0.07     0.00   0.04   0.12    -0.07  -0.12  -0.06
    15   6     0.10   0.02   0.06     0.06   0.06  -0.06     0.11   0.14   0.04
    16   6    -0.06  -0.01  -0.09     0.00  -0.05   0.04     0.11  -0.12  -0.07
    17   6    -0.01   0.02  -0.03     0.01   0.01  -0.02     0.06   0.01   0.01
    18   6    -0.03  -0.01  -0.01    -0.02  -0.01  -0.00    -0.06  -0.01   0.01
    19   8    -0.03  -0.02  -0.03    -0.01  -0.02  -0.01     0.05  -0.02   0.03
    20   8    -0.03  -0.02  -0.01    -0.02  -0.01  -0.01    -0.07  -0.01   0.00
    21   1    -0.02   0.04   0.08     0.00   0.11   0.12     0.01   0.13   0.12
    22   1     0.04   0.07   0.38     0.01  -0.09  -0.06     0.02  -0.07   0.01
    23   1     0.07   0.11   0.31     0.06   0.13   0.26    -0.06   0.01  -0.16
    24   1    -0.04   0.02   0.11     0.01  -0.07  -0.20    -0.00  -0.05   0.01
    25   1     0.08   0.03   0.29     0.06  -0.02   0.44    -0.05  -0.17  -0.05
    26   1     0.02  -0.01   0.45    -0.02   0.02  -0.27    -0.04   0.14   0.03
    27   1    -0.07  -0.07  -0.05    -0.10   0.11   0.09    -0.16   0.09  -0.10
    28   1    -0.02  -0.11  -0.06    -0.02  -0.31  -0.09    -0.10   0.28   0.03
    29   1     0.11   0.14  -0.02     0.03   0.10   0.02    -0.15  -0.16  -0.14
    30   1    -0.04   0.12   0.13     0.07   0.20   0.20    -0.18  -0.17  -0.07
    31   1     0.06   0.22   0.21     0.00  -0.05  -0.11     0.26   0.19  -0.00
    32   1     0.06   0.12  -0.15     0.10   0.05   0.02     0.25   0.21   0.13
    33   1     0.07  -0.06  -0.09    -0.04   0.12   0.15     0.23  -0.14  -0.06
    34   1    -0.03  -0.02  -0.12     0.02   0.01  -0.11     0.22  -0.16  -0.17
                     37                     38                     39
                      A                      A                      A
 Frequencies --    887.4172               898.9949               902.7143
 Red. masses --      1.4813                 1.5066                 2.3432
 Frc consts  --      0.6873                 0.7174                 1.1250
 IR Inten    --      1.3702                 7.7660                 7.4225
  Atom  AN      X      Y      Z        X      Y      Z        X      Y      Z
     1   6    -0.02  -0.01   0.01     0.03   0.00  -0.01    -0.01   0.01  -0.02
     2   6     0.02  -0.01   0.00     0.04   0.01   0.00     0.06   0.03   0.00
     3   6     0.00   0.01   0.01     0.00  -0.01  -0.03    -0.03   0.03   0.06
     4   6    -0.00   0.01  -0.01     0.01   0.01   0.03     0.05   0.01  -0.00
     5   6    -0.01  -0.02  -0.02     0.01   0.02   0.03     0.01   0.00   0.00
     6   6     0.01  -0.01  -0.01     0.01  -0.02  -0.03     0.02   0.01   0.03
     7   6     0.01  -0.02  -0.09    -0.01   0.01   0.06    -0.02  -0.08  -0.03
     8   6    -0.00  -0.02  -0.06    -0.02  -0.01  -0.10    -0.04   0.06  -0.00
     9   6     0.02   0.04   0.09    -0.02  -0.02  -0.05     0.01   0.04   0.03
    10   6    -0.02   0.01   0.06    -0.02   0.01   0.10    -0.01  -0.05  -0.01
    11   6    -0.02   0.01   0.00     0.02  -0.01  -0.00     0.03  -0.03   0.00
    12   6     0.01  -0.00   0.01     0.02   0.01  -0.00     0.03  -0.01  -0.00
    13   6     0.02  -0.06   0.02    -0.03   0.04   0.03    -0.01   0.18  -0.06
    14   6    -0.00   0.03   0.05    -0.01  -0.05  -0.02     0.03  -0.15  -0.01
    15   6    -0.01   0.01  -0.01    -0.03  -0.00  -0.02     0.01  -0.06  -0.02
    16   6     0.02   0.02  -0.02    -0.02   0.01   0.01    -0.06   0.08  -0.01
    17   6     0.01   0.02  -0.05     0.01  -0.00   0.00    -0.04  -0.07   0.06
    18   6     0.00  -0.01   0.03     0.01  -0.00   0.01     0.01  -0.00   0.01
    19   8    -0.02   0.00   0.00     0.01  -0.00   0.01     0.01  -0.00  -0.02
    20   8    -0.00   0.00  -0.00     0.01   0.00  -0.00     0.01  -0.00  -0.01
    21   1    -0.01   0.13   0.51     0.00  -0.08  -0.31    -0.02  -0.02   0.30
    22   1     0.05   0.06   0.36     0.06   0.11   0.55    -0.04   0.07  -0.05
    23   1    -0.16  -0.15  -0.50     0.09   0.09   0.30    -0.06  -0.01  -0.28
    24   1     0.05  -0.05  -0.39     0.08  -0.10  -0.55    -0.02  -0.05   0.10
    25   1    -0.06   0.00  -0.03     0.04  -0.01  -0.00     0.15  -0.00   0.03
    26   1     0.01  -0.01  -0.03     0.07   0.01  -0.01     0.19   0.01   0.06
    27   1     0.01  -0.10  -0.08    -0.05   0.03  -0.04    -0.02   0.30   0.21
    28   1     0.16  -0.06   0.02    -0.06   0.14   0.02    -0.24  -0.06  -0.04
    29   1     0.00   0.04   0.05    -0.07  -0.07  -0.11    -0.03  -0.07  -0.44
    30   1    -0.02   0.01   0.04    -0.13  -0.07  -0.00    -0.18   0.17   0.24
    31   1     0.06   0.02  -0.04    -0.04  -0.07  -0.07    -0.04   0.05   0.09
    32   1     0.03   0.01   0.04    -0.04  -0.05   0.03    -0.05  -0.03  -0.16
    33   1    -0.07  -0.03  -0.08    -0.09   0.07   0.04    -0.15   0.00  -0.09
    34   1    -0.01  -0.01   0.09    -0.07   0.04   0.01    -0.11   0.05   0.14
                     40                     41                     42
                      A                      A                      A
 Frequencies --    924.3583               963.2881               968.6631
 Red. masses --      2.4096                 1.9663                 2.2103
 Frc consts  --      1.2130                 1.0750                 1.2219
 IR Inten    --      2.4016                 3.6109                 0.0743
  Atom  AN      X      Y      Z        X      Y      Z        X      Y      Z
     1   6    -0.06  -0.03  -0.02    -0.03   0.00  -0.02     0.04  -0.02  -0.00
     2   6    -0.04   0.03   0.01    -0.02  -0.01  -0.03     0.08  -0.01   0.01
     3   6    -0.01  -0.00   0.01    -0.01   0.00   0.01     0.01  -0.02  -0.04
     4   6     0.02   0.02   0.04    -0.00   0.01   0.03     0.02  -0.01  -0.07
     5   6    -0.04  -0.02   0.01     0.02   0.03   0.06     0.01   0.02   0.03
     6   6    -0.04   0.01   0.00    -0.01   0.02   0.05     0.01   0.02   0.06
     7   6    -0.04  -0.02   0.00    -0.01   0.01   0.04     0.00   0.01  -0.03
     8   6    -0.04  -0.01  -0.02     0.04  -0.01   0.02    -0.04   0.06   0.02
     9   6     0.09  -0.06   0.01     0.04  -0.03   0.01    -0.01  -0.03  -0.04
    10   6     0.06   0.07   0.00    -0.03  -0.03   0.01     0.01  -0.04  -0.04
    11   6    -0.02   0.01   0.00    -0.01  -0.04  -0.05    -0.00   0.01   0.06
    12   6    -0.02  -0.03  -0.01     0.01  -0.03  -0.04     0.02  -0.00   0.02
    13   6     0.10   0.06  -0.03     0.03   0.00  -0.02    -0.03  -0.04   0.07
    14   6     0.10  -0.01  -0.02    -0.02   0.03  -0.04    -0.01  -0.06   0.10
    15   6    -0.05   0.15   0.03    -0.04   0.05  -0.09    -0.08   0.09  -0.04
    16   6    -0.04  -0.15  -0.04     0.07   0.10  -0.08    -0.05   0.02  -0.08
    17   6    -0.07  -0.06   0.04    -0.02  -0.02   0.04     0.04   0.05  -0.08
    18   6     0.02  -0.01   0.01     0.01  -0.10   0.11     0.03  -0.07   0.07
    19   8    -0.03   0.02  -0.03     0.02   0.01   0.00    -0.03  -0.01   0.00
    20   8     0.04   0.00  -0.01    -0.02   0.02  -0.01     0.02   0.02  -0.02
    21   1    -0.03  -0.03   0.00    -0.02  -0.05  -0.26    -0.02   0.08   0.14
    22   1    -0.01   0.02   0.14     0.02  -0.03  -0.16    -0.06   0.05  -0.12
    23   1     0.06  -0.11  -0.08     0.00  -0.08  -0.12     0.07   0.03   0.28
    24   1     0.05   0.09  -0.06    -0.01  -0.06  -0.11    -0.04   0.00   0.27
    25   1    -0.12   0.00   0.03    -0.02   0.08   0.41    -0.11  -0.11  -0.33
    26   1    -0.12  -0.02   0.07     0.02   0.03   0.32     0.18  -0.02  -0.11
    27   1     0.18   0.08   0.20     0.07   0.01   0.08    -0.11  -0.07  -0.17
    28   1    -0.04  -0.16  -0.00    -0.06  -0.04  -0.02     0.19   0.09   0.06
    29   1     0.12   0.05  -0.17    -0.01  -0.02   0.14    -0.02   0.02  -0.16
    30   1     0.05   0.18   0.11     0.12  -0.05  -0.13    -0.25   0.02   0.20
    31   1     0.19  -0.11  -0.29     0.22   0.01  -0.25     0.18  -0.07  -0.29
    32   1     0.09   0.02   0.42     0.01  -0.06   0.18    -0.05  -0.09   0.30
    33   1     0.16   0.14   0.23    -0.26  -0.10  -0.30    -0.21   0.06  -0.09
    34   1    -0.01  -0.01  -0.41     0.10  -0.10   0.31    -0.05  -0.02   0.00
                     43                     44                     45
                      A                      A                      A
 Frequencies --    971.9918               973.8295               983.9690
 Red. masses --      1.4577                 1.5457                 2.6469
 Frc consts  --      0.8114                 0.8637                 1.5099
 IR Inten    --      0.8282                 0.7286                 2.5888
  Atom  AN      X      Y      Z        X      Y      Z        X      Y      Z
     1   6     0.02   0.02  -0.02     0.04   0.03  -0.01     0.16  -0.00  -0.03
     2   6     0.03   0.02   0.02     0.05   0.04  -0.01     0.09  -0.01  -0.00
     3   6     0.01  -0.01  -0.02     0.02  -0.01  -0.00     0.03   0.03   0.08
     4   6     0.01  -0.01  -0.03     0.01  -0.01  -0.03     0.01   0.02   0.03
     5   6    -0.00  -0.00  -0.01    -0.00  -0.01  -0.03     0.04   0.01  -0.05
     6   6     0.01  -0.01   0.00     0.01  -0.01  -0.00     0.00  -0.01   0.02
     7   6    -0.01   0.01   0.07    -0.02  -0.02   0.01    -0.02  -0.04  -0.03
     8   6    -0.01   0.01  -0.01     0.01   0.02   0.08    -0.01  -0.01  -0.02
     9   6     0.02   0.02   0.06     0.01   0.01   0.02    -0.03   0.03   0.02
    10   6    -0.00  -0.02  -0.03    -0.02  -0.00   0.06    -0.01  -0.01  -0.03
    11   6    -0.01  -0.03  -0.10     0.00   0.01  -0.02     0.02  -0.02   0.00
    12   6     0.00   0.02   0.04     0.01  -0.01  -0.11     0.00   0.00   0.03
    13   6    -0.02  -0.02   0.04    -0.04  -0.02   0.02    -0.09  -0.01  -0.10
    14   6    -0.00  -0.03   0.05    -0.02  -0.02   0.03    -0.13   0.07  -0.09
    15   6    -0.01   0.01   0.02    -0.03   0.00   0.04    -0.13   0.04   0.05
    16   6    -0.04  -0.02  -0.00    -0.05  -0.05   0.01    -0.06  -0.05  -0.03
    17   6     0.02   0.03  -0.04     0.02   0.02  -0.03     0.00  -0.01   0.08
    18   6     0.01   0.01  -0.01     0.01   0.03  -0.03     0.03  -0.01   0.01
    19   8    -0.01  -0.00   0.00    -0.00  -0.01   0.01     0.07  -0.01   0.02
    20   8     0.01  -0.00  -0.00     0.02  -0.00   0.00     0.04   0.01  -0.00
    21   1    -0.01  -0.09  -0.40    -0.02  -0.03  -0.02    -0.05   0.04   0.21
    22   1    -0.00   0.02   0.11    -0.07  -0.09  -0.47     0.00  -0.00   0.13
    23   1    -0.11  -0.12  -0.40    -0.03  -0.04  -0.11    -0.07  -0.01  -0.11
    24   1    -0.03   0.01   0.22     0.04  -0.07  -0.40    -0.05   0.04   0.17
    25   1     0.09   0.17   0.57     0.06   0.04   0.06     0.18   0.00  -0.02
    26   1     0.05  -0.03  -0.30     0.03   0.12   0.64     0.04  -0.03  -0.16
    27   1    -0.07  -0.03  -0.09    -0.09  -0.02  -0.08    -0.08   0.05   0.04
    28   1     0.09   0.07   0.03     0.04   0.05   0.01    -0.29   0.02  -0.11
    29   1    -0.00   0.01  -0.09    -0.02   0.00  -0.02    -0.17  -0.11   0.36
    30   1    -0.13   0.01   0.10    -0.08  -0.01   0.05     0.19  -0.22  -0.34
    31   1    -0.01  -0.01   0.00    -0.06  -0.05   0.02    -0.04  -0.16  -0.14
    32   1    -0.01   0.00   0.04    -0.03  -0.00   0.05    -0.12  -0.09   0.28
    33   1     0.03   0.04   0.06     0.06   0.08   0.13    -0.00   0.08   0.08
    34   1    -0.05   0.03  -0.10    -0.09   0.05  -0.15    -0.09   0.03  -0.16
                     46                     47                     48
                      A                      A                      A
 Frequencies --   1007.7453              1013.7039              1121.3543
 Red. masses --      6.0766                 3.7482                 2.1907
 Frc consts  --      3.6359                 2.2693                 1.6230
 IR Inten    --      1.7621                 0.4252                 1.8235
  Atom  AN      X      Y      Z        X      Y      Z        X      Y      Z
     1   6    -0.02   0.30  -0.01     0.17   0.02  -0.02    -0.00  -0.08   0.01
     2   6    -0.02   0.30   0.00    -0.19  -0.01   0.01    -0.00   0.05  -0.01
     3   6     0.03  -0.02  -0.02     0.10   0.02   0.04    -0.02  -0.03  -0.00
     4   6    -0.04  -0.02  -0.01    -0.12  -0.02   0.03    -0.02   0.05   0.01
     5   6    -0.02  -0.02  -0.01     0.10   0.01  -0.07     0.02  -0.05  -0.01
     6   6     0.02  -0.02  -0.01    -0.12  -0.00  -0.05     0.01   0.06   0.01
     7   6    -0.19  -0.17   0.02    -0.02  -0.02  -0.00     0.11   0.03  -0.00
     8   6     0.22  -0.14  -0.01     0.01  -0.02   0.00     0.14  -0.01  -0.01
     9   6     0.21  -0.12  -0.04    -0.03   0.03   0.01    -0.12   0.02   0.03
    10   6    -0.20  -0.15  -0.02     0.04   0.03   0.01    -0.14  -0.02  -0.01
    11   6    -0.00   0.07   0.05     0.01  -0.01  -0.00    -0.01   0.05  -0.03
    12   6    -0.00   0.07   0.05    -0.01   0.00  -0.01     0.00  -0.09   0.04
    13   6    -0.00  -0.01   0.01    -0.15   0.02  -0.02    -0.00   0.04   0.01
    14   6    -0.00   0.00   0.01     0.19  -0.03   0.02     0.00  -0.02   0.01
    15   6    -0.02  -0.00   0.01    -0.14  -0.02   0.04     0.00   0.04   0.01
    16   6     0.02  -0.00   0.00     0.16   0.01   0.01     0.00  -0.03  -0.01
    17   6     0.01  -0.00  -0.01     0.01   0.02  -0.04     0.00  -0.03  -0.02
    18   6    -0.00  -0.00   0.00     0.00  -0.02   0.05     0.00  -0.00  -0.01
    19   8    -0.00  -0.00   0.00    -0.02  -0.02  -0.02    -0.02   0.01  -0.01
    20   8    -0.00   0.00   0.00    -0.00   0.02   0.01     0.02   0.00  -0.00
    21   1    -0.16  -0.19   0.18    -0.07   0.05   0.03     0.25  -0.14   0.02
    22   1     0.22  -0.17   0.12     0.06   0.07  -0.03     0.29   0.26  -0.09
    23   1     0.24  -0.15   0.11    -0.07  -0.05   0.00    -0.20  -0.18   0.11
    24   1    -0.19  -0.19   0.13     0.10  -0.06   0.00    -0.30   0.23  -0.08
    25   1    -0.04  -0.03  -0.29     0.21   0.02  -0.02     0.06   0.08  -0.01
    26   1    -0.02   0.00  -0.27    -0.20   0.00   0.02     0.00  -0.11   0.01
    27   1    -0.05   0.01  -0.04    -0.21   0.03  -0.12    -0.07   0.08  -0.02
    28   1    -0.02   0.02   0.00    -0.11   0.14  -0.03     0.05  -0.01   0.02
    29   1     0.04   0.04   0.00     0.19   0.08  -0.36    -0.13  -0.12  -0.06
    30   1     0.04   0.01   0.00     0.00   0.25   0.23     0.21   0.16   0.07
    31   1     0.02  -0.01  -0.02    -0.14  -0.17  -0.07    -0.22  -0.17  -0.01
    32   1     0.03   0.03   0.01    -0.12  -0.09   0.18     0.15   0.13   0.05
    33   1    -0.01  -0.02  -0.02     0.15  -0.17  -0.12    -0.27   0.15   0.07
    34   1    -0.03   0.03   0.02     0.18  -0.08   0.19     0.17  -0.12  -0.08
                     49                     50                     51
                      A                      A                      A
 Frequencies --   1136.0506              1144.4779              1155.6897
 Red. masses --      1.7622                 1.7455                 1.3813
 Frc consts  --      1.3400                 1.3471                 1.0870
 IR Inten    --     12.1588                 4.8992                 4.0705
  Atom  AN      X      Y      Z        X      Y      Z        X      Y      Z
     1   6     0.02  -0.04   0.00    -0.02   0.03   0.00     0.02  -0.01  -0.01
     2   6     0.03  -0.06  -0.00     0.04   0.03  -0.00    -0.00   0.02   0.01
     3   6    -0.01   0.03  -0.03    -0.01  -0.00  -0.02     0.03  -0.08   0.03
     4   6     0.01   0.07   0.01     0.01   0.06   0.00     0.00   0.01  -0.00
     5   6     0.01   0.05  -0.01     0.02  -0.04   0.02     0.00   0.07   0.00
     6   6     0.01  -0.02  -0.01     0.02  -0.09   0.02     0.02  -0.02  -0.02
     7   6    -0.09   0.02   0.01     0.04  -0.01   0.01     0.07   0.02  -0.01
     8   6     0.05  -0.01   0.00    -0.02  -0.05   0.01     0.02  -0.00  -0.00
     9   6     0.08   0.02  -0.02    -0.06  -0.01   0.01    -0.02  -0.05   0.02
    10   6    -0.03   0.03  -0.01     0.06   0.02  -0.01    -0.02   0.01   0.00
    11   6     0.02  -0.08   0.04     0.01   0.04  -0.02    -0.02   0.04  -0.02
    12   6    -0.01  -0.05   0.02    -0.02   0.04  -0.02     0.00  -0.01   0.01
    13   6    -0.02   0.04   0.05    -0.01   0.04   0.02    -0.00   0.00  -0.02
    14   6    -0.01   0.02   0.04    -0.02   0.01   0.02     0.00  -0.02  -0.01
    15   6    -0.00  -0.01   0.02    -0.02  -0.03  -0.06    -0.01  -0.00   0.00
    16   6    -0.02   0.01   0.03    -0.01  -0.01  -0.06    -0.02   0.02   0.04
    17   6     0.02  -0.08  -0.07     0.01  -0.04  -0.04    -0.01   0.02   0.02
    18   6    -0.00  -0.01  -0.04     0.01   0.02   0.12    -0.00  -0.01  -0.05
    19   8    -0.02   0.01  -0.00    -0.02   0.01  -0.00    -0.00  -0.00  -0.00
    20   8    -0.01  -0.00   0.01    -0.01  -0.00  -0.02    -0.03  -0.00   0.01
    21   1    -0.27   0.23  -0.08     0.14  -0.14   0.02     0.17  -0.09   0.07
    22   1     0.11   0.09  -0.05    -0.12  -0.25   0.03     0.06   0.07  -0.02
    23   1     0.17   0.27  -0.14    -0.11  -0.16   0.12    -0.11  -0.28   0.09
    24   1    -0.14   0.20  -0.05     0.11  -0.06   0.08    -0.08   0.12  -0.05
    25   1     0.01  -0.10   0.01     0.15   0.06  -0.04    -0.34   0.02   0.06
    26   1    -0.15  -0.07   0.01    -0.31   0.04  -0.01    -0.05  -0.02  -0.01
    27   1    -0.09   0.04  -0.07    -0.08   0.07  -0.04    -0.10   0.08   0.00
    28   1     0.15  -0.01   0.06     0.08  -0.01   0.03    -0.06   0.01  -0.02
    29   1    -0.29  -0.22   0.01    -0.22  -0.16   0.01     0.02   0.00  -0.04
    30   1     0.42   0.29   0.09     0.31   0.22   0.06    -0.05  -0.02   0.00
    31   1     0.19   0.13   0.02    -0.11  -0.06  -0.04     0.45   0.34  -0.00
    32   1    -0.18  -0.14  -0.00     0.15   0.09  -0.02    -0.32  -0.27   0.02
    33   1     0.09  -0.05  -0.00     0.35  -0.18  -0.10     0.30  -0.17  -0.03
    34   1    -0.04   0.03   0.01    -0.35   0.19   0.03    -0.16   0.12   0.03
                     52                     53                     54
                      A                      A                      A
 Frequencies --   1172.3651              1190.0688              1194.1015
 Red. masses --      1.3857                 1.2395                 1.1973
 Frc consts  --      1.1221                 1.0343                 1.0058
 IR Inten    --     21.4475                 9.3616                 1.6804
  Atom  AN      X      Y      Z        X      Y      Z        X      Y      Z
     1   6    -0.02  -0.02  -0.00    -0.02   0.00   0.00    -0.00   0.00   0.00
     2   6     0.01  -0.01   0.01    -0.01  -0.01   0.00    -0.02  -0.00  -0.00
     3   6    -0.02   0.04   0.00    -0.04   0.06  -0.02    -0.00  -0.01  -0.00
     4   6     0.00   0.01  -0.02    -0.01  -0.01   0.00    -0.02  -0.04   0.02
     5   6     0.01  -0.02   0.02    -0.01  -0.03   0.02     0.01   0.00   0.00
     6   6    -0.00  -0.02  -0.00    -0.00   0.01  -0.01    -0.02   0.03  -0.02
     7   6    -0.03  -0.01   0.00    -0.03   0.01  -0.00     0.00   0.00   0.00
     8   6     0.05   0.04  -0.00    -0.01  -0.00   0.00    -0.03  -0.03   0.01
     9   6     0.01   0.02  -0.01    -0.03  -0.04   0.02     0.00   0.01  -0.00
    10   6    -0.04   0.04  -0.01    -0.00   0.00   0.00    -0.04   0.04  -0.01
    11   6     0.01  -0.02   0.01     0.05   0.01  -0.01    -0.00  -0.00   0.00
    12   6    -0.01  -0.05   0.02     0.01   0.00   0.00     0.06   0.00   0.00
    13   6     0.01  -0.03  -0.01     0.01   0.00   0.01    -0.00   0.01   0.00
    14   6     0.01  -0.02   0.00     0.01   0.01   0.00     0.01   0.01  -0.01
    15   6    -0.01  -0.03  -0.04    -0.00   0.02   0.00    -0.01  -0.02  -0.02
    16   6    -0.00  -0.03  -0.03    -0.01   0.02   0.03     0.01  -0.02  -0.00
    17   6    -0.00   0.04   0.02     0.01  -0.01  -0.02     0.00  -0.02  -0.01
    18   6     0.01   0.02   0.09    -0.00  -0.02  -0.05     0.00   0.02   0.05
    19   8     0.01  -0.01   0.00     0.00   0.00   0.00    -0.00   0.00  -0.00
    20   8    -0.01  -0.00  -0.01    -0.00   0.00   0.01    -0.00  -0.00  -0.01
    21   1    -0.09   0.06  -0.03    -0.09   0.08  -0.01     0.01  -0.01  -0.00
    22   1     0.21   0.34  -0.11    -0.03  -0.04   0.01    -0.15  -0.27   0.05
    23   1     0.05   0.12  -0.02    -0.17  -0.40   0.15     0.02   0.06  -0.01
    24   1    -0.22   0.32  -0.07    -0.01   0.02  -0.01    -0.21   0.32  -0.06
    25   1     0.17  -0.00  -0.02     0.74   0.08  -0.13    -0.08  -0.01   0.01
    26   1    -0.12  -0.06   0.00     0.14   0.01  -0.00     0.79   0.03   0.01
    27   1     0.19  -0.14   0.05     0.14  -0.10   0.02    -0.06   0.04  -0.02
    28   1    -0.08   0.03  -0.02     0.02  -0.00   0.01     0.05  -0.02   0.01
    29   1     0.13   0.10  -0.03     0.02   0.02   0.02     0.03   0.02   0.03
    30   1    -0.36  -0.25  -0.04     0.00   0.00  -0.00     0.13   0.09   0.01
    31   1    -0.06  -0.03  -0.02     0.27   0.20  -0.02    -0.05  -0.03  -0.00
    32   1     0.08   0.04  -0.03    -0.08  -0.07   0.04     0.03   0.01  -0.01
    33   1     0.39  -0.20  -0.06     0.02  -0.02   0.01     0.22  -0.12  -0.02
    34   1    -0.24   0.13  -0.01     0.04  -0.01   0.01    -0.03   0.02  -0.03
                     55                     56                     57
                      A                      A                      A
 Frequencies --   1220.3241              1232.7956              1237.2239
 Red. masses --      1.3991                 2.6183                 2.3575
 Frc consts  --      1.2276                 2.3445                 2.1261
 IR Inten    --      8.1051                 1.8084                 5.8506
  Atom  AN      X      Y      Z        X      Y      Z        X      Y      Z
     1   6     0.03   0.01  -0.00    -0.01   0.05  -0.02    -0.02   0.03   0.01
     2   6     0.02  -0.01   0.00    -0.01  -0.07   0.02     0.00   0.02   0.01
     3   6    -0.09   0.08  -0.01     0.16  -0.00   0.06    -0.08   0.01  -0.04
     4   6    -0.03  -0.00  -0.00     0.13   0.09  -0.05     0.16   0.07  -0.05
     5   6     0.04   0.01  -0.02    -0.13  -0.07   0.08     0.08   0.07  -0.06
     6   6    -0.01   0.00  -0.01    -0.13   0.02  -0.04    -0.15   0.08  -0.06
     7   6     0.00  -0.05   0.01    -0.00  -0.04   0.00     0.00   0.00   0.00
     8   6    -0.01  -0.01   0.01     0.01   0.01   0.00     0.01   0.01  -0.00
     9   6    -0.01   0.02  -0.00     0.01  -0.03   0.00     0.01  -0.01  -0.00
    10   6    -0.00   0.00  -0.00     0.00   0.04  -0.00    -0.01  -0.01   0.00
    11   6    -0.01  -0.03   0.01    -0.02   0.08  -0.02     0.01  -0.04   0.01
    12   6     0.01   0.00  -0.00     0.01  -0.08   0.01    -0.01  -0.08   0.01
    13   6     0.01   0.02   0.02    -0.05  -0.02  -0.02     0.02   0.00   0.01
    14   6     0.02   0.03   0.03    -0.02  -0.02   0.04    -0.06  -0.02   0.02
    15   6    -0.01   0.01   0.02     0.03   0.01  -0.03    -0.01  -0.03   0.01
    16   6    -0.00   0.01   0.01     0.04   0.01   0.03     0.03  -0.03   0.02
    17   6     0.03  -0.01  -0.07     0.02   0.04  -0.01    -0.02   0.01   0.04
    18   6    -0.00  -0.01  -0.02    -0.01  -0.02  -0.03     0.00   0.07   0.08
    19   8    -0.01   0.00   0.00    -0.02  -0.01  -0.01     0.01  -0.00   0.00
    20   8    -0.00   0.00   0.00     0.01   0.00   0.00     0.00  -0.01  -0.01
    21   1     0.34  -0.49   0.10    -0.03   0.02   0.00     0.03  -0.05   0.01
    22   1    -0.01  -0.02  -0.02    -0.10  -0.22   0.03    -0.06  -0.14   0.05
    23   1     0.03   0.11  -0.02     0.04   0.08  -0.03    -0.07  -0.24   0.08
    24   1     0.03  -0.05   0.02    -0.02   0.07   0.00     0.13  -0.25   0.05
    25   1    -0.19  -0.05   0.05     0.02   0.09  -0.03    -0.01  -0.05   0.01
    26   1     0.04   0.00  -0.00     0.04  -0.08   0.02    -0.01  -0.09   0.01
    27   1     0.50  -0.35   0.09     0.09  -0.12   0.00    -0.02   0.03   0.00
    28   1    -0.27   0.21  -0.02    -0.45   0.32  -0.09     0.33  -0.24   0.06
    29   1    -0.10  -0.06  -0.02    -0.39  -0.30  -0.10    -0.14  -0.10   0.02
    30   1     0.02   0.00   0.01    -0.03  -0.03   0.03    -0.16  -0.12  -0.02
    31   1     0.06   0.03  -0.01     0.14   0.11  -0.02    -0.15  -0.12   0.02
    32   1    -0.09  -0.07   0.03     0.25   0.19  -0.03    -0.29  -0.23  -0.05
    33   1     0.02  -0.01   0.00     0.05  -0.04   0.00     0.21  -0.12  -0.01
    34   1     0.03  -0.01   0.01     0.17  -0.09   0.04     0.39  -0.22  -0.10
                     58                     59                     60
                      A                      A                      A
 Frequencies --   1242.1144              1255.5436              1261.7236
 Red. masses --      1.7426                 2.0597                 2.6525
 Frc consts  --      1.5841                 1.9130                 2.4880
 IR Inten    --     10.9600                 7.6318                11.1012
  Atom  AN      X      Y      Z        X      Y      Z        X      Y      Z
     1   6     0.09  -0.00  -0.02    -0.03   0.04  -0.00    -0.04   0.22   0.01
     2   6     0.08   0.02   0.01     0.01  -0.07  -0.01    -0.02  -0.21  -0.00
     3   6    -0.01   0.00  -0.02     0.04  -0.04   0.04     0.03   0.06  -0.04
     4   6    -0.03  -0.06   0.03    -0.02  -0.06   0.01     0.06  -0.05  -0.00
     5   6    -0.09  -0.07   0.08    -0.04   0.05   0.01     0.02   0.02  -0.03
     6   6    -0.09   0.06  -0.05     0.04   0.02   0.02    -0.01  -0.03   0.01
     7   6    -0.02   0.00   0.00    -0.00   0.01  -0.01     0.01  -0.08   0.02
     8   6    -0.03   0.02   0.00    -0.01   0.03  -0.00    -0.02   0.08  -0.01
     9   6    -0.03  -0.01   0.01     0.02  -0.04   0.00     0.03  -0.02  -0.01
    10   6    -0.03  -0.01  -0.00     0.00  -0.02   0.00     0.03   0.04   0.00
    11   6     0.01   0.03  -0.01     0.02   0.02  -0.01    -0.02   0.00   0.00
    12   6     0.01  -0.01   0.00    -0.03   0.01  -0.00    -0.02  -0.02   0.00
    13   6    -0.01   0.02   0.01     0.02   0.01   0.02    -0.04   0.04   0.01
    14   6    -0.02   0.01  -0.02    -0.01   0.03   0.02    -0.03   0.02   0.01
    15   6     0.01   0.00  -0.04     0.02  -0.04  -0.04    -0.02   0.01   0.03
    16   6     0.00  -0.01   0.02    -0.02  -0.05  -0.05    -0.00   0.02   0.01
    17   6    -0.00  -0.05  -0.01     0.03  -0.08  -0.08    -0.00  -0.09  -0.02
    18   6    -0.00   0.01   0.02     0.00   0.16   0.13     0.00  -0.07  -0.05
    19   8     0.01   0.00   0.01    -0.01   0.01   0.01     0.02   0.01   0.01
    20   8     0.01  -0.00  -0.00     0.00  -0.03  -0.02     0.01   0.01   0.01
    21   1     0.14  -0.19   0.05    -0.09   0.13   0.01     0.21  -0.35   0.06
    22   1     0.15   0.37  -0.06     0.09   0.23  -0.03     0.10   0.32  -0.05
    23   1     0.08   0.32  -0.12    -0.06  -0.24   0.06    -0.06  -0.28   0.13
    24   1     0.18  -0.37   0.07     0.01  -0.03  -0.02    -0.13   0.31  -0.08
    25   1     0.02   0.04  -0.02    -0.01   0.02   0.00    -0.11  -0.01   0.00
    26   1     0.02  -0.01   0.00    -0.01   0.02   0.00    -0.03  -0.02   0.01
    27   1    -0.16   0.12  -0.04    -0.02   0.03  -0.02    -0.24   0.17  -0.06
    28   1     0.21  -0.13   0.04    -0.49   0.36  -0.06     0.25  -0.15   0.05
    29   1     0.19   0.16   0.10     0.12   0.12   0.09     0.13   0.13   0.13
    30   1     0.12   0.08  -0.01     0.13   0.08   0.02    -0.00  -0.02  -0.02
    31   1     0.24   0.17  -0.04    -0.05  -0.02   0.01    -0.12  -0.07   0.02
    32   1     0.10   0.07  -0.03    -0.26  -0.22  -0.14     0.20   0.17   0.08
    33   1     0.27  -0.13  -0.01    -0.10   0.05   0.01    -0.04   0.01  -0.01
    34   1     0.13  -0.07  -0.02     0.29  -0.19  -0.21    -0.05   0.04   0.05
                     61                     62                     63
                      A                      A                      A
 Frequencies --   1278.2239              1291.5587              1297.8534
 Red. masses --      1.9478                 2.3631                 2.5767
 Frc consts  --      1.8750                 2.3225                 2.5572
 IR Inten    --     42.6771                 7.9649                 4.6675
  Atom  AN      X      Y      Z        X      Y      Z        X      Y      Z
     1   6     0.03   0.04  -0.01     0.01   0.08   0.00     0.14   0.04  -0.02
     2   6    -0.02  -0.07  -0.01     0.13  -0.07  -0.01     0.02  -0.01   0.00
     3   6     0.03   0.04  -0.02    -0.06  -0.07   0.01    -0.08  -0.07  -0.01
     4   6    -0.05  -0.00   0.02    -0.08  -0.02   0.05    -0.02   0.07  -0.03
     5   6    -0.04  -0.03   0.04    -0.05   0.08  -0.02    -0.11   0.05   0.02
     6   6     0.05  -0.04   0.03    -0.05  -0.02  -0.02    -0.09  -0.08   0.01
     7   6    -0.02  -0.03   0.01    -0.02   0.03  -0.02    -0.05   0.06  -0.02
     8   6     0.00  -0.00  -0.00    -0.05  -0.04   0.01    -0.00  -0.02   0.01
     9   6    -0.01  -0.02   0.00     0.02  -0.04   0.01    -0.03  -0.08   0.04
    10   6     0.01   0.00  -0.00    -0.04   0.06  -0.02     0.01   0.05  -0.01
    11   6    -0.01   0.02  -0.00     0.04  -0.01  -0.00     0.08   0.01  -0.01
    12   6     0.00   0.02  -0.00     0.05   0.01  -0.00     0.04  -0.01   0.00
    13   6    -0.05  -0.01  -0.03     0.06  -0.06  -0.00     0.04   0.02   0.02
    14   6     0.04  -0.03  -0.03     0.02  -0.04  -0.04     0.05   0.05   0.02
    15   6    -0.01  -0.04  -0.04     0.06   0.04   0.01     0.08   0.03  -0.01
    16   6     0.00  -0.04  -0.04    -0.00   0.02   0.02     0.12  -0.05  -0.03
    17   6    -0.02   0.13   0.09    -0.00   0.15   0.06    -0.02  -0.09  -0.01
    18   6    -0.00   0.13   0.06     0.00  -0.07  -0.01    -0.01   0.02   0.00
    19   8     0.01  -0.02  -0.01    -0.02  -0.01  -0.02     0.00   0.02   0.00
    20   8     0.00  -0.02  -0.01    -0.01   0.01   0.00    -0.03  -0.01   0.00
    21   1     0.13  -0.23   0.04    -0.08   0.12   0.03     0.10  -0.11   0.12
    22   1     0.00   0.00  -0.01     0.16   0.38  -0.12    -0.08  -0.18  -0.02
    23   1     0.04   0.11  -0.03    -0.07  -0.25   0.03     0.01   0.05  -0.11
    24   1    -0.10   0.18  -0.04     0.08  -0.15   0.07    -0.11   0.24   0.02
    25   1     0.04   0.02  -0.01    -0.03  -0.01   0.01     0.04   0.01  -0.01
    26   1    -0.03   0.03   0.00     0.08   0.01   0.00    -0.07  -0.02   0.00
    27   1     0.11  -0.12   0.03     0.10  -0.08   0.04    -0.13   0.13  -0.04
    28   1     0.42  -0.31   0.04    -0.09   0.03  -0.03     0.00  -0.05   0.03
    29   1    -0.25  -0.23  -0.19    -0.22  -0.20  -0.22     0.02   0.01   0.08
    30   1     0.10   0.04  -0.01     0.33   0.20   0.03    -0.40  -0.24  -0.04
    31   1     0.25   0.19  -0.01    -0.38  -0.27   0.02    -0.14  -0.11   0.00
    32   1    -0.14  -0.12  -0.09     0.01   0.01   0.00    -0.18  -0.14  -0.09
    33   1    -0.31   0.16   0.04     0.13  -0.10  -0.04    -0.39   0.24   0.07
    34   1     0.17  -0.11  -0.14    -0.00   0.01   0.04    -0.27   0.16   0.14
                     64                     65                     66
                      A                      A                      A
 Frequencies --   1311.4795              1315.2894              1318.4703
 Red. masses --      1.8402                 2.0776                 2.7490
 Frc consts  --      1.8648                 2.1177                 2.8155
 IR Inten    --      0.5434                14.9280                23.3914
  Atom  AN      X      Y      Z        X      Y      Z        X      Y      Z
     1   6     0.04   0.04   0.00    -0.07  -0.01   0.01    -0.12  -0.04   0.01
     2   6     0.01  -0.03  -0.00     0.08   0.02   0.00     0.13   0.00  -0.00
     3   6    -0.08  -0.07  -0.00    -0.00   0.01   0.00     0.11   0.05   0.00
     4   6    -0.05   0.02  -0.01     0.01   0.01   0.01    -0.12   0.01  -0.01
     5   6     0.04   0.05   0.00     0.07   0.03  -0.01     0.02  -0.05  -0.01
     6   6     0.03  -0.01  -0.00    -0.10   0.01   0.00    -0.02  -0.03  -0.01
     7   6    -0.01   0.04  -0.01     0.03  -0.02   0.01     0.06  -0.07   0.03
     8   6     0.01  -0.02   0.01    -0.03  -0.03   0.01    -0.03  -0.07   0.03
     9   6    -0.02  -0.02   0.01     0.02   0.04  -0.02     0.03   0.06  -0.03
    10   6    -0.01  -0.00   0.00    -0.03   0.05  -0.02    -0.04   0.05  -0.02
    11   6     0.04  -0.01  -0.00    -0.02  -0.02   0.01    -0.06   0.01   0.01
    12   6     0.01   0.01   0.00     0.03  -0.02   0.00     0.05   0.01   0.00
    13   6     0.07  -0.01   0.01     0.01  -0.01  -0.00    -0.07   0.06  -0.02
    14   6     0.08   0.06   0.02    -0.03  -0.03  -0.01     0.14   0.13   0.03
    15   6    -0.12  -0.09  -0.01    -0.09  -0.10  -0.00     0.04   0.04   0.01
    16   6    -0.07   0.03   0.02     0.14  -0.10  -0.03    -0.01   0.01   0.01
    17   6    -0.02  -0.03   0.01     0.01   0.02  -0.00    -0.03  -0.10  -0.00
    18   6     0.01   0.02  -0.00    -0.01   0.07  -0.02    -0.00  -0.01   0.00
    19   8    -0.01   0.01  -0.01    -0.00  -0.00   0.00     0.01   0.01  -0.00
    20   8     0.04   0.00  -0.00    -0.01  -0.01   0.01    -0.01  -0.00  -0.00
    21   1    -0.03   0.08   0.03    -0.09   0.12  -0.05    -0.11   0.12  -0.11
    22   1    -0.02  -0.08  -0.02     0.08   0.18  -0.05     0.07   0.15  -0.12
    23   1    -0.00   0.02   0.00    -0.04  -0.14   0.10    -0.04  -0.14   0.09
    24   1     0.00  -0.02  -0.01     0.08  -0.14   0.09     0.10  -0.19   0.08
    25   1    -0.05  -0.02   0.02    -0.08  -0.03   0.02    -0.07   0.01  -0.00
    26   1    -0.04   0.00  -0.01     0.10  -0.01   0.01     0.09   0.02  -0.01
    27   1    -0.13   0.13  -0.02     0.01  -0.01   0.01    -0.06   0.05  -0.03
    28   1    -0.09   0.02   0.00    -0.07   0.07  -0.02     0.15  -0.13   0.02
    29   1    -0.23  -0.19  -0.06     0.09   0.07   0.01    -0.33  -0.26  -0.02
    30   1    -0.26  -0.21  -0.05     0.11   0.09   0.02    -0.42  -0.37  -0.12
    31   1     0.17   0.24   0.08     0.29   0.31   0.09    -0.04  -0.09  -0.04
    32   1     0.50   0.36   0.10     0.22   0.16   0.02    -0.25  -0.18  -0.02
    33   1     0.04  -0.08  -0.04    -0.36   0.31   0.17     0.03  -0.03  -0.02
    34   1     0.32  -0.17  -0.15    -0.37   0.20   0.12     0.07  -0.04  -0.00
                     67                     68                     69
                      A                      A                      A
 Frequencies --   1338.6562              1352.2560              1433.7295
 Red. masses --      2.1307                 1.7963                 1.1679
 Frc consts  --      2.2496                 1.9352                 1.4144
 IR Inten    --      2.8016                 3.0750                 4.2343
  Atom  AN      X      Y      Z        X      Y      Z        X      Y      Z
     1   6     0.03   0.00  -0.00     0.02  -0.04  -0.01     0.01  -0.04   0.00
     2   6    -0.09  -0.01   0.00     0.01   0.02   0.00     0.00   0.00   0.00
     3   6    -0.01  -0.03   0.00     0.05  -0.08   0.02     0.02   0.03  -0.01
     4   6     0.06  -0.13  -0.01    -0.00   0.01  -0.00    -0.01   0.01  -0.00
     5   6    -0.03   0.03   0.00    -0.07   0.10   0.01    -0.04   0.04   0.00
     6   6     0.05   0.16   0.00     0.00  -0.02  -0.00     0.01   0.01   0.00
     7   6    -0.01   0.02  -0.01    -0.02   0.02  -0.00    -0.03   0.01  -0.00
     8   6     0.03   0.07  -0.02    -0.01  -0.01   0.00     0.01  -0.00  -0.00
     9   6     0.00  -0.02   0.01     0.01  -0.03   0.01     0.02  -0.00  -0.00
    10   6     0.02  -0.07   0.02    -0.01   0.01  -0.00    -0.01   0.00  -0.00
    11   6     0.02   0.00  -0.00     0.05   0.01  -0.01     0.01  -0.02   0.00
    12   6    -0.10  -0.01   0.00     0.01   0.00  -0.00     0.00  -0.01   0.00
    13   6    -0.01   0.02  -0.00    -0.14   0.12  -0.02    -0.03  -0.06  -0.04
    14   6     0.06   0.08   0.03    -0.02  -0.00   0.00     0.01   0.00   0.00
    15   6     0.01  -0.01  -0.00    -0.01  -0.04  -0.01     0.00  -0.01  -0.01
    16   6     0.05  -0.06  -0.03    -0.01   0.01   0.00    -0.00  -0.00  -0.00
    17   6    -0.01  -0.01   0.01     0.02  -0.03  -0.04    -0.00  -0.01  -0.01
    18   6    -0.00  -0.01   0.00     0.00  -0.00   0.00    -0.00  -0.00   0.00
    19   8    -0.01   0.00  -0.01     0.03  -0.01   0.02    -0.00   0.00  -0.00
    20   8    -0.02   0.00   0.00     0.01   0.00  -0.00     0.00   0.00  -0.00
    21   1    -0.02   0.03   0.01    -0.11   0.14  -0.02     0.05  -0.10   0.04
    22   1     0.07   0.15   0.02    -0.00  -0.01  -0.00    -0.01  -0.04   0.01
    23   1    -0.02  -0.05   0.00    -0.08  -0.24   0.05    -0.02  -0.11   0.03
    24   1     0.10  -0.21  -0.02     0.00  -0.01   0.01     0.02  -0.04   0.01
    25   1    -0.02  -0.00   0.00    -0.18  -0.02   0.03    -0.01  -0.02   0.01
    26   1     0.20   0.00   0.00    -0.02  -0.00  -0.00     0.00  -0.01   0.00
    27   1     0.08  -0.05   0.00     0.56  -0.43   0.04     0.00   0.24   0.63
    28   1     0.04  -0.07   0.01     0.24  -0.27   0.05     0.42   0.55  -0.08
    29   1    -0.49  -0.36  -0.10     0.15   0.12   0.10     0.00  -0.00   0.02
    30   1     0.01  -0.14  -0.09    -0.01   0.03   0.01    -0.03   0.00   0.01
    31   1    -0.04  -0.02   0.01    -0.11   0.01   0.07    -0.06   0.02   0.05
    32   1     0.04   0.03  -0.02     0.25   0.17   0.02     0.07   0.02   0.03
    33   1     0.13   0.07   0.09     0.01  -0.02  -0.02     0.02   0.01   0.01
    34   1    -0.48   0.25   0.14     0.07  -0.04  -0.03    -0.01  -0.01   0.02
                     70                     71                     72
                      A                      A                      A
 Frequencies --   1456.3623              1462.7206              1463.3253
 Red. masses --      1.8464                 2.4291                 1.2469
 Frc consts  --      2.3073                 3.0620                 1.5731
 IR Inten    --     12.3082                 7.7712                 8.3150
  Atom  AN      X      Y      Z        X      Y      Z        X      Y      Z
     1   6     0.02  -0.06  -0.00     0.05  -0.12  -0.01    -0.03  -0.02   0.00
     2   6     0.00  -0.07  -0.00     0.02   0.13   0.01    -0.03   0.01   0.00
     3   6     0.05   0.10  -0.01     0.00   0.12  -0.03     0.04   0.00   0.01
     4   6    -0.08   0.08   0.00     0.04  -0.12   0.01     0.04   0.01  -0.01
     5   6    -0.08   0.06   0.01    -0.10   0.04   0.03     0.01   0.03  -0.02
     6   6     0.07   0.07   0.00    -0.10  -0.06  -0.01     0.02  -0.02   0.01
     7   6    -0.04  -0.01   0.00    -0.02  -0.05   0.02    -0.02   0.04  -0.01
     8   6     0.04   0.01  -0.01    -0.04   0.04  -0.01    -0.01  -0.04   0.01
     9   6     0.04   0.03  -0.02     0.04   0.08  -0.03     0.00  -0.04   0.01
    10   6    -0.05   0.01  -0.01     0.07  -0.07   0.02    -0.01   0.04  -0.01
    11   6     0.01  -0.04   0.01     0.04  -0.03   0.01    -0.02  -0.01   0.01
    12   6     0.01  -0.04   0.01     0.02   0.05  -0.01    -0.02   0.00  -0.00
    13   6     0.03  -0.02   0.02     0.04  -0.03   0.02    -0.00   0.00   0.00
    14   6     0.01  -0.03  -0.03    -0.00   0.04   0.02    -0.00   0.00   0.00
    15   6     0.02  -0.02  -0.04     0.01  -0.02  -0.02     0.01  -0.00  -0.05
    16   6    -0.02  -0.02  -0.04     0.01   0.03   0.03     0.02   0.00   0.05
    17   6    -0.01   0.02   0.02    -0.00   0.01   0.01     0.00  -0.00   0.00
    18   6    -0.00   0.00   0.00    -0.01  -0.00  -0.00     0.00  -0.00  -0.00
    19   8     0.00  -0.00  -0.00    -0.01   0.00  -0.01    -0.00   0.00  -0.00
    20   8    -0.00   0.00  -0.00     0.01   0.00  -0.00    -0.00  -0.00   0.00
    21   1     0.11  -0.22   0.04    -0.02  -0.06  -0.01     0.13  -0.15   0.05
    22   1    -0.08  -0.25   0.05    -0.01   0.10  -0.00     0.09   0.14  -0.04
    23   1    -0.06  -0.27   0.09    -0.14  -0.39   0.15     0.07   0.13  -0.06
    24   1     0.09  -0.22   0.05    -0.22   0.40  -0.10     0.10  -0.13   0.04
    25   1    -0.04  -0.05   0.02    -0.21  -0.07   0.05     0.16   0.01  -0.03
    26   1    -0.01  -0.05   0.01    -0.18   0.05  -0.01     0.15   0.01   0.00
    27   1    -0.21   0.02  -0.30    -0.19   0.07  -0.18    -0.04   0.00  -0.06
    28   1    -0.19  -0.18   0.02    -0.11  -0.07   0.01    -0.04  -0.03   0.00
    29   1     0.11   0.01   0.13    -0.15  -0.04  -0.18    -0.02  -0.02   0.02
    30   1    -0.14   0.11   0.10     0.18  -0.12  -0.12    -0.02  -0.00   0.00
    31   1    -0.19   0.13   0.19    -0.10   0.08   0.11    -0.26   0.23   0.28
    32   1     0.13  -0.06   0.21     0.14   0.03   0.08     0.08  -0.21   0.41
    33   1     0.22   0.18   0.19    -0.13  -0.12  -0.13    -0.25  -0.25  -0.23
    34   1    -0.08  -0.11   0.27     0.14   0.01  -0.14    -0.03   0.22  -0.39
                     73                     74                     75
                      A                      A                      A
 Frequencies --   1472.3736              1474.6989              1484.6347
 Red. masses --      1.8548                 1.1788                 1.1765
 Frc consts  --      2.3691                 1.5105                 1.5279
 IR Inten    --     12.1821                14.2525                21.5234
  Atom  AN      X      Y      Z        X      Y      Z        X      Y      Z
     1   6    -0.03  -0.07   0.01    -0.01   0.03   0.00    -0.01   0.01  -0.00
     2   6    -0.04   0.07   0.00     0.00   0.02   0.00     0.00   0.04   0.00
     3   6     0.07   0.02   0.01    -0.02  -0.03   0.00    -0.01  -0.01   0.00
     4   6     0.07  -0.00  -0.01     0.02  -0.02   0.00     0.02  -0.05  -0.00
     5   6     0.00   0.10  -0.02     0.03  -0.03  -0.01     0.01  -0.01  -0.00
     6   6     0.01  -0.09   0.01    -0.02  -0.04  -0.00    -0.03  -0.02  -0.00
     7   6    -0.05   0.08  -0.02     0.02  -0.00   0.00     0.01  -0.00   0.00
     8   6    -0.03  -0.08   0.02    -0.01  -0.01   0.00    -0.02   0.00  -0.00
     9   6     0.02  -0.06   0.01    -0.02  -0.01   0.01    -0.01  -0.00   0.00
    10   6     0.01   0.06  -0.01     0.02  -0.00   0.00     0.02  -0.02   0.01
    11   6    -0.04  -0.03   0.02    -0.01   0.02  -0.00    -0.00   0.01  -0.00
    12   6    -0.04   0.03  -0.01    -0.00   0.02  -0.00     0.01   0.02  -0.00
    13   6    -0.00  -0.01   0.00    -0.01   0.01  -0.00    -0.00  -0.00  -0.00
    14   6    -0.01   0.01   0.01    -0.01   0.01   0.03     0.03  -0.01  -0.07
    15   6    -0.02  -0.02   0.04     0.01   0.01  -0.05     0.00   0.00  -0.01
    16   6    -0.03   0.02  -0.04    -0.02   0.00  -0.04    -0.00   0.01  -0.01
    17   6     0.00  -0.01   0.00     0.00  -0.01  -0.00     0.00   0.02  -0.00
    18   6     0.00   0.00   0.00    -0.00   0.00  -0.01    -0.00   0.00  -0.00
    19   8    -0.01   0.00  -0.00    -0.00   0.00   0.00    -0.00  -0.00  -0.00
    20   8     0.00   0.00  -0.00    -0.00   0.00  -0.00     0.00   0.00  -0.00
    21   1     0.25  -0.30   0.09    -0.05   0.08  -0.02    -0.02   0.03  -0.01
    22   1     0.17   0.32  -0.08     0.02   0.07  -0.02     0.04   0.11  -0.01
    23   1     0.07   0.04  -0.05     0.04   0.12  -0.04     0.01   0.04  -0.01
    24   1     0.07  -0.02   0.03    -0.05   0.11  -0.02    -0.07   0.13  -0.03
    25   1     0.26  -0.01  -0.03     0.02   0.02  -0.01     0.00   0.01  -0.00
    26   1     0.24   0.04  -0.00    -0.00   0.02  -0.00    -0.04   0.02  -0.01
    27   1    -0.10   0.03  -0.11     0.06  -0.01   0.06     0.04  -0.02   0.02
    28   1    -0.07  -0.04   0.00     0.04   0.03  -0.00    -0.00   0.03  -0.01
    29   1    -0.07  -0.04  -0.02    -0.02   0.07  -0.20    -0.10  -0.32   0.61
    30   1     0.01  -0.04  -0.03     0.14  -0.14  -0.11    -0.35   0.43   0.31
    31   1     0.12  -0.19  -0.17    -0.20   0.26   0.27    -0.04   0.06   0.06
    32   1     0.02   0.22  -0.31     0.02  -0.25   0.41     0.00  -0.06   0.10
    33   1     0.12   0.20   0.15     0.20   0.28   0.24     0.03   0.06   0.05
    34   1     0.11  -0.21   0.28     0.09  -0.26   0.40     0.05  -0.07   0.09
                     76                     77                     78
                      A                      A                      A
 Frequencies --   1501.5611              1593.8710              1612.5012
 Red. masses --      2.5370                 5.4054                 6.4780
 Frc consts  --      3.3703                 8.0907                 9.9240
 IR Inten    --      0.6610                 9.7161                 1.3245
  Atom  AN      X      Y      Z        X      Y      Z        X      Y      Z
     1   6     0.10   0.02  -0.01    -0.13  -0.02   0.02     0.18   0.01  -0.02
     2   6    -0.11   0.00   0.00    -0.10   0.00  -0.00    -0.22  -0.01   0.00
     3   6    -0.08   0.06  -0.02     0.10   0.08  -0.01    -0.12  -0.04  -0.00
     4   6     0.07   0.08  -0.03     0.09  -0.05  -0.01     0.15  -0.02  -0.02
     5   6    -0.04  -0.09   0.04     0.12  -0.05  -0.03    -0.12   0.01   0.04
     6   6     0.06  -0.09   0.02     0.08   0.07   0.01     0.14   0.05   0.02
     7   6     0.01  -0.09   0.03    -0.18   0.02  -0.00     0.16  -0.05   0.01
     8   6     0.01  -0.10   0.02    -0.14  -0.05   0.02    -0.20  -0.11   0.03
     9   6    -0.03   0.08  -0.02    -0.17  -0.07   0.06     0.14   0.08  -0.06
    10   6     0.01   0.10  -0.02    -0.14   0.02  -0.02    -0.18   0.05  -0.03
    11   6     0.11   0.02  -0.02     0.34   0.04  -0.06    -0.26  -0.03   0.05
    12   6    -0.12   0.00  -0.00     0.28   0.02   0.00     0.34   0.03   0.00
    13   6     0.02  -0.02   0.01    -0.00  -0.02   0.00     0.01   0.01   0.00
    14   6    -0.01  -0.02   0.00    -0.00   0.02   0.01    -0.01   0.02   0.01
    15   6     0.01   0.02  -0.01    -0.01   0.02   0.01     0.01  -0.01  -0.01
    16   6    -0.02   0.02  -0.01    -0.00  -0.02  -0.01    -0.01  -0.02  -0.01
    17   6     0.00  -0.00   0.00     0.01  -0.00   0.01     0.01  -0.02  -0.01
    18   6    -0.00   0.01   0.00     0.02   0.00  -0.00     0.00   0.01   0.02
    19   8    -0.00   0.00   0.00    -0.01   0.00  -0.01    -0.01   0.01  -0.00
    20   8    -0.00  -0.00  -0.00    -0.02  -0.00   0.00    -0.00  -0.00  -0.00
    21   1    -0.26   0.22  -0.08    -0.07  -0.13   0.06     0.00   0.15  -0.06
    22   1     0.22   0.28  -0.08    -0.07   0.12  -0.03    -0.03   0.24  -0.06
    23   1    -0.15  -0.19   0.11    -0.10   0.16  -0.03     0.05  -0.17   0.05
    24   1     0.22  -0.21   0.07    -0.09  -0.09   0.01    -0.06  -0.17   0.03
    25   1    -0.43  -0.03   0.07    -0.51  -0.04   0.09     0.34   0.03  -0.06
    26   1     0.47   0.03   0.00    -0.43  -0.01  -0.01    -0.45  -0.00  -0.01
    27   1    -0.01   0.02   0.03    -0.08   0.02  -0.05     0.05  -0.01   0.05
    28   1     0.03   0.03   0.00    -0.03   0.00  -0.00     0.03   0.02   0.00
    29   1     0.01  -0.02   0.07    -0.06  -0.03  -0.01    -0.06  -0.03   0.02
    30   1    -0.09   0.02   0.04     0.03  -0.03  -0.03     0.00  -0.02  -0.01
    31   1     0.05   0.03  -0.02     0.05  -0.02  -0.05    -0.02  -0.00   0.01
    32   1    -0.03  -0.03   0.00    -0.07  -0.03  -0.00     0.04   0.03  -0.02
    33   1    -0.05   0.02  -0.01     0.04   0.03   0.04     0.03   0.01   0.01
    34   1     0.04  -0.03  -0.00    -0.06   0.01   0.02    -0.06   0.02  -0.01
                     79                     80                     81
                      A                      A                      A
 Frequencies --   1631.3510              1639.9691              1821.4465
 Red. masses --      4.9978                 5.3676                11.5117
 Frc consts  --      7.8366                 8.5056                22.5020
 IR Inten    --      1.4596                 9.4837               323.9586
  Atom  AN      X      Y      Z        X      Y      Z        X      Y      Z
     1   6    -0.02   0.08  -0.00    -0.00   0.05  -0.00     0.00   0.00   0.00
     2   6     0.01  -0.04   0.00    -0.02   0.09  -0.00     0.01  -0.00  -0.00
     3   6     0.05  -0.18   0.05     0.01  -0.10   0.02    -0.01   0.02  -0.00
     4   6     0.01   0.10  -0.02     0.01  -0.22   0.03    -0.03  -0.01   0.00
     5   6     0.01  -0.21   0.05     0.02  -0.12   0.02    -0.00   0.00   0.00
     6   6    -0.02   0.10  -0.02     0.03  -0.22   0.03    -0.00   0.00  -0.00
     7   6    -0.16   0.24  -0.06    -0.08   0.12  -0.03     0.01  -0.01   0.01
     8   6    -0.05  -0.13   0.03     0.09   0.27  -0.05     0.01   0.01  -0.01
     9   6     0.06   0.27  -0.09     0.03   0.15  -0.05     0.00   0.00  -0.00
    10   6     0.07  -0.13   0.03    -0.13   0.27  -0.06     0.01  -0.00   0.00
    11   6     0.04  -0.15   0.04     0.01  -0.08   0.02    -0.01   0.00   0.00
    12   6    -0.01   0.08  -0.01     0.03  -0.16   0.03    -0.02  -0.00  -0.00
    13   6    -0.01   0.02  -0.01    -0.00   0.01  -0.00    -0.05   0.02  -0.02
    14   6    -0.01  -0.01   0.00     0.00   0.02  -0.01    -0.04   0.01  -0.04
    15   6     0.01   0.02  -0.01     0.00   0.01  -0.00    -0.00  -0.00  -0.00
    16   6     0.01  -0.01   0.00    -0.01   0.02  -0.01    -0.00   0.00   0.00
    17   6     0.01  -0.01   0.00     0.00   0.01  -0.00     0.66  -0.15   0.37
    18   6    -0.01   0.00   0.00     0.00   0.01   0.00     0.07   0.01  -0.01
    19   8    -0.01   0.00  -0.00    -0.00  -0.00  -0.00    -0.43   0.10  -0.24
    20   8     0.00  -0.00  -0.00    -0.00  -0.00  -0.00    -0.04  -0.00   0.00
    21   1     0.30  -0.34   0.13     0.15  -0.15   0.06    -0.01   0.01  -0.01
    22   1     0.12   0.20  -0.07    -0.23  -0.35   0.12    -0.00  -0.02   0.02
    23   1    -0.18  -0.38   0.20    -0.09  -0.19   0.10     0.00   0.00  -0.00
    24   1    -0.13   0.20  -0.07     0.25  -0.37   0.13     0.00   0.00   0.00
    25   1     0.01  -0.18   0.07     0.01  -0.09   0.03    -0.00   0.00  -0.01
    26   1     0.01   0.09  -0.02    -0.02  -0.18   0.05     0.01  -0.00   0.00
    27   1     0.07  -0.03   0.03     0.05  -0.03   0.02     0.06  -0.06   0.00
    28   1    -0.01  -0.00  -0.00    -0.00   0.00  -0.00     0.10  -0.10   0.01
    29   1     0.04   0.03  -0.01    -0.09  -0.07   0.03     0.19   0.11   0.13
    30   1    -0.04  -0.02   0.00     0.07   0.04  -0.01    -0.12  -0.15  -0.08
    31   1     0.07   0.04  -0.02     0.04   0.03  -0.01    -0.00  -0.01  -0.00
    32   1    -0.07  -0.07   0.03    -0.04  -0.04   0.02     0.02   0.01   0.00
    33   1     0.04  -0.01   0.01    -0.08   0.03  -0.01    -0.01   0.01   0.00
    34   1    -0.04   0.03  -0.01     0.09  -0.06   0.02     0.02  -0.01  -0.01
                     82                     83                     84
                      A                      A                      A
 Frequencies --   1833.8968              3027.0204              3027.3661
 Red. masses --     11.5918                 1.0679                 1.0673
 Frc consts  --     22.9695                 5.7653                 5.7630
 IR Inten    --    279.7121                 3.8468                 7.3227
  Atom  AN      X      Y      Z        X      Y      Z        X      Y      Z
     1   6     0.01  -0.01  -0.00     0.00  -0.00   0.00     0.00  -0.00  -0.00
     2   6     0.01   0.01   0.00     0.00   0.00   0.00    -0.00   0.00   0.00
     3   6     0.00  -0.00   0.00    -0.00   0.00  -0.00     0.00  -0.00  -0.00
     4   6     0.00  -0.00  -0.00    -0.00  -0.00   0.00    -0.00   0.00  -0.00
     5   6    -0.03  -0.02   0.01    -0.00  -0.00   0.00    -0.00   0.00  -0.00
     6   6    -0.03   0.01  -0.00     0.00   0.00  -0.00     0.00   0.00  -0.00
     7   6     0.01  -0.00  -0.00     0.00  -0.00  -0.00    -0.00   0.00   0.00
     8   6     0.00   0.00  -0.00     0.00   0.00   0.00    -0.00  -0.00  -0.00
     9   6     0.01   0.02  -0.01     0.00   0.00   0.00     0.00  -0.00   0.00
    10   6     0.01  -0.02   0.01     0.00  -0.00  -0.00     0.00  -0.00  -0.00
    11   6    -0.01  -0.00   0.00    -0.00  -0.00   0.00     0.00   0.00  -0.00
    12   6    -0.01   0.00  -0.00    -0.00   0.00   0.00     0.00   0.00   0.00
    13   6     0.00  -0.00   0.00     0.00   0.00   0.00    -0.00  -0.00   0.00
    14   6     0.00  -0.00   0.00     0.00  -0.01   0.02    -0.00   0.02  -0.07
    15   6    -0.04  -0.01  -0.01     0.00  -0.00   0.00     0.00  -0.00   0.00
    16   6    -0.04  -0.00   0.01     0.00   0.03  -0.06     0.00   0.01  -0.02
    17   6    -0.06   0.01  -0.03     0.00  -0.00   0.00    -0.00   0.00  -0.00
    18   6     0.77   0.06  -0.07     0.00   0.00  -0.00     0.00   0.00  -0.00
    19   8     0.04  -0.01   0.02    -0.00   0.00  -0.00     0.00  -0.00   0.00
    20   8    -0.50  -0.04   0.05    -0.00  -0.00   0.00    -0.00  -0.00  -0.00
    21   1     0.01  -0.00   0.00     0.00   0.00   0.00     0.00   0.00  -0.00
    22   1     0.00   0.00  -0.00    -0.00   0.00   0.00     0.01  -0.00  -0.00
    23   1    -0.00  -0.02   0.01    -0.00   0.00   0.00    -0.00   0.00   0.00
    24   1    -0.01   0.02  -0.01    -0.00  -0.00  -0.00    -0.00  -0.00  -0.00
    25   1     0.01  -0.00   0.00     0.00  -0.00   0.00     0.00  -0.00   0.00
    26   1     0.01   0.00  -0.00    -0.00  -0.00   0.00     0.00  -0.00   0.00
    27   1    -0.01   0.00   0.00    -0.00  -0.01   0.00     0.01   0.01  -0.01
    28   1    -0.01   0.01  -0.00     0.00  -0.00  -0.00    -0.00   0.00   0.01
    29   1    -0.02  -0.01  -0.01     0.06  -0.07  -0.02    -0.18   0.20   0.05
    30   1     0.01   0.01   0.01    -0.07   0.16  -0.26     0.21  -0.46   0.75
    31   1    -0.05  -0.07  -0.02    -0.02   0.03  -0.04    -0.01   0.01  -0.02
    32   1     0.19   0.12   0.06     0.01  -0.01  -0.01     0.00  -0.00  -0.00
    33   1    -0.06   0.07   0.03    -0.18  -0.55   0.70    -0.06  -0.19   0.24
    34   1     0.20  -0.09  -0.09     0.14   0.20   0.07     0.05   0.07   0.02
                     85                     86                     87
                      A                      A                      A
 Frequencies --   3032.3976              3033.8779              3074.0435
 Red. masses --      1.0675                 1.0643                 1.0966
 Frc consts  --      5.7835                 5.7719                 6.1055
 IR Inten    --      4.6955                 6.8231                 5.1594
  Atom  AN      X      Y      Z        X      Y      Z        X      Y      Z
     1   6    -0.00   0.00   0.00     0.00   0.00   0.00     0.00   0.00  -0.00
     2   6     0.00  -0.00   0.00    -0.00  -0.00   0.00     0.00   0.00  -0.00
     3   6     0.00   0.00  -0.00    -0.00  -0.00  -0.00     0.00  -0.00   0.00
     4   6    -0.00   0.00  -0.00     0.00   0.00  -0.00    -0.00   0.00   0.00
     5   6    -0.00   0.00  -0.00    -0.00   0.00  -0.00     0.00  -0.00   0.00
     6   6     0.00   0.00  -0.00     0.00  -0.00  -0.00     0.00  -0.00  -0.00
     7   6    -0.00  -0.00  -0.00     0.00   0.00   0.00     0.00   0.00  -0.00
     8   6    -0.00  -0.00   0.00    -0.00  -0.00   0.00     0.00   0.00  -0.00
     9   6    -0.00  -0.00   0.00    -0.00   0.00  -0.00     0.00   0.00  -0.00
    10   6    -0.00   0.00   0.00    -0.00   0.00  -0.00    -0.00  -0.00   0.00
    11   6     0.00   0.00  -0.00    -0.00   0.00  -0.00    -0.00  -0.00  -0.00
    12   6     0.00   0.00  -0.00     0.00  -0.00   0.00    -0.00  -0.00  -0.00
    13   6     0.00   0.00   0.00    -0.02  -0.04  -0.06    -0.05  -0.05   0.06
    14   6    -0.00   0.00  -0.00     0.00  -0.00   0.00     0.00  -0.00   0.00
    15   6    -0.02   0.03  -0.07    -0.00   0.00  -0.00    -0.00   0.00   0.00
    16   6    -0.00   0.00  -0.00    -0.00   0.00  -0.00    -0.00  -0.00   0.00
    17   6     0.00   0.00   0.00    -0.00   0.00  -0.00    -0.00  -0.00   0.00
    18   6    -0.00   0.00  -0.00    -0.00   0.00  -0.00     0.00   0.00   0.00
    19   8     0.00  -0.00  -0.00    -0.00   0.00   0.00     0.00   0.00  -0.00
    20   8     0.00  -0.00  -0.00     0.00  -0.00  -0.00    -0.00  -0.00  -0.00
    21   1     0.00   0.00  -0.00    -0.01  -0.01   0.00    -0.03  -0.02   0.01
    22   1    -0.00   0.00   0.00    -0.00   0.00  -0.00    -0.00   0.00   0.00
    23   1     0.00  -0.00  -0.00     0.00  -0.00  -0.00     0.00   0.00   0.00
    24   1     0.00   0.00  -0.00     0.00   0.00   0.00     0.00   0.00   0.00
    25   1     0.00  -0.00   0.00    -0.00   0.00  -0.00    -0.00   0.00  -0.00
    26   1     0.00  -0.00   0.00    -0.00   0.00  -0.00     0.00  -0.00   0.00
    27   1    -0.02  -0.02   0.01     0.29   0.34  -0.18     0.53   0.64  -0.29
    28   1     0.00  -0.01  -0.06    -0.05   0.11   0.86     0.02  -0.08  -0.47
    29   1    -0.00   0.00   0.00    -0.00   0.00   0.00     0.00  -0.00  -0.00
    30   1     0.00  -0.00   0.00    -0.00   0.01  -0.01    -0.00   0.01  -0.01
    31   1     0.39  -0.52   0.70     0.03  -0.03   0.05     0.00  -0.00   0.00
    32   1    -0.17   0.20   0.11    -0.01   0.01   0.01     0.00  -0.00  -0.00
    33   1    -0.01  -0.04   0.05    -0.00  -0.00   0.00     0.00   0.00  -0.00
    34   1     0.01   0.02   0.01     0.00   0.00   0.00     0.00   0.00   0.00
                     88                     89                     90
                      A                      A                      A
 Frequencies --   3125.1250              3127.5648              3133.1126
 Red. masses --      1.0951                 1.0944                 1.0963
 Frc consts  --      6.3016                 6.3074                 6.3406
 IR Inten    --      8.1102                 8.3818                 8.9253
  Atom  AN      X      Y      Z        X      Y      Z        X      Y      Z
     1   6    -0.00  -0.00  -0.00     0.00   0.00   0.00    -0.00   0.00   0.00
     2   6     0.00   0.00   0.00     0.00  -0.00  -0.00    -0.00  -0.00  -0.00
     3   6    -0.00  -0.00   0.00     0.00  -0.00   0.00    -0.00   0.00   0.00
     4   6     0.00  -0.00   0.00     0.00  -0.00   0.00    -0.00  -0.00   0.00
     5   6    -0.00  -0.00   0.00     0.00   0.00  -0.00     0.00  -0.00   0.00
     6   6    -0.00   0.00   0.00     0.00  -0.00   0.00    -0.00  -0.00   0.00
     7   6    -0.00   0.00  -0.00    -0.00  -0.00   0.00     0.00  -0.00   0.00
     8   6     0.00   0.00  -0.00     0.00   0.00  -0.00    -0.01   0.00   0.00
     9   6    -0.00   0.00   0.00     0.00  -0.00  -0.00     0.00  -0.00  -0.00
    10   6     0.00   0.00   0.00     0.00   0.00   0.00     0.00   0.00  -0.00
    11   6     0.00  -0.00   0.00    -0.00  -0.00   0.00    -0.00  -0.00   0.00
    12   6    -0.00  -0.00   0.00    -0.00  -0.00   0.00     0.00  -0.00   0.00
    13   6    -0.00  -0.00   0.00     0.00   0.00  -0.00     0.00   0.00   0.00
    14   6    -0.00   0.00   0.00    -0.00   0.00  -0.00     0.06  -0.07  -0.00
    15   6     0.06  -0.07  -0.02    -0.01   0.01   0.00    -0.00   0.00   0.00
    16   6    -0.01  -0.01  -0.00    -0.05  -0.07  -0.01    -0.00  -0.00  -0.00
    17   6    -0.00  -0.00  -0.00    -0.00  -0.00  -0.00     0.00  -0.00   0.00
    18   6     0.00  -0.00   0.00    -0.00  -0.00   0.00    -0.00  -0.00   0.00
    19   8     0.00   0.00   0.00    -0.00   0.00  -0.00    -0.00   0.00  -0.00
    20   8    -0.00   0.00   0.00     0.00   0.00  -0.00     0.00   0.00   0.00
    21   1    -0.00  -0.00  -0.00     0.00   0.00  -0.00    -0.00  -0.00   0.00
    22   1    -0.00   0.00  -0.00    -0.00   0.00  -0.00     0.06  -0.03  -0.00
    23   1     0.05  -0.02  -0.01    -0.01   0.00   0.00    -0.00   0.00   0.00
    24   1    -0.01  -0.00  -0.00    -0.05  -0.03  -0.00    -0.00  -0.00  -0.00
    25   1    -0.00   0.01  -0.00    -0.00  -0.00   0.00    -0.00   0.00  -0.00
    26   1    -0.00   0.00  -0.00    -0.00   0.01  -0.00    -0.00   0.01  -0.00
    27   1     0.00   0.00  -0.00    -0.00  -0.00   0.00    -0.00  -0.00   0.00
    28   1    -0.00  -0.00  -0.00    -0.00   0.00  -0.00     0.00  -0.00  -0.00
    29   1     0.00  -0.00  -0.00     0.01  -0.01  -0.00    -0.61   0.70   0.21
    30   1    -0.00   0.00  -0.00     0.00  -0.00   0.00    -0.05   0.13  -0.23
    31   1    -0.10   0.14  -0.21     0.01  -0.01   0.02    -0.00   0.00  -0.00
    32   1    -0.56   0.66   0.39     0.07  -0.08  -0.05     0.00  -0.00  -0.00
    33   1     0.01   0.02  -0.03     0.04   0.14  -0.20     0.00   0.00  -0.00
    34   1     0.06   0.09   0.04     0.52   0.74   0.32     0.01   0.01   0.01
                     91                     92                     93
                      A                      A                      A
 Frequencies --   3176.3070              3181.8841              3183.9865
 Red. masses --      1.0869                 1.0866                 1.0899
 Frc consts  --      6.4609                 6.4818                 6.5097
 IR Inten    --      6.1264                 2.1401                12.2753
  Atom  AN      X      Y      Z        X      Y      Z        X      Y      Z
     1   6     0.00   0.00  -0.00    -0.00   0.00   0.00     0.00   0.00  -0.00
     2   6    -0.00   0.00   0.00     0.00   0.00  -0.00    -0.00  -0.00  -0.00
     3   6    -0.00   0.00  -0.00     0.00  -0.00   0.00    -0.00   0.00  -0.00
     4   6    -0.00  -0.00   0.00     0.00   0.00  -0.00     0.00   0.00  -0.00
     5   6     0.00   0.00  -0.00    -0.00   0.00   0.00    -0.00  -0.00   0.00
     6   6     0.00   0.00  -0.00    -0.00   0.00  -0.00    -0.00  -0.00  -0.00
     7   6    -0.06  -0.05   0.01     0.00   0.00  -0.00    -0.03  -0.02   0.00
     8   6     0.00  -0.00  -0.00     0.03  -0.02  -0.00     0.00  -0.00  -0.00
     9   6     0.02  -0.01  -0.00     0.00  -0.00  -0.00    -0.07   0.03   0.01
    10   6    -0.00  -0.00  -0.00    -0.06  -0.04  -0.00    -0.00  -0.00  -0.00
    11   6    -0.00   0.03  -0.01    -0.00  -0.00   0.00     0.01  -0.02   0.00
    12   6    -0.00   0.00  -0.00    -0.00   0.04  -0.01     0.00   0.00  -0.00
    13   6    -0.00  -0.00   0.00     0.00   0.00  -0.00    -0.00  -0.00   0.00
    14   6     0.00  -0.00   0.00     0.00  -0.00  -0.00     0.00  -0.00   0.00
    15   6     0.00  -0.00  -0.00     0.00  -0.00   0.00    -0.00   0.00   0.00
    16   6    -0.00  -0.00   0.00    -0.00  -0.00  -0.00    -0.00  -0.00  -0.00
    17   6     0.00  -0.00  -0.00     0.00  -0.00   0.00     0.00   0.00   0.00
    18   6     0.00  -0.00  -0.00    -0.00  -0.00   0.00    -0.00   0.00  -0.00
    19   8    -0.00  -0.00   0.00    -0.00   0.00  -0.00    -0.00  -0.00  -0.00
    20   8    -0.00   0.00   0.00     0.00   0.00  -0.00     0.00  -0.00   0.00
    21   1     0.69   0.52  -0.11    -0.02  -0.02   0.00     0.31   0.23  -0.05
    22   1    -0.01   0.01   0.00    -0.33   0.17   0.01    -0.00   0.00   0.00
    23   1    -0.26   0.12   0.04    -0.01   0.00   0.00     0.80  -0.36  -0.13
    24   1     0.01   0.01   0.00     0.67   0.42   0.04     0.01   0.01   0.00
    25   1     0.05  -0.36   0.10    -0.00   0.01  -0.00    -0.04   0.22  -0.06
    26   1     0.00  -0.01   0.00     0.02  -0.46   0.08     0.00  -0.01   0.00
    27   1     0.02   0.02  -0.01    -0.00  -0.00   0.00     0.01   0.01  -0.00
    28   1     0.00  -0.00  -0.00    -0.00   0.00  -0.00     0.00  -0.00  -0.00
    29   1    -0.00   0.00   0.00    -0.02   0.02   0.01    -0.00   0.00   0.00
    30   1    -0.00   0.00  -0.00    -0.00   0.00  -0.00    -0.00   0.00  -0.00
    31   1    -0.00   0.00  -0.00    -0.00   0.00  -0.00     0.00  -0.01   0.01
    32   1    -0.01   0.01   0.01     0.00   0.00   0.00     0.03  -0.03  -0.02
    33   1     0.00   0.00  -0.00     0.00   0.01  -0.01    -0.00  -0.00   0.00
    34   1     0.00   0.00   0.00     0.03   0.04   0.02     0.00   0.00   0.00
                     94                     95                     96
                      A                      A                      A
 Frequencies --   3189.4183              3207.7664              3209.2934
 Red. masses --      1.0904                 1.0970                 1.0974
 Frc consts  --      6.5349                 6.6507                 6.6595
 IR Inten    --     11.1053                21.9971                18.1102
  Atom  AN      X      Y      Z        X      Y      Z        X      Y      Z
     1   6    -0.00  -0.00  -0.00    -0.00   0.00  -0.00     0.00   0.00   0.00
     2   6     0.00  -0.00  -0.00    -0.00   0.00  -0.00    -0.00   0.00  -0.00
     3   6     0.00  -0.00  -0.00    -0.00   0.00  -0.00     0.00  -0.00   0.00
     4   6    -0.00  -0.00   0.00     0.00   0.00  -0.00     0.00   0.00  -0.00
     5   6     0.00   0.00  -0.00     0.00   0.00  -0.00     0.00  -0.00   0.00
     6   6    -0.00   0.00  -0.00    -0.00   0.00  -0.00    -0.00   0.00  -0.00
     7   6    -0.00  -0.00   0.00    -0.02  -0.01   0.00     0.00   0.00  -0.00
     8   6    -0.06   0.03   0.00     0.00  -0.00  -0.00     0.03  -0.01  -0.00
     9   6     0.00  -0.00  -0.00     0.03  -0.01  -0.01    -0.00   0.00   0.00
    10   6    -0.04  -0.02  -0.00    -0.00  -0.00  -0.00    -0.03  -0.01  -0.00
    11   6    -0.00   0.00  -0.00     0.01  -0.08   0.02    -0.00   0.00  -0.00
    12   6     0.00  -0.02   0.00     0.00  -0.00   0.00     0.00  -0.08   0.01
    13   6    -0.00  -0.00  -0.00    -0.00  -0.00   0.00     0.00   0.00  -0.00
    14   6    -0.00   0.00   0.00    -0.00   0.00  -0.00     0.00  -0.00  -0.00
    15   6     0.00   0.00  -0.00     0.00  -0.00  -0.00    -0.00   0.00   0.00
    16   6    -0.00  -0.00  -0.00     0.00   0.00  -0.00    -0.00  -0.00  -0.00
    17   6    -0.00   0.00  -0.00     0.00   0.00   0.00     0.00   0.00   0.00
    18   6    -0.00  -0.00   0.00     0.00   0.00   0.00    -0.00   0.00   0.00
    19   8     0.00  -0.00   0.00     0.00  -0.00   0.00    -0.00   0.00  -0.00
    20   8     0.00   0.00  -0.00    -0.00  -0.00  -0.00     0.00   0.00  -0.00
    21   1     0.00   0.00  -0.00     0.22   0.16  -0.03    -0.01  -0.01   0.00
    22   1     0.74  -0.38  -0.02    -0.01   0.01   0.00    -0.35   0.18   0.01
    23   1    -0.00   0.00   0.00    -0.31   0.14   0.05     0.01  -0.01  -0.00
    24   1     0.43   0.27   0.02     0.01   0.01   0.00     0.27   0.16   0.02
    25   1     0.00  -0.00   0.00    -0.13   0.85  -0.22     0.01  -0.04   0.01
    26   1    -0.01   0.20  -0.03    -0.00   0.04  -0.01    -0.03   0.84  -0.14
    27   1     0.00   0.00  -0.00     0.00   0.00  -0.00    -0.00  -0.00   0.00
    28   1     0.00  -0.00   0.00     0.00  -0.00   0.00    -0.00  -0.00  -0.00
    29   1     0.04  -0.04  -0.01     0.00  -0.00  -0.00    -0.01   0.01   0.00
    30   1     0.00  -0.01   0.01    -0.00   0.00   0.00    -0.00   0.00  -0.00
    31   1    -0.00  -0.00   0.00    -0.00   0.00  -0.00     0.00  -0.00   0.00
    32   1    -0.00   0.00   0.00    -0.01   0.01   0.01     0.00  -0.00  -0.00
    33   1     0.00   0.00  -0.00     0.00  -0.00   0.00     0.00   0.00  -0.00
    34   1     0.02   0.02   0.01    -0.00  -0.00  -0.00     0.01   0.01   0.00

 -------------------
 - Thermochemistry -
 -------------------
 Temperature   298.150 Kelvin.  Pressure   1.00000 Atm.
 Atom     1 has atomic number  6 and mass  12.00000
 Atom     2 has atomic number  6 and mass  12.00000
 Atom     3 has atomic number  6 and mass  12.00000
 Atom     4 has atomic number  6 and mass  12.00000
 Atom     5 has atomic number  6 and mass  12.00000
 Atom     6 has atomic number  6 and mass  12.00000
 Atom     7 has atomic number  6 and mass  12.00000
 Atom     8 has atomic number  6 and mass  12.00000
 Atom     9 has atomic number  6 and mass  12.00000
 Atom    10 has atomic number  6 and mass  12.00000
 Atom    11 has atomic number  6 and mass  12.00000
 Atom    12 has atomic number  6 and mass  12.00000
 Atom    13 has atomic number  6 and mass  12.00000
 Atom    14 has atomic number  6 and mass  12.00000
 Atom    15 has atomic number  6 and mass  12.00000
 Atom    16 has atomic number  6 and mass  12.00000
 Atom    17 has atomic number  6 and mass  12.00000
 Atom    18 has atomic number  6 and mass  12.00000
 Atom    19 has atomic number  8 and mass  15.99491
 Atom    20 has atomic number  8 and mass  15.99491
 Atom    21 has atomic number  1 and mass   1.00783
 Atom    22 has atomic number  1 and mass   1.00783
 Atom    23 has atomic number  1 and mass   1.00783
 Atom    24 has atomic number  1 and mass   1.00783
 Atom    25 has atomic number  1 and mass   1.00783
 Atom    26 has atomic number  1 and mass   1.00783
 Atom    27 has atomic number  1 and mass   1.00783
 Atom    28 has atomic number  1 and mass   1.00783
 Atom    29 has atomic number  1 and mass   1.00783
 Atom    30 has atomic number  1 and mass   1.00783
 Atom    31 has atomic number  1 and mass   1.00783
 Atom    32 has atomic number  1 and mass   1.00783
 Atom    33 has atomic number  1 and mass   1.00783
 Atom    34 has atomic number  1 and mass   1.00783
 Molecular mass:   262.09938 amu.
 Principal axes and moments of inertia in atomic units:
                           1         2         3
     Eigenvalues --  3746.784755166.361558443.62101
           X            0.99999   0.00141  -0.00370
           Y           -0.00140   0.99999   0.00324
           Z            0.00371  -0.00324   0.99999
 This molecule is an asymmetric top.
 Rotational symmetry number  1.
 Warning -- assumption of classical behavior for rotation
           may cause significant error
 Rotational temperatures (Kelvin)      0.02312     0.01676     0.01026
 Rotational constants (GHZ):           0.48168     0.34933     0.21374
    1 imaginary frequencies ignored.
 Zero-point vibrational energy     712480.8 (Joules/Mol)
                                  170.28699 (Kcal/Mol)
 Warning -- explicit consideration of  24 degrees of freedom as
           vibrations may cause significant error
 Vibrational temperatures:     64.15    93.24   121.01   243.69   250.47
          (Kelvin)            284.31   298.14   373.27   407.01   488.80
                              511.69   538.98   569.25   585.89   637.30
                              685.73   687.92   707.29   715.44   737.61
                              757.30   825.44   849.13   892.06   943.01
                              962.32  1002.79  1049.19  1090.79  1117.68
                             1132.18  1137.31  1161.67  1209.58  1243.54
                             1276.80  1293.45  1298.80  1329.95  1385.96
                             1393.69  1398.48  1401.12  1415.71  1449.92
                             1458.49  1613.38  1634.52  1646.65  1662.78
                             1686.77  1712.24  1718.05  1755.77  1773.72
                             1780.09  1787.13  1806.45  1815.34  1839.08
                             1858.26  1867.32  1886.93  1892.41  1896.98
                             1926.03  1945.59  2062.82  2095.38  2104.53
                             2105.40  2118.42  2121.76  2136.06  2160.41
                             2293.22  2320.03  2347.15  2359.55  2620.66
                             2638.57  4355.21  4355.70  4362.94  4365.07
                             4422.86  4496.36  4499.87  4507.85  4570.00
                             4578.02  4581.05  4588.86  4615.26  4617.46
 
 Zero-point correction=                           0.271370 (Hartree/Particle)
 Thermal correction to Energy=                    0.285535
 Thermal correction to Enthalpy=                  0.286479
 Thermal correction to Gibbs Free Energy=         0.230484
 Sum of electronic and zero-point Energies=           -844.517441
 Sum of electronic and thermal Energies=              -844.503276
 Sum of electronic and thermal Enthalpies=            -844.502332
 Sum of electronic and thermal Free Energies=         -844.558327
 
                     E (Thermal)             CV                S
                      KCal/Mol        Cal/Mol-Kelvin    Cal/Mol-Kelvin
 Total                  179.176             59.879            117.851
 Electronic               0.000              0.000              0.000
 Translational            0.889              2.981             42.590
 Rotational               0.889              2.981             33.457
 Vibrational            177.398             53.917             41.803
 Vibration     1          0.595              1.980              5.044
 Vibration     2          0.597              1.971              4.305
 Vibration     3          0.601              1.960              3.793
 Vibration     4          0.625              1.880              2.442
 Vibration     5          0.627              1.874              2.391
 Vibration     6          0.637              1.843              2.155
 Vibration     7          0.641              1.830              2.068
 Vibration     8          0.668              1.747              1.666
 Vibration     9          0.682              1.705              1.516
 Vibration    10          0.720              1.596              1.213
 Vibration    11          0.731              1.564              1.141
 Vibration    12          0.746              1.524              1.061
 Vibration    13          0.762              1.479              0.979
 Vibration    14          0.772              1.455              0.937
 Vibration    15          0.803              1.376              0.817
 Vibration    16          0.833              1.302              0.719
 Vibration    17          0.835              1.299              0.715
 Vibration    18          0.847              1.269              0.679
 Vibration    19          0.853              1.256              0.665
 Vibration    20          0.868              1.222              0.627
 Vibration    21          0.881              1.192              0.595
 Vibration    22          0.930              1.088              0.497
 Vibration    23          0.948              1.053              0.467
 Vibration    24          0.980              0.990              0.416
                       Q            Log10(Q)             Ln(Q)
 Total Bot       0.965454-106       -106.015268       -244.109177
 Total V=0       0.639693D+19         18.805972         43.302351
 Vib (Bot)       0.126487-120       -120.897953       -278.377824
 Vib (Bot)    1  0.463861D+01          0.666388          1.534415
 Vib (Bot)    2  0.318474D+01          0.503074          1.158371
 Vib (Bot)    3  0.244710D+01          0.388651          0.894902
 Vib (Bot)    4  0.119007D+01          0.075574          0.174015
 Vib (Bot)    5  0.115609D+01          0.062991          0.145041
 Vib (Bot)    6  0.100999D+01          0.004317          0.009939
 Vib (Bot)    7  0.959559D+00         -0.017928         -0.041282
 Vib (Bot)    8  0.748883D+00         -0.125586         -0.289172
 Vib (Bot)    9  0.678606D+00         -0.168382         -0.387715
 Vib (Bot)   10  0.546658D+00         -0.262284         -0.603932
 Vib (Bot)   11  0.516862D+00         -0.286625         -0.659979
 Vib (Bot)   12  0.484466D+00         -0.314737         -0.724709
 Vib (Bot)   13  0.451920D+00         -0.344938         -0.794250
 Vib (Bot)   14  0.435377D+00         -0.361134         -0.831543
 Vib (Bot)   15  0.389355D+00         -0.409654         -0.943264
 Vib (Bot)   16  0.351930D+00         -0.453544         -1.044323
 Vib (Bot)   17  0.350354D+00         -0.455493         -1.048812
 Vib (Bot)   18  0.336817D+00         -0.472606         -1.088215
 Vib (Bot)   19  0.331323D+00         -0.479748         -1.104661
 Vib (Bot)   20  0.316967D+00         -0.498985         -1.148956
 Vib (Bot)   21  0.304879D+00         -0.515872         -1.187840
 Vib (Bot)   22  0.267278D+00         -0.573036         -1.319465
 Vib (Bot)   23  0.255562D+00         -0.592503         -1.364288
 Vib (Bot)   24  0.235862D+00         -0.627342         -1.444509
 Vib (V=0)       0.838084D+04          3.923287          9.033703
 Vib (V=0)    1  0.516548D+01          0.713111          1.641998
 Vib (V=0)    2  0.372375D+01          0.570981          1.314732
 Vib (V=0)    3  0.299766D+01          0.476782          1.097830
 Vib (V=0)    4  0.179084D+01          0.253057          0.582686
 Vib (V=0)    5  0.175958D+01          0.245409          0.565074
 Vib (V=0)    6  0.162698D+01          0.211381          0.486724
 Vib (V=0)    7  0.158201D+01          0.199210          0.458698
 Vib (V=0)    8  0.140046D+01          0.146270          0.336800
 Vib (V=0)    9  0.134292D+01          0.128049          0.294843
 Vib (V=0)   10  0.124083D+01          0.093714          0.215784
 Vib (V=0)   11  0.121913D+01          0.086050          0.198137
 Vib (V=0)   12  0.119621D+01          0.077807          0.179157
 Vib (V=0)   13  0.117397D+01          0.069656          0.160389
 Vib (V=0)   14  0.116299D+01          0.065575          0.150993
 Vib (V=0)   15  0.113372D+01          0.054505          0.125502
 Vib (V=0)   16  0.111144D+01          0.045885          0.105653
 Vib (V=0)   17  0.111053D+01          0.045531          0.104838
 Vib (V=0)   18  0.110286D+01          0.042522          0.097911
 Vib (V=0)   19  0.109981D+01          0.041319          0.095140
 Vib (V=0)   20  0.109200D+01          0.038224          0.088014
 Vib (V=0)   21  0.108562D+01          0.035678          0.082152
 Vib (V=0)   22  0.106695D+01          0.028146          0.064809
 Vib (V=0)   23  0.106153D+01          0.025931          0.059708
 Vib (V=0)   24  0.105284D+01          0.022362          0.051490
 Electronic      0.100000D+01          0.000000          0.000000
 Translational   0.166783D+09          8.222153         18.932207
 Rotational      0.457648D+07          6.660532         15.336441
 ***** Axes restored to original set *****
 -------------------------------------------------------------------
 Center     Atomic                   Forces (Hartrees/Bohr)
 Number     Number              X              Y              Z
 -------------------------------------------------------------------
      1        6          -0.000000027    0.000000159    0.000000057
      2        6           0.000000424    0.000000043   -0.000000020
      3        6          -0.000000523    0.000000404   -0.000000458
      4        6           0.000000018   -0.000000239    0.000000502
      5        6          -0.000000332    0.000000526   -0.000000284
      6        6          -0.000000280   -0.000000587    0.000000168
      7        6           0.000001431   -0.000000007   -0.000000429
      8        6          -0.000000795   -0.000000258    0.000000593
      9        6           0.000000179   -0.000000145   -0.000000506
     10        6          -0.000000615   -0.000000042    0.000000282
     11        6          -0.000000989   -0.000000129   -0.000000399
     12        6           0.000000651    0.000000545    0.000000473
     13        6           0.000000744   -0.000000144   -0.000000610
     14        6           0.000000065   -0.000000355    0.000000489
     15        6           0.000000632    0.000000428   -0.000000262
     16        6           0.000000040    0.000000688    0.000000166
     17        6          -0.000000854   -0.000000052   -0.000000018
     18        6          -0.000000507   -0.000000774   -0.000000491
     19        8           0.000000573    0.000000261    0.000000522
     20        8           0.000000201    0.000000117   -0.000000160
     21        1          -0.000000702   -0.000000616   -0.000000384
     22        1           0.000000303   -0.000000033    0.000000550
     23        1           0.000000210   -0.000000050   -0.000000612
     24        1           0.000000598    0.000000322    0.000000536
     25        1           0.000000001   -0.000000176   -0.000000702
     26        1           0.000000046   -0.000000079    0.000000749
     27        1          -0.000000144    0.000000024   -0.000000192
     28        1          -0.000000107    0.000000264    0.000000329
     29        1          -0.000000048    0.000000086    0.000000339
     30        1           0.000000035   -0.000000067   -0.000000263
     31        1          -0.000000075    0.000000293   -0.000000085
     32        1          -0.000000179    0.000000297   -0.000000261
     33        1          -0.000000028   -0.000000559    0.000000188
     34        1           0.000000054   -0.000000144    0.000000192
 -------------------------------------------------------------------
 Cartesian Forces:  Max     0.000001431 RMS     0.000000421
 FormGI is forming the generalized inverse of G from B-inverse, IUseBI=4.
 Leave Link  716 at Tue May 20 08:45:41 2025, MaxMem=   104857600 cpu:              27.2 elap:               1.3
 (Enter /opt/linux/rocky/8/software/gaussian/16c01_avx2/g16/l103.exe)

 GradGradGradGradGradGradGradGradGradGradGradGradGradGradGradGradGradGrad
 Berny optimization.
 Red2BG is reusing G-inverse.
 Internal  Forces:  Max     0.000000892 RMS     0.000000161
 Search for a saddle point.
 Step number   1 out of a maximum of    2
 All quantities printed in internal units (Hartrees-Bohrs-Radians)
 Swapping is turned off.
 Second derivative matrix not updated -- analytic derivatives used.
 ITU=  0
     Eigenvalues ---   -0.00072   0.00136   0.00351   0.00804   0.01080
     Eigenvalues ---    0.01195   0.01352   0.01687   0.01710   0.01819
     Eigenvalues ---    0.01872   0.01903   0.01961   0.01977   0.02198
     Eigenvalues ---    0.02232   0.02302   0.02415   0.02433   0.02479
     Eigenvalues ---    0.02711   0.02758   0.03067   0.03140   0.04171
     Eigenvalues ---    0.04256   0.04387   0.04874   0.05386   0.05454
     Eigenvalues ---    0.05957   0.07693   0.07955   0.08078   0.08241
     Eigenvalues ---    0.08591   0.08970   0.10265   0.11058   0.11195
     Eigenvalues ---    0.11231   0.12376   0.12404   0.12636   0.12688
     Eigenvalues ---    0.13039   0.14378   0.15716   0.17079   0.18121
     Eigenvalues ---    0.18231   0.18508   0.18789   0.18969   0.19170
     Eigenvalues ---    0.19334   0.19719   0.20951   0.21483   0.22357
     Eigenvalues ---    0.23414   0.24772   0.25876   0.27109   0.27438
     Eigenvalues ---    0.27990   0.28761   0.29233   0.29734   0.30943
     Eigenvalues ---    0.32377   0.32742   0.32875   0.33149   0.33559
     Eigenvalues ---    0.33635   0.34517   0.34627   0.34676   0.34706
     Eigenvalues ---    0.35903   0.35973   0.36053   0.36191   0.36285
     Eigenvalues ---    0.36301   0.38900   0.39995   0.45585   0.46173
     Eigenvalues ---    0.46810   0.47046   0.49817   0.50230   0.86797
     Eigenvalues ---    0.87676
 Eigenvectors required to have negative eigenvalues:
                          D79       D81       D77       D80       D82
   1                   -0.29956  -0.29806  -0.28764  -0.27486  -0.27336
                          D78       D30       D29       D27       D26
   1                   -0.26294   0.24436   0.24430   0.24176   0.24170
 Angle between quadratic step and forces=  45.34 degrees.
 Linear search not attempted -- option 19 set.
 Iteration  1 RMS(Cart)=  0.00000078 RMS(Int)=  0.00000000
 ITry= 1 IFail=0 DXMaxC= 3.53D-06 DCOld= 1.00D+10 DXMaxT= 3.00D-01 DXLimC= 3.00D+00 Rises=F
 Variable       Old X    -DE/DX   Delta X   Delta X   Delta X     New X
                                 (Linear)    (Quad)   (Total)
    R1        2.81625   0.00000   0.00000   0.00000   0.00000   2.81625
    R2        2.71982  -0.00000   0.00000  -0.00000  -0.00000   2.71982
    R3        2.71316   0.00000   0.00000   0.00000   0.00000   2.71316
    R4        2.70349  -0.00000   0.00000  -0.00000  -0.00000   2.70349
    R5        2.71511   0.00000   0.00000   0.00000   0.00000   2.71511
    R6        2.64801  -0.00000   0.00000  -0.00000  -0.00000   2.64801
    R7        2.87577   0.00000   0.00000   0.00000   0.00000   2.87577
    R8        2.64258  -0.00000   0.00000   0.00000   0.00000   2.64258
    R9        2.86729  -0.00000   0.00000  -0.00000  -0.00000   2.86729
   R10        2.64291  -0.00000   0.00000  -0.00000  -0.00000   2.64291
   R11        2.86979  -0.00000   0.00000  -0.00000  -0.00000   2.86979
   R12        2.64382  -0.00000   0.00000  -0.00000  -0.00000   2.64382
   R13        2.86969   0.00000   0.00000   0.00000   0.00000   2.86969
   R14        2.62648   0.00000   0.00000   0.00000   0.00000   2.62648
   R15        2.05355  -0.00000   0.00000  -0.00000  -0.00000   2.05355
   R16        2.62532  -0.00000   0.00000  -0.00000  -0.00000   2.62532
   R17        2.05206   0.00000   0.00000   0.00000   0.00000   2.05206
   R18        2.62394  -0.00000   0.00000  -0.00000  -0.00000   2.62393
   R19        2.05299  -0.00000   0.00000  -0.00000  -0.00000   2.05299
   R20        2.62471   0.00000   0.00000   0.00000   0.00000   2.62471
   R21        2.05284  -0.00000   0.00000  -0.00000  -0.00000   2.05283
   R22        2.05103  -0.00000   0.00000  -0.00000  -0.00000   2.05103
   R23        2.05101   0.00000   0.00000   0.00000   0.00000   2.05101
   R24        2.85868  -0.00000   0.00000  -0.00000  -0.00000   2.85868
   R25        2.07262  -0.00000   0.00000  -0.00000  -0.00000   2.07262
   R26        2.07633   0.00000   0.00000   0.00000   0.00000   2.07633
   R27        2.84180   0.00000   0.00000  -0.00000  -0.00000   2.84180
   R28        2.06178  -0.00000   0.00000  -0.00000  -0.00000   2.06178
   R29        2.07681   0.00000   0.00000   0.00000   0.00000   2.07681
   R30        2.85933   0.00000   0.00000   0.00000   0.00000   2.85933
   R31        2.07728  -0.00000   0.00000  -0.00000  -0.00000   2.07728
   R32        2.06359   0.00000   0.00000   0.00000   0.00000   2.06359
   R33        2.85842  -0.00000   0.00000  -0.00000  -0.00000   2.85842
   R34        2.07824  -0.00000   0.00000  -0.00000  -0.00000   2.07824
   R35        2.06298  -0.00000   0.00000   0.00000   0.00000   2.06298
   R36        2.29473   0.00000   0.00000   0.00000   0.00000   2.29473
   R37        2.29010  -0.00000   0.00000  -0.00000  -0.00000   2.29009
    A1        2.18111  -0.00000   0.00000  -0.00000  -0.00000   2.18111
    A2        2.10205   0.00000   0.00000   0.00000   0.00000   2.10205
    A3        1.99914   0.00000   0.00000   0.00000   0.00000   1.99914
    A4        2.16166   0.00000   0.00000   0.00000   0.00000   2.16166
    A5        2.11708  -0.00000   0.00000  -0.00000  -0.00000   2.11708
    A6        1.99932  -0.00000   0.00000  -0.00000  -0.00000   1.99932
    A7        2.07890  -0.00000   0.00000   0.00000   0.00000   2.07890
    A8        2.19642  -0.00000   0.00000  -0.00000  -0.00000   2.19642
    A9        1.97583   0.00000   0.00000  -0.00000  -0.00000   1.97583
   A10        2.10376   0.00000   0.00000   0.00000   0.00000   2.10376
   A11        2.15561  -0.00000   0.00000  -0.00000  -0.00000   2.15561
   A12        2.01414   0.00000   0.00000   0.00000   0.00000   2.01414
   A13        2.10565   0.00000   0.00000  -0.00000  -0.00000   2.10565
   A14        2.14867  -0.00000   0.00000  -0.00000  -0.00000   2.14867
   A15        2.01970   0.00000   0.00000   0.00000   0.00000   2.01970
   A16        2.10047  -0.00000   0.00000  -0.00000  -0.00000   2.10047
   A17        2.16142  -0.00000   0.00000  -0.00000  -0.00000   2.16142
   A18        2.01104   0.00000   0.00000   0.00000   0.00000   2.01104
   A19        2.13418  -0.00000   0.00000  -0.00000  -0.00000   2.13418
   A20        2.06412   0.00000   0.00000   0.00000   0.00000   2.06412
   A21        2.08191   0.00000   0.00000   0.00000   0.00000   2.08191
   A22        2.12065   0.00000   0.00000  -0.00000  -0.00000   2.12065
   A23        2.06740  -0.00000   0.00000  -0.00000  -0.00000   2.06740
   A24        2.09381   0.00000   0.00000   0.00000   0.00000   2.09381
   A25        2.11474   0.00000   0.00000   0.00000   0.00000   2.11474
   A26        2.07039   0.00000   0.00000   0.00000   0.00000   2.07039
   A27        2.09742  -0.00000   0.00000  -0.00000  -0.00000   2.09742
   A28        2.12178   0.00000   0.00000   0.00000   0.00000   2.12178
   A29        2.06765   0.00000   0.00000   0.00000   0.00000   2.06765
   A30        2.09260  -0.00000   0.00000  -0.00000  -0.00000   2.09260
   A31        2.05304   0.00000   0.00000   0.00000   0.00000   2.05304
   A32        2.10996  -0.00000   0.00000  -0.00000  -0.00000   2.10996
   A33        2.11334  -0.00000   0.00000   0.00000   0.00000   2.11334
   A34        2.05619   0.00000   0.00000   0.00000   0.00000   2.05619
   A35        2.10988  -0.00000   0.00000  -0.00000  -0.00000   2.10988
   A36        2.11115  -0.00000   0.00000  -0.00000  -0.00000   2.11115
   A37        2.14003   0.00000   0.00000   0.00000   0.00000   2.14003
   A38        1.90299  -0.00000   0.00000  -0.00000  -0.00000   1.90299
   A39        1.87273  -0.00000   0.00000  -0.00000  -0.00000   1.87273
   A40        1.84752   0.00000   0.00000   0.00000   0.00000   1.84753
   A41        1.85051  -0.00000   0.00000  -0.00000  -0.00000   1.85051
   A42        1.82659   0.00000   0.00000   0.00000   0.00000   1.82659
   A43        1.97601  -0.00000   0.00000  -0.00000  -0.00000   1.97601
   A44        1.91311   0.00000   0.00000   0.00000   0.00000   1.91312
   A45        1.89505   0.00000   0.00000   0.00000   0.00000   1.89505
   A46        1.89686  -0.00000   0.00000   0.00000   0.00000   1.89686
   A47        1.88314   0.00000   0.00000  -0.00000  -0.00000   1.88314
   A48        1.89815  -0.00000   0.00000  -0.00000  -0.00000   1.89815
   A49        2.01328   0.00000   0.00000   0.00000   0.00000   2.01328
   A50        1.90121   0.00000   0.00000   0.00000   0.00000   1.90121
   A51        1.92386  -0.00000   0.00000   0.00000   0.00000   1.92386
   A52        1.84472  -0.00000   0.00000  -0.00000  -0.00000   1.84472
   A53        1.90036  -0.00000   0.00000  -0.00000  -0.00000   1.90036
   A54        1.87424  -0.00000   0.00000  -0.00000  -0.00000   1.87424
   A55        2.01708   0.00000   0.00000   0.00000   0.00000   2.01708
   A56        1.89755   0.00000   0.00000   0.00000   0.00000   1.89755
   A57        1.92486  -0.00000   0.00000  -0.00000  -0.00000   1.92486
   A58        1.84178   0.00000   0.00000   0.00000   0.00000   1.84178
   A59        1.90044  -0.00000   0.00000  -0.00000  -0.00000   1.90044
   A60        1.87566  -0.00000   0.00000  -0.00000  -0.00000   1.87566
   A61        2.00243   0.00000   0.00000   0.00000   0.00000   2.00243
   A62        2.12285  -0.00000   0.00000  -0.00000  -0.00000   2.12285
   A63        2.15790   0.00000   0.00000   0.00000   0.00000   2.15790
   A64        1.94512  -0.00000   0.00000  -0.00000  -0.00000   1.94512
   A65        2.16891   0.00000   0.00000  -0.00000  -0.00000   2.16891
   A66        2.16916   0.00000   0.00000   0.00000   0.00000   2.16916
    D1        0.07480   0.00000   0.00000   0.00000   0.00000   0.07480
    D2       -2.95216  -0.00000   0.00000   0.00000   0.00000  -2.95216
    D3       -3.01923  -0.00000   0.00000  -0.00000  -0.00000  -3.01923
    D4        0.23700  -0.00000   0.00000  -0.00000  -0.00000   0.23700
    D5        2.78519   0.00000   0.00000   0.00000   0.00000   2.78519
    D6       -0.64474   0.00000   0.00000   0.00000   0.00000  -0.64474
    D7       -0.40148   0.00000   0.00000   0.00000   0.00000  -0.40148
    D8        2.45177   0.00000   0.00000   0.00000   0.00000   2.45177
    D9       -2.81191   0.00000   0.00000   0.00000   0.00000  -2.81191
   D10        0.48104   0.00000   0.00000   0.00000   0.00000   0.48104
   D11        0.37253  -0.00000   0.00000  -0.00000  -0.00000   0.37253
   D12       -2.61771  -0.00000   0.00000  -0.00000  -0.00000  -2.61771
   D13        2.89698  -0.00000   0.00000  -0.00000  -0.00000   2.89698
   D14       -0.40069  -0.00000   0.00000  -0.00000  -0.00000  -0.40069
   D15       -0.35227   0.00000   0.00000   0.00000   0.00000  -0.35227
   D16        2.63325   0.00000   0.00000  -0.00000  -0.00000   2.63325
   D17       -2.90297   0.00000   0.00000   0.00000   0.00000  -2.90297
   D18        0.39945  -0.00000   0.00000   0.00000   0.00000   0.39945
   D19        0.34325  -0.00000   0.00000  -0.00000  -0.00000   0.34324
   D20       -2.63752  -0.00000   0.00000  -0.00000  -0.00000  -2.63752
   D21        0.15924  -0.00000   0.00000  -0.00000  -0.00000   0.15924
   D22       -3.06577  -0.00000   0.00000  -0.00000  -0.00000  -3.06577
   D23       -2.72885  -0.00000   0.00000  -0.00000  -0.00000  -2.72885
   D24        0.32933  -0.00000   0.00000  -0.00000  -0.00000   0.32933
   D25        0.82583  -0.00000   0.00000  -0.00000  -0.00000   0.82583
   D26        2.99569   0.00000   0.00000   0.00000   0.00000   2.99569
   D27       -1.31848   0.00000   0.00000   0.00000   0.00000  -1.31848
   D28       -2.58947  -0.00000   0.00000  -0.00000  -0.00000  -2.58947
   D29       -0.41962   0.00000   0.00000   0.00000   0.00000  -0.41962
   D30        1.54940   0.00000   0.00000   0.00000   0.00000   1.54940
   D31        0.12333  -0.00000   0.00000  -0.00000  -0.00000   0.12333
   D32       -3.07355  -0.00000   0.00000  -0.00000  -0.00000  -3.07355
   D33       -2.87428   0.00000   0.00000   0.00000   0.00000  -2.87428
   D34        0.21203   0.00000   0.00000   0.00000   0.00000   0.21203
   D35        1.29419   0.00000   0.00000   0.00000   0.00000   1.29419
   D36       -2.86799   0.00000   0.00000   0.00000   0.00000  -2.86798
   D37       -0.79666  -0.00000   0.00000   0.00000   0.00000  -0.79666
   D38       -1.99616   0.00000   0.00000   0.00000   0.00000  -1.99616
   D39        0.12485   0.00000   0.00000   0.00000   0.00000   0.12485
   D40        2.19617  -0.00000   0.00000   0.00000   0.00000   2.19617
   D41       -0.09189   0.00000   0.00000   0.00000   0.00000  -0.09189
   D42        3.08800   0.00000   0.00000   0.00000   0.00000   3.08800
   D43        2.90905   0.00000   0.00000  -0.00000  -0.00000   2.90905
   D44       -0.19425   0.00000   0.00000  -0.00000  -0.00000  -0.19425
   D45       -1.42451  -0.00000   0.00000   0.00000   0.00000  -1.42451
   D46        0.64576   0.00000   0.00000   0.00000   0.00000   0.64576
   D47        2.69799   0.00000   0.00000   0.00000   0.00000   2.69799
   D48        1.86158  -0.00000   0.00000   0.00000   0.00000   1.86158
   D49       -2.35134   0.00000   0.00000   0.00000   0.00000  -2.35134
   D50       -0.29911   0.00000   0.00000   0.00000   0.00000  -0.29911
   D51       -0.10520  -0.00000   0.00000   0.00000   0.00000  -0.10520
   D52        3.08819  -0.00000   0.00000  -0.00000  -0.00000   3.08819
   D53        2.88883   0.00000   0.00000  -0.00000  -0.00000   2.88883
   D54       -0.20096  -0.00000   0.00000  -0.00000  -0.00000  -0.20096
   D55       -1.37322  -0.00000   0.00000  -0.00000  -0.00000  -1.37322
   D56        0.69309   0.00000   0.00000   0.00000   0.00000   0.69309
   D57        2.74545   0.00000   0.00000  -0.00000  -0.00000   2.74545
   D58        1.92174  -0.00000   0.00000  -0.00000  -0.00000   1.92174
   D59       -2.29514   0.00000   0.00000   0.00000   0.00000  -2.29514
   D60       -0.24278   0.00000   0.00000  -0.00000  -0.00000  -0.24278
   D61        0.13770  -0.00000   0.00000  -0.00000  -0.00000   0.13770
   D62       -3.12797   0.00000   0.00000   0.00000   0.00000  -3.12797
   D63       -2.91966  -0.00000   0.00000  -0.00000  -0.00000  -2.91966
   D64        0.09785  -0.00000   0.00000  -0.00000  -0.00000   0.09785
   D65        0.13361   0.00000   0.00000   0.00000   0.00000   0.13361
   D66       -3.12413   0.00000   0.00000   0.00000   0.00000  -3.12413
   D67       -2.95188   0.00000   0.00000   0.00000   0.00000  -2.95188
   D68        0.07357   0.00000   0.00000   0.00000   0.00000   0.07357
   D69       -0.17191   0.00000   0.00000   0.00000   0.00000  -0.17191
   D70        3.09402   0.00000   0.00000   0.00000   0.00000   3.09402
   D71        2.93080   0.00000   0.00000   0.00000   0.00000   2.93080
   D72       -0.08646  -0.00000   0.00000  -0.00000  -0.00000  -0.08646
   D73       -0.14211   0.00000   0.00000  -0.00000  -0.00000  -0.14211
   D74        3.11572   0.00000   0.00000   0.00000   0.00000   3.11572
   D75        2.94696   0.00000   0.00000   0.00000   0.00000   2.94696
   D76       -0.07840   0.00000   0.00000   0.00000   0.00000  -0.07840
   D77        0.15569   0.00000   0.00000   0.00000   0.00000   0.15569
   D78       -2.98968  -0.00000   0.00000  -0.00000  -0.00000  -2.98968
   D79       -2.03903   0.00000   0.00000   0.00000   0.00000  -2.03903
   D80        1.09879  -0.00000   0.00000  -0.00000  -0.00000   1.09879
   D81        2.31019   0.00000   0.00000  -0.00000  -0.00000   2.31019
   D82       -0.83518  -0.00000   0.00000  -0.00000  -0.00000  -0.83518
   D83       -1.22535  -0.00000   0.00000  -0.00000  -0.00000  -1.22535
   D84        1.92010   0.00000   0.00000   0.00000   0.00000   1.92010
   D85        2.92772  -0.00000   0.00000  -0.00000  -0.00000   2.92772
   D86       -0.21001  -0.00000   0.00000   0.00000   0.00000  -0.21001
   D87        0.87231  -0.00000   0.00000  -0.00000  -0.00000   0.87231
   D88       -2.26543   0.00000   0.00000   0.00000   0.00000  -2.26543
   D89        0.68229   0.00000   0.00000  -0.00000  -0.00000   0.68229
   D90       -2.45780   0.00000   0.00000   0.00000   0.00000  -2.45779
   D91       -1.41910  -0.00000   0.00000  -0.00000  -0.00000  -1.41910
   D92        1.72400   0.00000   0.00000   0.00000   0.00000   1.72400
   D93        2.85527   0.00000   0.00000  -0.00000  -0.00000   2.85527
   D94       -0.28481   0.00000   0.00000   0.00000   0.00000  -0.28481
   D95        0.71764   0.00000   0.00000   0.00000   0.00000   0.71764
   D96       -2.42546   0.00000   0.00000   0.00000   0.00000  -2.42546
   D97       -1.37933  -0.00000   0.00000  -0.00000  -0.00000  -1.37933
   D98        1.76076  -0.00000   0.00000  -0.00000  -0.00000   1.76076
   D99        2.89486   0.00000   0.00000   0.00000   0.00000   2.89486
   D100      -0.24824   0.00000   0.00000  -0.00000  -0.00000  -0.24824
         Item               Value     Threshold  Converged?
 Maximum Force            0.000001     0.000002     YES
 RMS     Force            0.000000     0.000001     YES
 Maximum Displacement     0.000004     0.000006     YES
 RMS     Displacement     0.000001     0.000004     YES
 Predicted change in Energy=-9.035367D-12
 Optimization completed.
    -- Stationary point found.
                           ----------------------------
                           !   Optimized Parameters   !
                           ! (Angstroms and Degrees)  !
 --------------------------                            --------------------------
 ! Name  Definition              Value          Derivative Info.                !
 --------------------------------------------------------------------------------
 ! R1    R(1,2)                  1.4903         -DE/DX =    0.0                 !
 ! R2    R(1,3)                  1.4393         -DE/DX =    0.0                 !
 ! R3    R(1,5)                  1.4357         -DE/DX =    0.0                 !
 ! R4    R(2,4)                  1.4306         -DE/DX =    0.0                 !
 ! R5    R(2,6)                  1.4368         -DE/DX =    0.0                 !
 ! R6    R(3,7)                  1.4013         -DE/DX =    0.0                 !
 ! R7    R(3,13)                 1.5218         -DE/DX =    0.0                 !
 ! R8    R(4,8)                  1.3984         -DE/DX =    0.0                 !
 ! R9    R(4,14)                 1.5173         -DE/DX =    0.0                 !
 ! R10   R(5,9)                  1.3986         -DE/DX =    0.0                 !
 ! R11   R(5,15)                 1.5186         -DE/DX =    0.0                 !
 ! R12   R(6,10)                 1.3991         -DE/DX =    0.0                 !
 ! R13   R(6,16)                 1.5186         -DE/DX =    0.0                 !
 ! R14   R(7,11)                 1.3899         -DE/DX =    0.0                 !
 ! R15   R(7,21)                 1.0867         -DE/DX =    0.0                 !
 ! R16   R(8,12)                 1.3893         -DE/DX =    0.0                 !
 ! R17   R(8,22)                 1.0859         -DE/DX =    0.0                 !
 ! R18   R(9,11)                 1.3885         -DE/DX =    0.0                 !
 ! R19   R(9,23)                 1.0864         -DE/DX =    0.0                 !
 ! R20   R(10,12)                1.3889         -DE/DX =    0.0                 !
 ! R21   R(10,24)                1.0863         -DE/DX =    0.0                 !
 ! R22   R(11,25)                1.0854         -DE/DX =    0.0                 !
 ! R23   R(12,26)                1.0853         -DE/DX =    0.0                 !
 ! R24   R(13,17)                1.5128         -DE/DX =    0.0                 !
 ! R25   R(13,27)                1.0968         -DE/DX =    0.0                 !
 ! R26   R(13,28)                1.0987         -DE/DX =    0.0                 !
 ! R27   R(14,17)                1.5038         -DE/DX =    0.0                 !
 ! R28   R(14,29)                1.091          -DE/DX =    0.0                 !
 ! R29   R(14,30)                1.099          -DE/DX =    0.0                 !
 ! R30   R(15,18)                1.5131         -DE/DX =    0.0                 !
 ! R31   R(15,31)                1.0992         -DE/DX =    0.0                 !
 ! R32   R(15,32)                1.092          -DE/DX =    0.0                 !
 ! R33   R(16,18)                1.5126         -DE/DX =    0.0                 !
 ! R34   R(16,33)                1.0998         -DE/DX =    0.0                 !
 ! R35   R(16,34)                1.0917         -DE/DX =    0.0                 !
 ! R36   R(17,19)                1.2143         -DE/DX =    0.0                 !
 ! R37   R(18,20)                1.2119         -DE/DX =    0.0                 !
 ! A1    A(2,1,3)              124.9686         -DE/DX =    0.0                 !
 ! A2    A(2,1,5)              120.4386         -DE/DX =    0.0                 !
 ! A3    A(3,1,5)              114.5424         -DE/DX =    0.0                 !
 ! A4    A(1,2,4)              123.8542         -DE/DX =    0.0                 !
 ! A5    A(1,2,6)              121.2998         -DE/DX =    0.0                 !
 ! A6    A(4,2,6)              114.5523         -DE/DX =    0.0                 !
 ! A7    A(1,3,7)              119.1121         -DE/DX =    0.0                 !
 ! A8    A(1,3,13)             125.8456         -DE/DX =    0.0                 !
 ! A9    A(7,3,13)             113.2069         -DE/DX =    0.0                 !
 ! A10   A(2,4,8)              120.5363         -DE/DX =    0.0                 !
 ! A11   A(2,4,14)             123.5072         -DE/DX =    0.0                 !
 ! A12   A(8,4,14)             115.4015         -DE/DX =    0.0                 !
 ! A13   A(1,5,9)              120.6447         -DE/DX =    0.0                 !
 ! A14   A(1,5,15)             123.1098         -DE/DX =    0.0                 !
 ! A15   A(9,5,15)             115.7204         -DE/DX =    0.0                 !
 ! A16   A(2,6,10)             120.3479         -DE/DX =    0.0                 !
 ! A17   A(2,6,16)             123.8405         -DE/DX =    0.0                 !
 ! A18   A(10,6,16)            115.2243         -DE/DX =    0.0                 !
 ! A19   A(3,7,11)             122.2798         -DE/DX =    0.0                 !
 ! A20   A(3,7,21)             118.2656         -DE/DX =    0.0                 !
 ! A21   A(11,7,21)            119.2845         -DE/DX =    0.0                 !
 ! A22   A(4,8,12)             121.5042         -DE/DX =    0.0                 !
 ! A23   A(4,8,22)             118.4536         -DE/DX =    0.0                 !
 ! A24   A(12,8,22)            119.9665         -DE/DX =    0.0                 !
 ! A25   A(5,9,11)             121.1655         -DE/DX =    0.0                 !
 ! A26   A(5,9,23)             118.6248         -DE/DX =    0.0                 !
 ! A27   A(11,9,23)            120.1732         -DE/DX =    0.0                 !
 ! A28   A(6,10,12)            121.569          -DE/DX =    0.0                 !
 ! A29   A(6,10,24)            118.4676         -DE/DX =    0.0                 !
 ! A30   A(12,10,24)           119.897          -DE/DX =    0.0                 !
 ! A31   A(7,11,9)             117.6308         -DE/DX =    0.0                 !
 ! A32   A(7,11,25)            120.8916         -DE/DX =    0.0                 !
 ! A33   A(9,11,25)            121.0857         -DE/DX =    0.0                 !
 ! A34   A(8,12,10)            117.8108         -DE/DX =    0.0                 !
 ! A35   A(8,12,26)            120.8871         -DE/DX =    0.0                 !
 ! A36   A(10,12,26)           120.9598         -DE/DX =    0.0                 !
 ! A37   A(3,13,17)            122.6149         -DE/DX =    0.0                 !
 ! A38   A(3,13,27)            109.0332         -DE/DX =    0.0                 !
 ! A39   A(3,13,28)            107.2997         -DE/DX =    0.0                 !
 ! A40   A(17,13,27)           105.8553         -DE/DX =    0.0                 !
 ! A41   A(17,13,28)           106.0263         -DE/DX =    0.0                 !
 ! A42   A(27,13,28)           104.6562         -DE/DX =    0.0                 !
 ! A43   A(4,14,17)            113.217          -DE/DX =    0.0                 !
 ! A44   A(4,14,29)            109.6134         -DE/DX =    0.0                 !
 ! A45   A(4,14,30)            108.5786         -DE/DX =    0.0                 !
 ! A46   A(17,14,29)           108.6821         -DE/DX =    0.0                 !
 ! A47   A(17,14,30)           107.8962         -DE/DX =    0.0                 !
 ! A48   A(29,14,30)           108.756          -DE/DX =    0.0                 !
 ! A49   A(5,15,18)            115.3524         -DE/DX =    0.0                 !
 ! A50   A(5,15,31)            108.931          -DE/DX =    0.0                 !
 ! A51   A(5,15,32)            110.2288         -DE/DX =    0.0                 !
 ! A52   A(18,15,31)           105.6944         -DE/DX =    0.0                 !
 ! A53   A(18,15,32)           108.8829         -DE/DX =    0.0                 !
 ! A54   A(31,15,32)           107.3861         -DE/DX =    0.0                 !
 ! A55   A(6,16,18)            115.5702         -DE/DX =    0.0                 !
 ! A56   A(6,16,33)            108.7216         -DE/DX =    0.0                 !
 ! A57   A(6,16,34)            110.2865         -DE/DX =    0.0                 !
 ! A58   A(18,16,33)           105.5261         -DE/DX =    0.0                 !
 ! A59   A(18,16,34)           108.8872         -DE/DX =    0.0                 !
 ! A60   A(33,16,34)           107.4676         -DE/DX =    0.0                 !
 ! A61   A(13,17,14)           114.7306         -DE/DX =    0.0                 !
 ! A62   A(13,17,19)           121.6306         -DE/DX =    0.0                 !
 ! A63   A(14,17,19)           123.6385         -DE/DX =    0.0                 !
 ! A64   A(15,18,16)           111.447          -DE/DX =    0.0                 !
 ! A65   A(15,18,20)           124.2693         -DE/DX =    0.0                 !
 ! A66   A(16,18,20)           124.2836         -DE/DX =    0.0                 !
 ! D1    D(3,1,2,4)              4.2858         -DE/DX =    0.0                 !
 ! D2    D(3,1,2,6)           -169.1463         -DE/DX =    0.0                 !
 ! D3    D(5,1,2,4)           -172.9889         -DE/DX =    0.0                 !
 ! D4    D(5,1,2,6)             13.579          -DE/DX =    0.0                 !
 ! D5    D(2,1,3,7)            159.5797         -DE/DX =    0.0                 !
 ! D6    D(2,1,3,13)           -36.941          -DE/DX =    0.0                 !
 ! D7    D(5,1,3,7)            -23.0033         -DE/DX =    0.0                 !
 ! D8    D(5,1,3,13)           140.476          -DE/DX =    0.0                 !
 ! D9    D(2,1,5,9)           -161.1106         -DE/DX =    0.0                 !
 ! D10   D(2,1,5,15)            27.5615         -DE/DX =    0.0                 !
 ! D11   D(3,1,5,9)             21.3444         -DE/DX =    0.0                 !
 ! D12   D(3,1,5,15)          -149.9836         -DE/DX =    0.0                 !
 ! D13   D(1,2,4,8)            165.9849         -DE/DX =    0.0                 !
 ! D14   D(1,2,4,14)           -22.9577         -DE/DX =    0.0                 !
 ! D15   D(6,2,4,8)            -20.1834         -DE/DX =    0.0                 !
 ! D16   D(6,2,4,14)           150.874          -DE/DX =    0.0                 !
 ! D17   D(1,2,6,10)          -166.3279         -DE/DX =    0.0                 !
 ! D18   D(1,2,6,16)            22.887          -DE/DX =    0.0                 !
 ! D19   D(4,2,6,10)            19.6665         -DE/DX =    0.0                 !
 ! D20   D(4,2,6,16)          -151.1186         -DE/DX =    0.0                 !
 ! D21   D(1,3,7,11)             9.1237         -DE/DX =    0.0                 !
 ! D22   D(1,3,7,21)          -175.6555         -DE/DX =    0.0                 !
 ! D23   D(13,3,7,11)         -156.3518         -DE/DX =    0.0                 !
 ! D24   D(13,3,7,21)           18.8691         -DE/DX =    0.0                 !
 ! D25   D(1,3,13,17)           47.3168         -DE/DX =    0.0                 !
 ! D26   D(1,3,13,27)          171.6402         -DE/DX =    0.0                 !
 ! D27   D(1,3,13,28)          -75.5435         -DE/DX =    0.0                 !
 ! D28   D(7,3,13,17)         -148.3658         -DE/DX =    0.0                 !
 ! D29   D(7,3,13,27)          -24.0424         -DE/DX =    0.0                 !
 ! D30   D(7,3,13,28)           88.7739         -DE/DX =    0.0                 !
 ! D31   D(2,4,8,12)             7.0665         -DE/DX =    0.0                 !
 ! D32   D(2,4,8,22)          -176.1012         -DE/DX =    0.0                 !
 ! D33   D(14,4,8,12)         -164.684          -DE/DX =    0.0                 !
 ! D34   D(14,4,8,22)           12.1483         -DE/DX =    0.0                 !
 ! D35   D(2,4,14,17)           74.1518         -DE/DX =    0.0                 !
 ! D36   D(2,4,14,29)         -164.3235         -DE/DX =    0.0                 !
 ! D37   D(2,4,14,30)          -45.6455         -DE/DX =    0.0                 !
 ! D38   D(8,4,14,17)         -114.3717         -DE/DX =    0.0                 !
 ! D39   D(8,4,14,29)            7.1531         -DE/DX =    0.0                 !
 ! D40   D(8,4,14,30)          125.8311         -DE/DX =    0.0                 !
 ! D41   D(1,5,9,11)            -5.2651         -DE/DX =    0.0                 !
 ! D42   D(1,5,9,23)           176.9291         -DE/DX =    0.0                 !
 ! D43   D(15,5,9,11)          166.6764         -DE/DX =    0.0                 !
 ! D44   D(15,5,9,23)          -11.1295         -DE/DX =    0.0                 !
 ! D45   D(1,5,15,18)          -81.6182         -DE/DX =    0.0                 !
 ! D46   D(1,5,15,31)           36.9995         -DE/DX =    0.0                 !
 ! D47   D(1,5,15,32)          154.5836         -DE/DX =    0.0                 !
 ! D48   D(9,5,15,18)          106.6605         -DE/DX =    0.0                 !
 ! D49   D(9,5,15,31)         -134.7218         -DE/DX =    0.0                 !
 ! D50   D(9,5,15,32)          -17.1377         -DE/DX =    0.0                 !
 ! D51   D(2,6,10,12)           -6.0276         -DE/DX =    0.0                 !
 ! D52   D(2,6,10,24)          176.9404         -DE/DX =    0.0                 !
 ! D53   D(16,6,10,12)         165.5176         -DE/DX =    0.0                 !
 ! D54   D(16,6,10,24)         -11.5144         -DE/DX =    0.0                 !
 ! D55   D(2,6,16,18)          -78.6794         -DE/DX =    0.0                 !
 ! D56   D(2,6,16,33)           39.711          -DE/DX =    0.0                 !
 ! D57   D(2,6,16,34)          157.3027         -DE/DX =    0.0                 !
 ! D58   D(10,6,16,18)         110.1075         -DE/DX =    0.0                 !
 ! D59   D(10,6,16,33)        -131.502          -DE/DX =    0.0                 !
 ! D60   D(10,6,16,34)         -13.9104         -DE/DX =    0.0                 !
 ! D61   D(3,7,11,9)             7.8899         -DE/DX =    0.0                 !
 ! D62   D(3,7,11,25)         -179.2196         -DE/DX =    0.0                 !
 ! D63   D(21,7,11,9)         -167.2839         -DE/DX =    0.0                 !
 ! D64   D(21,7,11,25)           5.6066         -DE/DX =    0.0                 !
 ! D65   D(4,8,12,10)            7.6551         -DE/DX =    0.0                 !
 ! D66   D(4,8,12,26)         -178.9996         -DE/DX =    0.0                 !
 ! D67   D(22,8,12,10)        -169.1301         -DE/DX =    0.0                 !
 ! D68   D(22,8,12,26)           4.2153         -DE/DX =    0.0                 !
 ! D69   D(5,9,11,7)            -9.8497         -DE/DX =    0.0                 !
 ! D70   D(5,9,11,25)          177.2743         -DE/DX =    0.0                 !
 ! D71   D(23,9,11,7)          167.9224         -DE/DX =    0.0                 !
 ! D72   D(23,9,11,25)          -4.9536         -DE/DX =    0.0                 !
 ! D73   D(6,10,12,8)           -8.1422         -DE/DX =    0.0                 !
 ! D74   D(6,10,12,26)         178.5176         -DE/DX =    0.0                 !
 ! D75   D(24,10,12,8)         168.8481         -DE/DX =    0.0                 !
 ! D76   D(24,10,12,26)         -4.4921         -DE/DX =    0.0                 !
 ! D77   D(3,13,17,14)           8.9202         -DE/DX =    0.0                 !
 ! D78   D(3,13,17,19)        -171.296          -DE/DX =    0.0                 !
 ! D79   D(27,13,17,14)       -116.8277         -DE/DX =    0.0                 !
 ! D80   D(27,13,17,19)         62.9561         -DE/DX =    0.0                 !
 ! D81   D(28,13,17,14)        132.3641         -DE/DX =    0.0                 !
 ! D82   D(28,13,17,19)        -47.8522         -DE/DX =    0.0                 !
 ! D83   D(4,14,17,13)         -70.2074         -DE/DX =    0.0                 !
 ! D84   D(4,14,17,19)         110.0137         -DE/DX =    0.0                 !
 ! D85   D(29,14,17,13)        167.746          -DE/DX =    0.0                 !
 ! D86   D(29,14,17,19)        -12.0329         -DE/DX =    0.0                 !
 ! D87   D(30,14,17,13)         49.9795         -DE/DX =    0.0                 !
 ! D88   D(30,14,17,19)       -129.7994         -DE/DX =    0.0                 !
 ! D89   D(5,15,18,16)          39.0922         -DE/DX =    0.0                 !
 ! D90   D(5,15,18,20)        -140.8213         -DE/DX =    0.0                 !
 ! D91   D(31,15,18,16)        -81.3084         -DE/DX =    0.0                 !
 ! D92   D(31,15,18,20)         98.7781         -DE/DX =    0.0                 !
 ! D93   D(32,15,18,16)        163.5952         -DE/DX =    0.0                 !
 ! D94   D(32,15,18,20)        -16.3183         -DE/DX =    0.0                 !
 ! D95   D(6,16,18,15)          41.1178         -DE/DX =    0.0                 !
 ! D96   D(6,16,18,20)        -138.9687         -DE/DX =    0.0                 !
 ! D97   D(33,16,18,15)        -79.0295         -DE/DX =    0.0                 !
 ! D98   D(33,16,18,20)        100.884          -DE/DX =    0.0                 !
 ! D99   D(34,16,18,15)        165.8634         -DE/DX =    0.0                 !
 ! D100  D(34,16,18,20)        -14.2231         -DE/DX =    0.0                 !
 --------------------------------------------------------------------------------
 GradGradGradGradGradGradGradGradGradGradGradGradGradGradGradGradGradGrad

 Leave Link  103 at Tue May 20 08:45:44 2025, MaxMem=   104857600 cpu:              67.1 elap:               2.5
 (Enter /opt/linux/rocky/8/software/gaussian/16c01_avx2/g16/l9999.exe)

 ----------------------------------------------------------------------

 Electric dipole moment (input orientation):
 (Debye = 10**-18 statcoulomb cm , SI units = C m)
                  (au)            (Debye)         (10**-30 SI)
   Tot        0.647443D+00      0.164564D+01      0.548925D+01
   x          0.156003D+00      0.396519D+00      0.132265D+01
   y          0.318490D+00      0.809522D+00      0.270027D+01
   z         -0.541673D+00     -0.137679D+01     -0.459249D+01

 Dipole polarizability, Alpha (input orientation).
 (esu units = cm**3 , SI units = C**2 m**2 J**-1)
 Alpha(0;0):
               (au)            (10**-24 esu)      (10**-40 SI)
   iso        0.192896D+03      0.285842D+02      0.318043D+02
   aniso      0.148373D+03      0.219867D+02      0.244635D+02
   xx         0.233001D+03      0.345272D+02      0.384167D+02
   yx        -0.359041D+01     -0.532044D+00     -0.591979D+00
   yy         0.250503D+03      0.371207D+02      0.413023D+02
   zx        -0.161742D+01     -0.239678D+00     -0.266677D+00
   zy        -0.924301D+01     -0.136967D+01     -0.152397D+01
   zz         0.951842D+02      0.141048D+02      0.156938D+02

 ----------------------------------------------------------------------

 Dipole orientation:
     6         -0.10622103         -1.22659900          0.75894699
     6          0.20128116          1.30296161         -0.44022831
     6          1.78215164         -2.47814987          2.26396554
     6          2.49523722          2.73204983         -0.37442140
     6         -2.37354664         -2.66528144          0.37081790
     6         -1.90964914          2.60784753         -1.54162697
     6          1.03836211         -4.39891078          3.92812223
     6          2.83179777          4.80560395         -1.97763841
     6         -3.01783195         -4.63338983          2.01289009
     6         -1.51615470          4.69552671         -3.11533263
     6         -1.39569601         -5.38568982          3.93324439
     6          0.87641287          5.71256403         -3.47637095
     6          4.61909952         -2.41926985          1.79673351
     6          4.52461821          2.37707580          1.61980718
     6         -4.00307535         -2.41964249         -1.97864931
     6         -4.64401573          2.11644805         -0.82266412
     6          6.04279894          0.00147430          1.26273799
     6         -5.82422534         -0.21528657         -1.98054577
     8          8.24166160         -0.01530215          0.60659862
     8         -7.95955863         -0.30745381         -2.80297703
     1          2.46293398         -5.23291109          5.14963836
     1          4.64275379          5.77054652         -1.96097318
     1         -4.79451365         -5.61881056          1.71770133
     1         -3.14723715          5.58027313         -3.99335832
     1         -1.93268073         -6.85707339          5.25740460
     1          1.16706533          7.30441770         -4.73659985
     1          5.58703299         -3.30306894          3.40227579
     1          5.00678965         -3.67824762          0.19179938
     1          5.80781733          3.99069657          1.59628360
     1          3.61159911          2.27705010          3.48247661
     1         -2.77107856         -2.13211270         -3.62624996
     1         -5.06259270         -4.16153365         -2.29746194
     1         -4.75246908          1.83239827          1.23321450
     1         -5.81030681          3.75442335         -1.28385222

 Electric dipole moment (dipole orientation):
 (Debye = 10**-18 statcoulomb cm , SI units = C m)
                  (au)            (Debye)         (10**-30 SI)
   Tot        0.647443D+00      0.164564D+01      0.548925D+01
   x          0.000000D+00      0.000000D+00      0.000000D+00
   y          0.000000D+00      0.000000D+00      0.000000D+00
   z          0.647443D+00      0.164564D+01      0.548925D+01

 Dipole polarizability, Alpha (dipole orientation).
 (esu units = cm**3 , SI units = C**2 m**2 J**-1)
 Alpha(0;0):
               (au)            (10**-24 esu)      (10**-40 SI)
   iso        0.192896D+03      0.285842D+02      0.318043D+02
   aniso      0.148373D+03      0.219867D+02      0.244635D+02
   xx         0.225054D+03      0.333496D+02      0.371064D+02
   yx         0.227354D+02      0.336903D+01      0.374856D+01
   yy         0.205455D+03      0.304452D+02      0.338749D+02
   zx         0.251941D+02      0.373338D+01      0.415395D+01
   zy        -0.677559D+02     -0.100404D+02     -0.111714D+02
   zz         0.148179D+03      0.219579D+02      0.244315D+02

 ----------------------------------------------------------------------
 Unable to Open any file for archive entry.
 1\1\GINC-A001\Freq\RB3LYP\6-31G(d,p)\C18H14O2\DJO04747\20-May-2025\0\\
 #P Geom=AllCheck Guess=TCheck SCRF=Check GenChk RB3LYP/6-31G(d,p) Freq
 \\Title Card Required\\0,1\C,0.000448,0.764759,-0.030251\C,0.091512,-0
 .720124,-0.118612\C,1.117301,1.667077,-0.12999\C,1.324244,-1.437937,-0
 .227263\C,-1.260063,1.402166,0.226994\C,-1.086105,-1.534279,-0.239828\
 C,0.882741,3.008184,-0.461597\C,1.363108,-2.819475,-0.014334\C,-1.4480
 65,2.75588,-0.069823\C,-1.01382,-2.916569,-0.036382\C,-0.397637,3.5460
 24,-0.517351\C,0.200948,-3.559544,0.163779\C,2.513529,1.421513,0.42326
 8\C,2.606353,-0.825024,-0.759\C,-2.386297,0.733359,0.99545\C,-2.412439
 ,-1.027966,-0.778864\C,3.257686,0.121662,0.211062\C,-3.244505,-0.21774
 4,0.190259\O,4.300257,-0.116525,0.786289\O,-4.446768,-0.316563,0.30609
 6\H,1.740031,3.660696,-0.603653\H,2.32621,-3.320331,-0.041991\H,-2.429
 816,3.192471,0.090845\H,-1.931406,-3.495929,-0.08594\H,-0.554225,4.585
 094,-0.789042\H,0.243569,-4.62891,0.344397\H,3.18408,2.212467,0.065932
 \H,2.464566,1.568932,1.510978\H,3.316035,-1.616357,-1.005016\H,2.37256
 3,-0.263009,-1.674033\H,-1.955221,0.130286,1.807128\H,-3.029384,1.4868
 73,1.454939\H,-2.215579,-0.358582,-1.628945\H,-3.01297,-1.860766,-1.14
 9779\\Version=ES64L-G16RevC.01\State=1-A\HF=-844.7888108\RMSD=4.565e-1
 1\RMSF=4.213e-07\ZeroPoint=0.2713696\Thermal=0.2855348\ETot=-844.50327
 59\HTot=-844.5023318\GTot=-844.5583266\Dipole=0.1560026,0.3184903,-0.5
 416728\DipoleDeriv=-0.0416331,-0.0282024,-0.02053,-0.0061823,0.2675861
 ,0.0558672,-0.0488597,0.2745624,-0.0711534,-0.0683244,0.0053759,0.0016
 405,-0.0379778,0.1919273,0.0731129,-0.0109502,0.2218567,-0.0292701,0.1
 173527,0.0201139,0.1145335,-0.0456603,-0.1149829,-0.0660105,0.3182825,
 -0.1528642,0.0244708,0.2237029,0.0528507,-0.0380588,0.1668848,-0.01931
 5,-0.0937811,-0.2606153,-0.2160106,-0.0556729,0.1187157,0.0242163,-0.0
 741454,0.132476,-0.0168992,-0.1052007,-0.2464627,-0.2286713,0.0124225,
 0.197832,-0.0173718,0.0511008,-0.1344075,-0.0160994,-0.0860674,0.24653
 3,-0.1742828,-0.0429361,-0.0816791,0.1500959,-0.0246768,0.1623459,-0.0
 333003,0.0030101,-0.0851422,0.0259577,-0.1488376,-0.0583018,-0.1530996
 ,-0.0291173,-0.17016,-0.0970215,0.0041983,0.0375739,0.0383569,-0.12011
 5,-0.0277214,-0.1367699,-0.0502173,-0.1636226,-0.1108094,0.0234431,0.0
 309166,0.0845464,-0.1277898,-0.0818296,0.1542209,0.0231177,0.1783147,-
 0.0856414,0.0157678,-0.0462864,0.060959,-0.1225534,0.075116,0.0004018,
 0.0023048,-0.0175191,0.0368907,-0.0827067,-0.0129715,-0.084466,-0.0491
 074,0.0935709,-0.0101973,0.0074397,0.0039842,0.0599803,-0.0609281,0.00
 32962,-0.0591962,-0.0596369,0.1101956,0.0785843,0.0008466,0.2167758,-0
 .1899346,-0.0576525,-0.0913103,-0.1606056,0.0380245,-0.1987295,-0.1509
 23,-0.1314217,-0.2953964,-0.1114691,-0.1408528,-0.0836,-0.1007529,0.00
 30173,-0.1791865,-0.1610921,-0.0856182,-0.2402207,-0.0872629,-0.080221
 7,-0.1067984,-0.1550861,-0.0426467,-0.1960913,0.1132358,0.1245743,0.21
 70691,-0.0235566,-0.1013772,0.1452771,-0.1444447,-0.0884327,1.1816041,
 -0.1379237,0.3560748,-0.1889953,0.7915341,0.2370695,0.6938013,0.275114
 1,0.4839104,1.589041,0.1172921,-0.1276118,0.119276,0.5249761,0.3693084
 ,-0.1456767,0.3865353,0.4795428,-1.1460871,0.0899398,-0.2458949,0.1957
 518,-0.4692416,-0.0266462,-0.504713,-0.0656329,-0.4905055,-1.4045654,-
 0.0903353,0.1013359,-0.0905603,-0.3999339,-0.0966295,0.1127063,-0.1136
 629,-0.3729042,-0.0639672,-0.1043601,0.0262424,-0.0708879,0.0189214,0.
 0189966,-0.0334498,0.0336098,0.0987896,-0.0623756,0.0845335,0.0073556,
 0.0421728,0.0456475,0.0053715,0.045619,0.0192233,0.0968315,-0.0613608,
 0.0843466,0.0272139,0.0391405,0.056346,0.0012932,0.0654211,0.0206574,0
 .0833667,-0.053958,-0.0951688,-0.0108275,-0.0511978,0.029661,0.0034285
 ,-0.0487541,0.0166137,0.0948015,0.0590901,0.0226574,-0.0018531,0.02803
 66,-0.0970003,0.0600503,0.0108069,0.0428497,0.094703,0.0568852,0.00573
 77,-0.0023541,0.0068927,-0.105481,0.0397319,0.001652,0.0200438,0.10328
 79,-0.0339436,-0.0028764,0.0093678,-0.0552517,-0.0204413,0.0313414,0.0
 357072,0.0519757,0.0656822,-0.0618438,0.0242037,-0.0203059,0.0208737,0
 .0575919,0.0033811,-0.0493771,-0.0128642,-0.0482776,-0.0210688,0.04321
 18,0.0274688,0.0787448,-0.0406341,-0.0473927,0.0062789,-0.0153761,0.05
 37702,0.0265349,0.0054262,-0.025439,-0.0401199,0.0130986,0.0840164,0.0
 065075,0.0524117,-0.0108962,0.0183599,0.0046445,-0.0412631,-0.0160324,
 0.0077843,0.0682932,0.0089672,0.052129,0.0273184,-0.0211428,0.0366028,
 0.0474576,0.0418648,-0.0280382,-0.0622343,0.0525619,-0.0215914,0.04209
 9,0.0174202,0.0072383,0.0288102,0.02802,0.006364,0.0730972,-0.0126025,
 0.0521734,0.0253334,-0.0216114,-0.0366093,-0.02755,-0.0544322,-0.04124
 65,-0.0630776,-0.0343389,-0.0240681,0.0533635\Polar=233.0013012,-3.590
 4094,250.5027308,-1.6174243,-9.2430097,95.1841847\Quadrupole=-16.98956
 93,13.9085255,3.0810439,0.4249385,-3.4996727,0.3554615\PG=C01 [X(C18H1
 4O2)]\NImag=1\\0.56450524,0.00510867,0.56774761,-0.04996967,-0.0056494
 5,0.17525800,-0.10832108,0.00132463,0.00415912,0.58743517,0.00724403,-
 0.18001850,-0.00639189,-0.01072453,0.56984678,0.00297311,-0.00930264,-
 0.06179645,-0.00661584,0.01042366,0.16610315,-0.20034417,-0.07388061,0
 .00495663,0.01048493,-0.01661258,0.00216359,0.56094630,-0.04245185,-0.
 16443591,0.00499770,-0.02484308,-0.03005730,0.00491366,0.01196849,0.60
 258797,-0.01883756,0.01489587,-0.06001933,0.00074556,-0.00042965,0.000
 00484,0.06120775,-0.08693648,0.19974477,0.00301302,0.02236357,-0.00196
 552,-0.22281168,0.07571607,0.01653581,-0.00290491,-0.00332193,0.000525
 36,0.56526747,0.03118940,-0.02405748,-0.00167480,0.03765252,-0.1524087
 5,-0.00485151,0.00206349,0.00434406,-0.00013266,-0.01900431,0.63368479
 ,-0.00060179,-0.00519116,0.00125169,0.03529834,0.00133393,-0.06472772,
 0.00105875,-0.00089026,-0.00111654,-0.07660140,-0.06121573,0.18968450,
 -0.21212947,0.06866772,0.03179917,-0.00060254,0.02334043,-0.00101609,-
 0.04730109,-0.03315701,0.01918336,0.00463850,-0.00501365,-0.00136575,0
 .53070629,0.02935680,-0.14139166,-0.00128809,0.03266131,-0.02223296,-0
 .00460199,0.00233335,0.05887916,-0.02205458,-0.00484859,-0.00519848,0.
 00162147,-0.03808563,0.62374486,0.05747391,-0.00363932,-0.07583414,-0.
 00172158,-0.00501875,0.00256435,0.00253578,-0.01475046,0.00908525,-0.0
 0138539,0.00284217,0.00243515,-0.12159667,-0.08767069,0.23501759,0.007
 60730,-0.01908280,0.00130851,-0.20622021,-0.07567583,-0.01561452,0.002
 83404,0.00655926,0.00019211,-0.05162905,0.01383914,-0.00597615,-0.0027
 2237,0.00200529,0.00058789,0.55690581,-0.02816704,-0.02951565,-0.00067
 026,-0.03590019,-0.15731588,-0.00465755,0.00614567,-0.00297627,0.00033
 088,-0.02372097,0.06328073,-0.01464960,-0.00337637,0.00469909,-0.00066
 376,0.00619338,0.63731637,0.00086973,-0.00212813,0.00172781,-0.0362001
 9,-0.00477204,-0.06559301,0.00136070,0.00197435,0.00220449,0.00586341,
 -0.01352768,0.00708293,-0.00023968,-0.00103108,-0.00097980,0.08316584,
 -0.04814020,0.19409919,0.04216795,-0.01610706,-0.00317795,-0.00479335,
 -0.00525430,-0.00051079,-0.12114761,-0.00864453,0.00179425,-0.00114809
 ,0.00180563,0.00000853,-0.02370180,0.03572753,-0.00716988,0.00168248,-
 0.00169152,0.00051835,0.73391554,-0.05427590,-0.03753969,0.01751085,-0
 .00250337,0.00704675,0.00083071,0.06070540,-0.29251493,0.05568048,0.00
 080391,-0.00221767,0.00065586,0.02525999,-0.04439766,0.00603727,-0.002
 04323,-0.00013651,-0.00122607,0.01674598,0.63896774,0.00388156,0.00247
 438,0.00241434,0.00085905,0.00035443,0.00591885,-0.00810608,0.06508670
 ,-0.07704854,0.00059056,0.00036724,-0.00054073,-0.00264745,0.00503525,
 -0.00490428,-0.00051253,-0.00045143,0.00041305,-0.00526257,-0.13033310
 ,0.16205259,-0.00554482,0.00317244,0.00244873,0.02765595,0.02555274,-0
 .00217477,-0.00073585,-0.00142528,-0.00004056,-0.11788532,0.04831312,-
 0.00281700,0.00107765,0.00189578,-0.00063343,-0.01270591,-0.02899597,0
 .00546603,0.00000733,0.00095497,-0.00031862,0.74018144,0.00072033,0.00
 770377,0.00081828,0.06681553,-0.02593897,0.00596872,-0.00048387,-0.002
 50498,0.00027939,-0.02160710,-0.31257323,0.03923431,0.00191340,0.00054
 400,-0.00167852,-0.01991039,-0.05343926,0.00622614,-0.00134702,0.00198
 173,-0.00044633,-0.01774900,0.66081289,0.00116213,0.00000287,0.0055974
 5,-0.00524563,-0.00299832,0.00453787,-0.00053884,0.00016394,-0.0005623
 1,0.00329361,0.03916585,-0.06773345,0.00045035,-0.00041416,0.00034120,
 0.00249932,0.00716383,-0.00512158,0.00018132,-0.00027976,-0.00006737,-
 0.05522411,-0.08472370,0.14541840,0.01783013,0.02733508,-0.00676312,-0
 .00483308,0.00188200,0.00336915,-0.00780127,-0.02262995,0.00907212,0.0
 0093108,0.00123418,0.00008419,-0.12207866,0.07032291,-0.00349733,-0.00
 065639,-0.00074582,-0.00016586,-0.06017133,0.01012733,0.00768309,-0.00
 071541,-0.00011264,-0.00017646,0.70857504,0.06907829,-0.01833776,-0.00
 420164,0.00103155,0.00532667,0.00175258,-0.01418402,-0.05485211,0.0137
 7334,0.00163858,0.00038677,-0.00152566,0.00083241,-0.30181784,0.054709
 71,-0.00001702,-0.00300203,0.00097152,-0.04170139,0.06281408,-0.003375
 45,-0.00045192,-0.00109831,0.00027322,-0.03912772,0.63759760,-0.013138
 29,-0.00562161,0.00744964,0.00280684,-0.00069069,0.00457994,0.00289194
 ,0.01543199,-0.00858981,0.00015113,-0.00112221,0.00050192,0.00869577,0
 .04791822,-0.07442507,-0.00028185,0.00116488,-0.00078870,0.01801055,-0
 .01108343,0.00733843,0.00033392,0.00044454,-0.00053969,-0.14428232,-0.
 12737434,0.19898816,-0.00494955,-0.00379774,-0.00227220,0.03389101,-0.
 02079044,0.00261666,0.00160282,-0.00118469,-0.00020313,-0.01714700,0.0
 3161254,-0.00616274,-0.00089552,0.00119785,0.00003893,-0.11759327,-0.0
 3197016,-0.00165971,-0.00084303,0.00019671,0.00007095,-0.06284271,-0.0
 3078613,0.00256316,0.00023279,-0.00105946,0.00013611,0.73406283,-0.002
 06967,0.00477191,0.00080203,-0.06173546,-0.03131554,0.00409947,-0.0014
 9460,-0.00013304,-0.00099420,0.02324559,-0.04936349,0.00592217,0.00049
 249,-0.00283641,0.00101682,0.03711859,-0.31369196,0.03581917,0.0005917
 9,-0.00094447,0.00055876,0.02043344,0.06537278,-0.00520287,0.00065313,
 0.00248104,-0.00060694,0.02361330,0.66464706,-0.00138826,0.00005962,0.
 00536856,0.00624210,-0.00272495,0.00504597,-0.00025501,-0.00108663,0.0
 0043181,-0.00295306,0.00717576,-0.00516572,0.00007483,0.00092378,-0.00
 077613,-0.00739496,0.03588491,-0.06711954,-0.00037238,0.00029479,-0.00
 055215,-0.00324613,-0.00535459,0.00827623,-0.00005083,-0.00040504,-0.0
 0004094,0.07361522,-0.07582419,0.14739177,-0.05438639,-0.00627524,0.00
 849417,-0.00085849,0.00166233,-0.00073028,0.00885737,0.08193569,-0.019
 66893,-0.00026679,-0.00163133,0.00100524,0.03945848,-0.06871161,0.0114
 3759,-0.00119284,0.00154000,-0.00126087,-0.31505398,0.04487328,-0.0083
 4034,0.00079159,0.00175393,-0.00030570,-0.25095635,-0.05919997,0.07015
 909,0.00061475,-0.00169903,0.00046061,0.67152003,-0.00615941,0.0013982
 1,0.00154686,0.00028168,-0.00175884,0.00126171,0.03099762,-0.01096117,
 0.00574868,-0.00085537,0.00009306,0.00032293,-0.01811959,-0.03574343,0
 .01644351,0.00068416,0.00081120,-0.00012679,0.11546827,-0.15755363,0.0
 1563633,-0.00032356,-0.00001401,-0.00016267,-0.12657781,-0.19635492,0.
 06624999,0.00052462,-0.00048097,0.00003164,-0.02920303,0.70359316,0.00
 846523,-0.00277185,-0.00492661,-0.00028469,0.00134735,-0.00090716,-0.0
 0821755,-0.00137899,0.00525801,0.00038911,0.00005071,-0.00036644,-0.00
 138017,0.02266422,-0.00002872,-0.00005544,-0.00073305,0.00011394,-0.01
 314314,0.01985209,-0.06028883,0.00006053,-0.00013761,0.00018865,0.0789
 0865,0.05208356,-0.09141299,-0.00033563,0.00049110,0.00002419,-0.06531
 222,-0.17208256,0.19073600,-0.00048621,-0.00110741,-0.00003365,-0.0568
 6340,-0.00169280,-0.00096484,-0.00070290,0.00132754,-0.00065312,0.0303
 0238,-0.07681669,0.00986342,-0.00058405,-0.00186278,0.00143020,0.02161
 887,0.08072057,-0.01082085,0.00103597,-0.00152192,0.00056659,-0.283640
 40,-0.06489638,0.03176625,0.00038266,0.00187398,-0.00057270,-0.2984985
 6,0.05606464,-0.03887804,-0.00183746,-0.00026090,0.00033468,0.68222801
 ,0.00011900,-0.00208661,0.00135015,-0.00239254,0.00262240,0.00040936,0
 .00058895,0.00055379,0.00026192,-0.02498407,-0.03041086,0.00869343,-0.
 00091851,0.00051472,0.00017063,0.02950698,-0.02171510,0.00852285,0.000
 48283,-0.00022978,-0.00021647,-0.13455067,-0.19048809,0.02743698,-0.00
 040070,-0.00031799,0.00003497,0.12538537,-0.17519455,0.02705987,0.0000
 1811,-0.00019160,0.00002335,-0.00150401,0.73477976,-0.00003567,0.00126
 663,-0.00085844,-0.00034956,-0.00309241,-0.00383355,-0.00019447,-0.000
 14863,-0.00020871,0.00263616,0.00821224,0.00420968,0.00020320,-0.00036
 711,-0.00007421,-0.00308225,0.00871281,0.00398678,-0.00013320,0.000071
 12,0.00014265,0.03385997,0.02329731,-0.06346699,0.00016407,0.00023311,
 0.00004361,-0.04032346,0.02208568,-0.06495958,-0.00006123,0.00001003,-
 0.00000357,0.01008738,-0.11539122,0.15122042,-0.02222275,-0.00216525,-
 0.00556159,0.00124686,0.00361666,0.00133414,-0.16760296,0.02140999,-0.
 03655723,0.00390050,0.00246099,0.00005552,-0.00012622,-0.00302158,-0.0
 0161319,-0.00144520,-0.00122518,0.00022117,-0.01591743,0.01260368,-0.0
 1295485,-0.00024335,-0.00108767,0.00053735,-0.00070431,-0.00011608,0.0
 0083579,-0.00069734,0.00139173,-0.00026709,0.00287371,-0.00075664,-0.0
 0211330,0.00143275,0.00017814,-0.00005312,0.49573321,-0.01512497,0.011
 97979,-0.00599989,-0.00012497,-0.00109498,-0.00094501,0.00018875,-0.09
 037038,0.00547383,0.00084175,0.00165636,0.00095156,-0.00130551,-0.0036
 3371,0.00203651,0.00008133,0.00052751,0.00041602,0.03617549,-0.0112298
 0,0.01337089,0.00008745,-0.00024424,0.00020025,0.00057856,0.00021683,-
 0.00066270,-0.00003619,-0.00023626,0.00004624,-0.00151503,-0.00434469,
 0.00411399,-0.00008570,0.00031769,-0.00012609,0.01694213,0.50972236,0.
 00781222,-0.00104945,-0.00057919,0.00013634,-0.00012490,-0.00238212,-0
 .04656864,0.00660732,-0.07796619,-0.00019563,-0.00149319,-0.00145590,0
 .00063365,0.00422274,0.00395530,-0.00010301,-0.00055963,0.00027481,-0.
 01229531,0.00978837,-0.00124360,-0.00113134,-0.00109170,0.00102297,-0.
 00175083,-0.00355905,0.00027094,-0.00041970,0.00065533,0.00003204,0.00
 507473,0.00055753,0.00595573,0.00084384,0.00014338,0.00032656,-0.00923
 180,-0.01044001,0.50995180,0.00112114,-0.00474239,-0.00107645,-0.02626
 998,-0.00709732,0.00891348,0.00270954,-0.00008684,0.00115561,-0.151688
 98,-0.04137975,0.03037588,-0.00153052,0.00110107,-0.00006915,-0.001770
 81,0.00312379,0.00212041,-0.00034840,0.00083289,-0.00045094,-0.0081022
 6,-0.01199869,0.00831054,-0.00022280,-0.00135488,0.00038810,-0.0016002
 2,0.00076392,-0.00050790,0.00114152,0.00014708,-0.00034689,0.00383308,
 0.00201192,0.00335439,0.00967691,0.01384319,0.00184614,0.49699059,0.00
 073053,-0.00417892,-0.00085895,0.00599758,0.01581248,-0.00120149,0.001
 62385,-0.00102166,-0.00177454,-0.02005375,-0.10020678,0.00519702,-0.00
 110064,0.00125178,0.00018667,0.00355979,-0.00282294,0.00211845,-0.0001
 4259,0.00071745,-0.00007225,-0.03467107,-0.02211737,0.01299296,-0.0000
 6373,-0.00108582,0.00013716,-0.00177558,-0.00050003,-0.00048559,0.0008
 7952,0.00039450,-0.00021787,0.00378263,-0.00364877,0.00203110,-0.00803
 102,-0.01489695,-0.02377966,-0.09706689,0.56638333,-0.00006227,-0.0001
 9960,-0.00206830,-0.00070609,0.00289035,-0.00042416,-0.00043945,0.0008
 4459,0.00105734,0.05345479,0.02269730,-0.07729968,0.00002790,-0.000145
 74,0.00025858,-0.00036487,0.00017517,0.00413306,0.00038049,-0.00069162
 ,0.00011069,0.00654616,0.00678804,0.00397468,0.00027057,0.00029298,-0.
 00003351,-0.00017445,-0.00100168,-0.00061854,-0.00042130,0.00029465,-0
 .00000224,0.00031718,0.00055855,0.00631522,-0.00865558,-0.01167714,0.0
 0603818,0.01068985,-0.00568469,0.48538957,-0.02347421,-0.00742158,0.01
 339629,0.00087324,-0.00462520,-0.00115805,-0.00170923,0.00291582,0.001
 79088,-0.00144064,0.00134462,-0.00005595,-0.13216957,-0.03448577,0.041
 47910,0.00257229,-0.00013885,0.00184705,-0.00175998,0.00046756,-0.0000
 8657,-0.00042668,-0.00144266,0.00030715,0.00041202,-0.00753864,0.00900
 812,-0.00023322,0.00089302,-0.00024863,0.00401582,0.00355307,0.0025888
 5,0.00131075,0.00019938,0.00000413,-0.00004484,-0.00039267,0.00022195,
 0.00005573,0.00015010,0.00003095,0.50211070,0.00328019,0.01589171,-0.0
 0185554,0.00121031,-0.00476607,-0.00168530,0.00384349,-0.00253926,0.00
 245471,-0.00155037,0.00205000,-0.00001726,-0.02144414,-0.10528036,0.01
 321036,0.00142895,-0.00115063,-0.00049930,-0.00174393,-0.00042623,-0.0
 0031285,-0.00061436,-0.00180213,0.00025594,-0.02953433,-0.02323739,0.0
 2007044,-0.00092406,0.00153447,-0.00050558,0.00462768,-0.00309304,0.00
 183286,0.00179785,0.00021347,-0.00017907,0.00029309,0.00112119,0.00040
 026,0.00017863,0.00008297,-0.00000883,-0.08366998,0.54624933,0.0005270
 4,0.00232469,-0.00185566,-0.00068871,0.00027693,-0.00229035,0.00116958
 ,0.00169560,0.00348502,0.00035900,-0.00054516,0.00064547,0.06125397,0.
 02799286,-0.10009066,-0.00048137,-0.00094164,-0.00164411,0.00102062,-0
 .00291168,-0.00007908,0.00073414,0.00085354,-0.00003248,0.00875887,0.0
 1250088,-0.00154847,0.00101419,-0.00131714,0.00049291,-0.00159124,0.00
 054023,0.00550553,-0.00119162,0.00050610,0.00016853,-0.00004223,0.0006
 1755,0.00022513,0.00015712,0.00013346,0.00000533,-0.02598125,0.0166722
 8,0.48445296,0.00061589,0.00558336,0.00089304,-0.02384260,0.00211992,-
 0.00867048,-0.00133436,-0.00204687,0.00061378,-0.00132873,-0.00223133,
 -0.00182069,0.00230746,0.00042313,-0.00267377,-0.15677873,0.03254254,-
 0.03255931,-0.00107365,0.00174280,-0.00031622,-0.00202360,-0.00146189,
 0.00047451,-0.00030264,-0.00147637,0.00055583,-0.01003488,0.01340593,-
 0.01005305,0.00183843,0.00016609,-0.00022758,0.00507506,-0.00187811,-0
 .00302773,0.00006472,-0.00002602,-0.00014716,-0.00021090,0.00054152,-0
 .00010186,0.00737437,-0.01355357,-0.00707820,0.48787651,-0.00064090,-0
 .00394195,-0.00118555,-0.01017030,0.01576554,-0.00190269,0.00089506,0.
 00197369,-0.00035583,-0.00302680,-0.00403590,0.00179788,-0.00108705,-0
 .00170493,-0.00091874,0.01818327,-0.09786593,0.00296034,0.00083537,-0.
 00152424,0.00024905,0.00162486,0.00013354,-0.00058215,0.00063409,0.001
 67483,-0.00072278,0.03553146,-0.01890629,0.01236290,-0.00171450,-0.000
 07931,0.00010685,-0.00350146,-0.00418600,0.00137814,-0.00007809,-0.000
 07660,0.00015975,-0.00068885,0.00099598,0.00063128,0.01110332,-0.00652
 141,-0.02539717,0.07698619,0.57206382,0.00020782,-0.00033808,-0.002622
 62,0.00157721,0.00182002,-0.00042810,-0.00014172,-0.00028618,0.0006671
 1,-0.00060447,0.00132315,0.00430852,0.00002396,-0.00097272,-0.00108965
 ,-0.05396851,0.01361432,-0.08260146,-0.00076846,0.00052563,0.00013837,
 -0.00005626,-0.00238567,-0.00038228,-0.00068081,-0.00127712,0.00059976
 ,-0.00732939,0.00782542,0.00353854,0.00090447,0.00071176,-0.00008447,0
 .00100077,0.00042758,0.00608763,-0.00003154,0.00004325,-0.00000581,-0.
 00000126,0.00062832,0.00034147,0.00879598,-0.02178517,-0.00483571,0.02
 276427,0.01149841,0.47375998,-0.00009938,0.00143458,-0.00041656,-0.001
 22453,-0.00205207,0.00018836,-0.01360464,0.02289116,0.00176468,-0.0239
 2446,-0.02346935,-0.01182576,0.00077411,-0.00121187,0.00002778,0.00087
 882,0.00187151,0.00046079,-0.00125174,-0.00244110,0.00298265,0.0018539
 5,0.00360125,-0.00172486,0.00092166,0.00171036,-0.00044291,0.00152089,
 -0.00219097,0.00020986,-0.00160964,0.00080502,-0.00026545,-0.00288316,
 -0.00035576,0.00041939,-0.09315231,0.02628849,0.00608048,-0.08050106,-
 0.01478676,-0.01967079,0.00022603,0.00000311,-0.00010268,0.00027062,0.
 00005142,0.00007904,0.77860007,-0.00161658,0.00429212,-0.00064881,0.00
 318550,0.00250176,-0.00054748,0.00853779,0.00425040,0.00938960,-0.0181
 5627,-0.01481233,0.00198449,-0.00032663,-0.00070925,-0.00108430,0.0002
 3491,-0.00092877,-0.00062441,-0.00358542,0.00107356,-0.00412280,0.0002
 6398,0.00176200,-0.00106689,-0.00155268,-0.00034597,0.00037765,0.00162
 308,0.00018319,-0.00006568,0.00121861,-0.00012060,0.00011814,-0.000889
 73,-0.00111383,0.00093891,0.03361923,-0.16650603,-0.02469325,-0.012898
 44,-0.14215559,-0.05830190,-0.00032035,-0.00028246,-0.00043517,0.00015
 418,0.00005698,-0.00035302,-0.13288768,0.47292205,-0.00023758,0.003144
 50,0.00098493,0.00221141,-0.00040986,-0.00072271,-0.00218282,0.0150540
 3,-0.00078606,-0.01207315,0.00505112,0.01945150,0.00029063,-0.00150506
 ,-0.00039664,0.00067787,0.00068784,-0.00133310,-0.00427083,0.00056877,
 -0.00011776,0.00706346,0.00432849,-0.00328401,0.00011064,0.00095067,-0
 .00023302,0.00204039,-0.00090578,0.00026752,-0.00104120,0.00051988,-0.
 00015509,-0.00279068,0.00023979,-0.00118599,0.01299802,-0.03051629,-0.
 08757712,-0.00874501,-0.04757390,-0.12957508,-0.00006768,-0.00012311,-
 0.00025654,0.00024638,-0.00009626,-0.00022412,0.29814310,0.04459482,0.
 46762771,-0.00158457,-0.00438688,0.00087807,-0.00199083,0.00417079,-0.
 00048734,0.00114488,0.00322750,-0.00024580,0.00135334,-0.00303285,-0.0
 0045168,-0.02473244,-0.02164919,-0.00042215,-0.02848506,0.02052230,0.0
 0923035,0.00315734,-0.00332148,0.00014671,0.00235268,0.00363392,-0.000
 31683,0.00274081,0.00620593,-0.00446359,0.00309416,-0.00569402,0.00314
 053,-0.00500231,-0.00093950,0.00126018,-0.00491178,0.00035929,-0.00071
 029,-0.00006141,-0.00002732,0.00019168,0.00039814,0.00012583,0.0000880
 8,-0.08503958,-0.01760653,-0.02038179,-0.08417396,0.01569688,0.0203094
 9,-0.00123452,0.00017791,-0.00086434,0.97870674,0.00190674,0.00204547,
 -0.00211875,-0.00271117,0.00216582,-0.00183488,0.00003911,-0.00097260,
 -0.00031994,0.00027549,-0.00111453,-0.00050487,-0.01536433,-0.01492371
 ,0.00410148,0.01384904,-0.01011771,0.00165391,0.00138169,0.00030537,-0
 .00038891,-0.00121544,0.00045358,-0.00014750,-0.00047662,0.00249426,-0
 .00172613,0.00039958,0.00177407,-0.00107800,-0.00060253,-0.00095794,0.
 00122466,0.00037241,-0.00095504,0.00096396,-0.00000145,-0.00004409,-0.
 00026962,-0.00020896,-0.00017451,-0.00009498,-0.02247253,-0.12813092,-
 0.04494074,0.02003898,-0.12163804,-0.04694532,-0.00015117,0.00109890,0
 .00056755,0.06274981,0.36634217,0.00179420,0.00274240,-0.00052164,-0.0
 0183665,0.00142341,-0.00028030,0.00038245,-0.00108712,-0.00142536,-0.0
 0068812,-0.00024063,-0.00152753,0.00106596,0.01033747,0.02060636,0.006
 64282,0.00603811,0.02003287,0.00128299,0.00064208,-0.00038316,-0.00197
 538,-0.00046286,0.00002772,0.00441556,0.00244427,-0.00370460,-0.006263
 01,0.00317680,-0.00345877,-0.00101199,-0.00026097,-0.00082745,0.002057
 98,-0.00005957,-0.00090832,-0.00002159,-0.00008401,-0.00034395,-0.0002
 9042,-0.00017449,-0.00013655,-0.01907775,-0.04498056,-0.12155029,0.018
 19577,-0.04505863,-0.13026064,0.00007930,0.00109485,0.00074907,-0.0698
 0441,0.11860475,0.37025954,0.00022349,-0.00055822,-0.00026254,-0.00068
 887,0.00070603,0.00100008,0.00390832,0.00610664,0.00215161,0.00655135,
 0.00245503,-0.00411705,-0.00017565,0.00051650,-0.00040909,0.00018556,-
 0.00047801,0.00022323,-0.00335162,0.00051073,-0.00152411,-0.00175750,-
 0.00121353,0.00098411,-0.00053431,-0.00050537,0.00023134,-0.00069086,0
 .00025799,-0.00012565,0.00072911,0.00045850,-0.00043876,0.00086457,-0.
 00005490,0.00021418,-0.03248007,0.02875335,-0.01538554,-0.02985854,-0.
 00405004,-0.03347360,-0.00012596,-0.00009915,-0.00008543,-0.00010550,0
 .00004824,0.00002432,-0.57931217,0.11695691,-0.28138799,0.00098096,0.0
 0013331,-0.00001493,0.63906030,0.00054393,-0.00170613,0.00028500,-0.00
 055396,-0.00081768,0.00002049,-0.00094653,-0.00661499,-0.00356401,0.00
 046010,0.00183819,-0.00174013,0.00013666,0.00036430,0.00056679,-0.0001
 9286,0.00029065,0.00033472,0.00286405,0.00002785,0.00113241,0.00049219
 ,-0.00043486,0.00042052,0.00052384,-0.00000316,-0.00014445,-0.00048735
 ,0.00000267,-0.00000565,-0.00032246,-0.00027319,0.00028763,0.00015373,
 0.00054442,-0.00018668,0.04290033,-0.00415687,0.01716725,-0.01858434,0
 .01961984,-0.01531638,0.00014835,0.00011652,0.00020413,-0.00005994,0.0
 0004563,0.00014720,0.11830260,-0.12154504,0.04942288,-0.00021142,-0.00
 045811,-0.00044948,-0.14291630,0.10699911,-0.00010731,-0.00141249,-0.0
 0035874,-0.00148283,-0.00023171,0.00103809,0.00080084,-0.00023614,0.00
 272754,0.00345595,-0.00049125,-0.00813155,-0.00003708,0.00050450,-0.00
 014413,-0.00000372,0.00002720,0.00063437,0.00008811,-0.00013829,-0.000
 15509,-0.00228287,-0.00074120,0.00080029,-0.00012364,-0.00021729,0.000
 12651,-0.00068220,-0.00009187,-0.00009064,0.00024989,0.00008137,-0.000
 27196,0.00057082,-0.00013408,0.00046916,-0.00942422,0.00893979,0.01311
 243,-0.04547369,-0.00635661,-0.00466649,0.00000597,0.00002833,0.000048
 41,-0.00011614,0.00003348,0.00010529,-0.28180462,0.04775369,-0.2335732
 5,0.00058850,-0.00021453,-0.00031143,0.33654146,-0.04962611,0.22549956
 ,-0.00093468,0.00147520,0.00134143,-0.00084106,-0.00167661,-0.00119541
 ,0.00010828,-0.00076900,0.00061081,0.00002748,0.00096418,-0.00046791,0
 .00425506,0.00073724,-0.00908992,0.00578808,-0.00088819,0.00742656,-0.
 00122675,0.00049831,-0.00000806,-0.00114002,-0.00077125,0.00018311,-0.
 00240104,-0.00183195,0.00208430,-0.00270071,0.00170718,-0.00159660,0.0
 0162811,0.00006161,0.00005387,0.00165332,0.00012709,-0.00026371,0.0001
 2667,0.00011171,-0.00003468,-0.00021075,-0.00013708,-0.00013135,-0.048
 63010,-0.02054250,-0.00678600,-0.04712302,0.00892393,0.01995540,0.0009
 4331,-0.00016509,0.00066079,-0.76213435,-0.05697181,0.06711785,-0.0008
 3849,0.00019359,-0.00049431,0.85297889,-0.00074001,-0.00091635,0.00086
 567,0.00076037,-0.00092489,0.00053205,0.00000290,0.00043101,0.00035518
 ,-0.00001513,0.00040195,0.00032691,-0.00110892,0.00105755,-0.00356048,
 0.00103320,0.00133275,-0.00230632,-0.00038569,-0.00027340,0.00012479,0
 .00032038,-0.00021534,0.00004344,0.00026905,-0.00036594,0.00068318,-0.
 00050141,-0.00027915,0.00045755,-0.00002225,0.00035056,-0.00009112,0.0
 0009952,0.00040038,-0.00010789,0.00000882,0.00006369,0.00009762,0.0000
 7653,0.00010595,0.00003654,-0.03114806,0.01064338,-0.00434805,0.019886
 72,0.01750607,-0.00708298,0.00009911,-0.00045980,-0.00020149,-0.057290
 63,-0.09368960,-0.01379569,-0.00009395,0.00019989,0.00006019,0.0685003
 8,0.06285070,-0.00055271,-0.00152228,0.00020957,0.00095639,-0.00099089
 ,0.00035752,-0.00024933,0.00056539,0.00044789,0.00022290,0.00029696,0.
 00063431,-0.00092230,-0.00182846,-0.00511688,-0.00095708,-0.00130122,-
 0.00695731,-0.00026200,-0.00029906,0.00011831,0.00059218,-0.00002129,-
 0.00002106,-0.00125768,-0.00005660,0.00063863,0.00196646,-0.00028957,0
 .00075173,0.00007095,0.00002217,0.00030068,-0.00044090,-0.00003888,0.0
 0037510,-0.00000826,-0.00000240,0.00012976,0.00013624,0.00005881,0.000
 05309,-0.02229966,-0.00693823,0.02073797,0.03599746,-0.00534759,0.0127
 8391,-0.00008618,-0.00042752,-0.00033619,0.06696134,-0.01313652,-0.090
 17726,0.00005728,0.00016602,0.00015883,-0.07980300,0.02534289,0.060670
 92,0.00055867,0.00130943,-0.00021786,0.00020425,0.00027490,0.00013701,
 0.00375988,0.00393724,-0.00114272,-0.00003089,-0.00006163,0.00000836,0
 .00015914,0.00076879,-0.00046219,0.00002039,0.00001596,0.00000370,-0.2
 2960423,-0.13275784,0.02812142,-0.00000846,-0.00000267,-0.00001492,-0.
 00404011,0.00399281,-0.00091985,0.00004531,0.00000853,-0.00000629,-0.0
 1905050,-0.02013210,0.00424743,0.00000202,-0.00003952,0.00000738,0.000
 41429,0.00302647,-0.00094256,0.00000224,-0.00000242,0.00007900,0.00001
 923,-0.00011214,0.00007981,-0.00001262,0.00001103,-0.00001936,0.000352
 56,0.00008506,-0.00029717,0.00015011,0.00009317,0.00008890,-0.00003463
 ,-0.00007894,0.00008095,-0.00009796,-0.00004606,-0.00002435,0.24672662
 ,0.00366469,-0.00397098,0.00188177,-0.00135346,-0.00000117,0.00004477,
 -0.02417235,-0.01759635,0.00450956,-0.00026856,-0.00001753,0.00009645,
 0.00034500,0.00030962,-0.00027043,0.00024869,-0.00041899,-0.00007268,-
 0.13235086,-0.15343220,0.02860238,0.00009254,0.00001543,-0.00001841,0.
 00241956,-0.00039572,0.00131834,-0.00010334,-0.00000360,-0.00003318,0.
 01231001,0.01041530,-0.00188052,-0.00000807,-0.00002334,0.00000225,-0.
 00234686,-0.00009317,-0.00106338,-0.00003101,0.00015897,0.00015451,-0.
 00013248,0.00006117,-0.00010667,0.00000933,0.00000681,0.00000162,0.000
 57077,-0.00039850,-0.00047181,0.00009476,-0.00000616,-0.00000863,-0.00
 011330,0.00013219,0.00011796,-0.00008124,-0.00000430,0.00000242,0.1394
 1478,0.16435959,0.00266367,0.00329908,0.00475534,0.00085569,-0.0000427
 1,0.00050162,0.00456234,-0.00421797,0.00368702,0.00008707,0.00006892,-
 0.00002507,-0.00228198,0.00316975,-0.00151149,-0.00013609,0.00024992,-
 0.00009418,0.02175014,0.03365786,-0.04170471,-0.00003879,-0.00011147,0
 .00000500,-0.00128914,-0.00041141,0.00690729,0.00009217,0.00010709,-0.
 00003274,0.00289542,-0.00256525,0.00249289,0.00009177,0.00000774,0.000
 01488,0.00160195,-0.00085776,-0.00369258,-0.00000076,-0.00017285,-0.00
 005497,-0.00047730,-0.00030339,-0.00036085,-0.00011849,0.00005815,-0.0
 0014576,0.00003254,-0.00025262,0.00022092,0.00023726,0.00007420,0.0002
 2606,0.00001316,-0.00006874,-0.00000949,-0.00010370,-0.00005104,-0.000
 06781,-0.02956943,-0.03189879,0.03170922,-0.00004040,-0.00028855,-0.00
 012709,0.00087507,-0.00020411,0.00056717,-0.00002391,0.00002652,-0.000
 03166,-0.00005649,-0.00212493,0.00096115,0.00002049,0.00007898,-0.0000
 3514,0.00050150,-0.00029721,0.00010943,-0.00000001,0.00000516,0.000018
 65,-0.27718114,0.11723833,0.00922093,0.00001585,-0.00000619,0.00001944
 ,-0.00239897,-0.00436657,0.00165123,-0.00000332,0.00003792,-0.00001007
 ,-0.01917678,0.01447457,-0.00006920,-0.00001500,-0.00004299,-0.0000939
 6,0.00060980,-0.00226449,0.00029016,0.00000380,0.00000420,-0.00000382,
 0.00003715,0.00005631,-0.00012881,0.00013208,-0.00010952,-0.00007113,0
 .00010363,-0.00004825,-0.00006912,-0.00000406,-0.00002357,0.00012584,-
 0.00007377,0.00002020,0.00002725,0.00000887,0.00001268,-0.00000349,0.2
 9578418,0.00146134,0.00014738,-0.00028862,-0.00225579,-0.00488076,0.00
 143845,0.00018514,0.00006701,0.00009079,0.02793905,-0.01318900,-0.0005
 5302,-0.00017938,-0.00049409,0.00000927,-0.00058717,-0.00030286,0.0000
 2211,-0.00008312,-0.00000117,-0.00001520,0.11482162,-0.11490474,0.0020
 1292,0.00012186,0.00000588,-0.00004485,-0.00284694,-0.00152157,0.00126
 506,0.00000624,-0.00001779,-0.00000098,-0.01705187,0.01150827,0.000354
 37,0.00009028,0.00018013,0.00010339,0.00213932,-0.00041137,-0.00155515
 ,-0.00002330,0.00000067,0.00002454,0.00007267,0.00012913,-0.00011045,0
 .00004234,-0.00057451,0.00013737,-0.00003931,-0.00004642,-0.00004337,-
 0.00017671,0.00043515,-0.00017637,0.00004352,0.00002043,0.00000607,-0.
 00000973,-0.00003497,0.00000643,-0.12191091,0.12257903,-0.00053269,-0.
 00008607,0.00055857,-0.00261686,0.00195925,0.00564815,-0.00006275,0.00
 003686,0.00000238,-0.00052058,-0.00426132,0.00289743,0.00003519,0.0001
 6601,-0.00011019,0.00110360,0.00308414,-0.00130093,0.00004976,-0.00008
 794,0.00001526,0.01306846,0.00616083,-0.03679470,-0.00008872,0.0000834
 8,-0.00003110,0.00220048,0.00043142,0.00657261,-0.00007753,-0.00001071
 ,0.00002610,0.00053611,-0.00426360,0.00269906,0.00006296,-0.00003982,-
 0.00016029,-0.00309823,-0.00010544,-0.00362241,0.00007425,0.00006914,-
 0.00014420,0.00048307,-0.00019964,-0.00053139,0.00020274,-0.00048711,0
 .00069393,-0.00018397,0.00002093,0.00025466,-0.00023969,0.00022038,-0.
 00042677,0.00009486,-0.00003198,-0.00008546,0.00000153,0.00000342,0.00
 000551,-0.01140441,-0.00267736,0.02655699,0.00057373,0.00063270,0.0013
 4847,-0.00024441,-0.00030783,-0.00002442,0.00066956,0.00037077,-0.0002
 9724,0.00004876,0.00013475,-0.00002670,-0.00157946,-0.00192737,0.00191
 934,-0.00006160,0.00001888,-0.00006037,-0.00092565,-0.00383261,0.00334
 071,-0.00001010,0.00000519,0.00000637,-0.28272490,0.10562100,0.0426615
 8,0.00001518,-0.00000759,0.00000502,-0.01801473,0.01150908,0.00230465,
 -0.00001045,0.00003542,-0.00000243,0.00001252,0.00002734,-0.00013055,0
 .00002120,0.00000737,-0.00001053,-0.00001301,-0.00201048,-0.00003699,0
 .00003435,-0.00003323,-0.00008841,0.00009635,-0.00009030,-0.00001776,0
 .00014958,0.00001700,0.00008273,-0.00009467,0.00005463,-0.00002839,0.0
 0005305,0.00000359,0.00000026,-0.00085585,0.00048307,-0.00014823,-0.00
 000504,0.00001556,-0.00000502,0.30113988,-0.00196239,-0.00453101,0.002
 47477,0.00145011,-0.00003512,-0.00032700,-0.00043692,-0.00006877,0.000
 06319,-0.00025789,-0.00041865,-0.00009472,0.02865892,-0.01145328,-0.00
 427515,0.00026195,0.00003750,0.00015076,-0.00230661,-0.00157678,0.0025
 5435,0.00011637,-0.00001332,0.00000269,0.10333073,-0.09897933,-0.00957
 942,-0.00008362,-0.00000095,-0.00001628,-0.01852254,0.01085024,0.00276
 195,0.00001610,-0.00001269,-0.00000701,-0.00001655,0.00007968,-0.00017
 809,-0.00000355,0.00002691,0.00000711,0.00121674,-0.00015752,-0.002092
 37,0.00000745,0.00011367,0.00012665,-0.00004076,-0.00006574,-0.0000722
 7,0.00002879,-0.00069002,-0.00011593,0.00002090,0.00001460,0.00003509,
 -0.00025346,0.00023712,0.00000361,-0.00083104,0.00023793,-0.00020342,0
 .00000747,-0.00004609,0.00002881,-0.10996574,0.10550385,-0.00229920,0.
 00257432,0.00558424,-0.00056953,0.00002276,0.00060323,0.00058818,0.003
 02332,-0.00154572,0.00005549,0.00011080,-0.00003949,-0.00191085,-0.003
 36417,0.00364712,-0.00008763,0.00014085,-0.00005025,0.00353681,0.00248
 970,0.00524511,-0.00005176,0.00011616,-0.00006288,0.04639521,-0.005254
 47,-0.04637996,0.00004690,-0.00014969,0.00001732,0.00639442,-0.0071649
 8,0.00222566,-0.00012710,-0.00000073,0.00001103,0.00015445,-0.00044372
 ,-0.00048454,0.00010751,0.00003025,-0.00004640,-0.00347978,0.00003937,
 -0.00271125,0.00002300,-0.00011866,-0.00012674,-0.00015153,0.00012750,
 0.00006350,-0.00000402,-0.00042229,0.00054998,0.00009279,-0.00007893,0
 .00001782,-0.00024110,-0.00001935,-0.00024419,0.00097195,-0.00033794,0
 .00080546,-0.00000115,0.00002495,-0.00002454,-0.04908740,0.00889128,0.
 03647334,0.00002726,0.00034827,0.00015752,0.00059084,0.00056517,-0.000
 82074,0.00001988,-0.00006039,0.00004178,0.00044654,0.00029941,-0.00006
 627,0.00000660,0.00001064,0.00003740,0.00225929,0.00335592,-0.00081098
 ,0.00000579,0.00002120,-0.00002329,-0.00293686,0.00428268,-0.00199678,
 -0.00000310,-0.00002147,0.00000477,-0.25547296,-0.12810321,-0.01437967
 ,0.00002334,-0.00003062,0.00000569,-0.01932290,-0.01709042,-0.00043081
 ,0.00001112,0.00000211,-0.00001730,0.00003200,-0.00004770,0.00015331,0
 .00004292,0.00000045,0.00005127,0.00034729,0.00227713,-0.00010210,0.00
 007355,0.00006879,0.00009143,0.00016175,0.00006287,-0.00000866,-0.0000
 5247,-0.00002850,-0.00004402,0.00004778,-0.00002601,-0.00005848,-0.000
 00431,-0.00000614,-0.00000196,-0.00096126,-0.00079520,0.00042341,0.000
 00883,-0.00000832,0.00000204,0.27296293,-0.00149703,-0.00020525,-0.000
 19209,0.00263195,-0.00448396,0.00134506,0.00029680,-0.00037000,-0.0001
 3377,0.00070199,-0.00030550,0.00003315,-0.00024528,-0.00002152,0.00019
 607,-0.02681888,-0.01485938,-0.00144085,-0.00010153,-0.00004395,0.0000
 2677,0.00272285,-0.00088560,0.00112223,0.00008095,0.00003052,-0.000026
 82,-0.12603975,-0.13532640,-0.00190549,-0.00003152,-0.00002701,-0.0000
 0184,0.01445185,0.01152549,0.00065236,0.00004215,0.00000848,0.00001989
 ,-0.00008287,0.00010242,-0.00009839,-0.00000098,0.00013820,0.00015833,
 -0.00185089,-0.00018727,-0.00162206,0.00006046,-0.00004775,0.00000484,
 0.00008440,-0.00061191,-0.00018291,-0.00004503,0.00003452,-0.00002550,
 0.00019490,0.00027192,-0.00001436,0.00000061,-0.00004487,0.00004134,0.
 00068306,0.00034999,-0.00031119,0.00001550,-0.00003587,-0.00000049,0.1
 3404312,0.14382775,0.00053844,0.00007046,0.00053574,0.00242616,0.00210
 262,0.00567648,-0.00012320,0.00006083,-0.00007498,-0.00121229,0.002946
 87,-0.00125214,0.00004312,0.00017494,-0.00005492,0.00081152,-0.0042115
 8,0.00296800,0.00000714,0.00011470,-0.00007831,-0.00240397,0.00040059,
 0.00652577,-0.00002158,-0.00016906,0.00003397,-0.01860572,0.00181379,-
 0.03739800,0.00013390,0.00002487,-0.00001292,-0.00045241,-0.00461083,0
 .00270628,-0.00009824,-0.00006420,-0.00008738,-0.00049593,-0.00030077,
 -0.00062293,-0.00003112,-0.00009554,-0.00013754,0.00285547,0.00046302,
 -0.00345211,0.00015530,0.00008409,0.00029081,0.00008825,-0.00049554,0.
 00050485,-0.00005266,-0.00005189,-0.00010180,0.00021919,0.00005778,-0.
 00027716,0.00000097,0.00002093,-0.00002531,-0.00041788,-0.00035273,0.0
 0072958,-0.00000110,0.00000016,0.00000810,0.01705783,0.00190750,0.0271
 5950,-0.00110510,-0.00022217,0.00017901,0.00014314,-0.00004128,-0.0001
 9286,-0.00497450,0.00080515,-0.00025767,-0.00010616,-0.00007528,0.0000
 8452,-0.00289227,-0.00193799,0.00306839,-0.00004724,0.00007611,-0.0000
 2858,0.00121402,0.02925758,-0.00724755,0.00004450,0.00003486,-0.000012
 05,0.00879189,-0.02424283,0.00529867,0.00004756,-0.00004033,0.00001628
 ,-0.06563123,0.03952799,-0.00661230,-0.00004600,0.00000327,-0.00000568
 ,0.00014095,0.00137488,0.00021329,0.00007341,0.00006886,-0.00001052,0.
 00024042,-0.00110040,-0.00009545,0.00004631,-0.00002487,-0.00001118,-0
 .00026654,-0.00037011,-0.00039172,0.00005630,0.00009424,0.00043912,-0.
 00021071,0.00026914,0.00002596,-0.00014642,-0.00004125,-0.00014701,0.0
 0104472,-0.00044923,-0.00002334,0.00000042,-0.00000567,-0.00000211,0.0
 0064946,0.00026691,-0.00109842,0.00000262,0.00000563,0.00000366,0.0630
 9052,-0.00013220,0.00053734,-0.00014578,-0.00003484,-0.00002688,-0.000
 31978,0.00179115,0.00168863,0.00173947,-0.00003395,-0.00002379,-0.0000
 1054,-0.00234574,0.00095051,0.00271659,0.00001734,-0.00002769,0.000004
 05,-0.00174546,-0.00728441,0.00246863,0.00001177,-0.00000090,0.0000091
 1,0.00574949,-0.01240683,0.00280666,-0.00000664,-0.00001215,0.00000564
 ,0.03991654,-0.31612818,0.07420634,-0.00000770,0.00000487,-0.00000794,
 -0.00004303,-0.00074965,-0.00006340,0.00000186,-0.00002152,-0.00001041
 ,0.00020420,-0.00081917,-0.00011409,0.00001198,-0.00000548,-0.00005267
 ,-0.00013321,0.00041828,0.00017424,0.00027356,0.00020540,0.00044331,0.
 00024684,-0.00021263,0.00002205,-0.00025552,-0.00008572,-0.00013483,0.
 00025565,0.00050832,-0.00119972,0.00000536,-0.00000356,0.00000266,-0.0
 0053246,0.00049817,-0.00118347,-0.00000570,-0.00000482,0.00000391,-0.0
 4310958,0.33317803,0.00045825,-0.00015211,-0.00024894,-0.00018403,-0.0
 0037524,-0.00107565,-0.00073757,0.00011301,0.00681519,-0.00016653,-0.0
 0000776,0.00009012,0.00408540,0.00154876,0.00554857,0.00016720,-0.0000
 4753,0.00011940,-0.00125588,0.00041424,0.00244743,-0.00001182,0.000002
 68,0.00001299,-0.00182305,0.00920313,0.00044714,0.00000664,-0.00005065
 ,0.00002897,-0.00610296,0.07259342,-0.05497802,-0.00002845,0.00000810,
 -0.00002337,0.00038835,-0.00042931,0.00013331,0.00005441,0.00005134,0.
 00000271,-0.00050941,0.00023507,0.00027588,-0.00004226,0.00009203,-0.0
 0004997,-0.00033700,0.00034037,0.00003499,0.00028241,0.00004613,-0.000
 04609,0.00016160,-0.00010371,0.00000261,-0.00000081,-0.00001036,0.0000
 5150,0.00007780,-0.00089962,-0.00338217,-0.00000414,0.00000136,0.00000
 016,-0.00119078,-0.00115531,-0.00303757,0.00000061,-0.00000558,0.00000
 207,0.00674947,-0.08146558,0.04703282,0.00017113,0.00000253,0.00001332
 ,-0.00122250,-0.00006831,-0.00002044,-0.00006948,0.00004657,-0.0000389
 7,-0.00403315,-0.00198657,0.00124168,-0.00005350,-0.00008296,0.0000646
 8,-0.00441501,0.00150102,-0.00157859,0.00005019,-0.00001822,0.00001143
 ,0.00638121,-0.02731907,0.00395830,0.00003669,0.00003410,-0.00001974,0
 .00450994,0.02859890,-0.00406276,-0.00003422,-0.00000590,0.00000910,-0
 .06083251,0.01078709,-0.00227386,0.00004099,-0.00001120,-0.00001358,0.
 00010493,-0.00125714,-0.00005832,0.00005185,0.00004008,0.00000758,0.00
 017909,0.00125530,0.00017366,-0.00003107,0.00016382,0.00047036,-0.0000
 2980,-0.00009938,-0.00050949,-0.00009774,-0.00001640,-0.00020182,-0.00
 015014,0.00001992,0.00020192,0.00000192,0.00000758,0.00000165,0.000931
 24,0.00044370,-0.00038937,0.00000194,-0.00000623,-0.00000350,0.0009320
 3,-0.00042085,0.00053156,0.00000246,-0.00000011,-0.00000264,0.05789237
 ,0.00000188,0.00000855,-0.00019875,-0.00010107,0.00054699,-0.00010890,
 0.00001993,-0.00001486,-0.00001116,-0.00262222,0.00092328,0.00151813,-
 0.00000193,-0.00004132,0.00000256,0.00219835,0.00134434,0.00145232,-0.
 00000293,-0.00000317,0.00001151,0.00399545,-0.01171279,0.00197012,0.00
 001379,0.00000572,-0.00000265,-0.00265818,-0.00970535,0.00157967,-0.00
 000512,0.00000035,-0.00000567,0.01074559,-0.33253578,0.05051872,0.0000
 1959,-0.00000629,-0.00005550,0.00010936,-0.00079296,-0.00008416,-0.000
 01854,-0.00000561,-0.00004234,-0.00011250,-0.00067295,-0.00013815,0.00
 012318,0.00018862,0.00044967,-0.00018721,0.00013928,0.00041189,-0.0001
 6030,-0.00003756,-0.00019739,0.00021282,-0.00003915,-0.00015428,-0.000
 00581,-0.00000453,0.00000409,-0.00026701,0.00068539,-0.00080249,0.0000
 0689,-0.00000337,0.00000279,0.00031378,0.00068348,-0.00075622,0.000001
 76,-0.00000763,0.00000356,-0.01164197,0.35126934,0.00000428,-0.0003313
 8,-0.00107259,-0.00010320,-0.00007516,-0.00039083,0.00018877,0.0000467
 7,0.00013864,0.00201304,0.00033870,0.00677544,-0.00011092,-0.00011037,
 0.00012854,-0.00231252,0.00038222,0.00673568,0.00002259,-0.00001304,-0
 .00000112,0.00066669,0.00362080,0.00203976,-0.00000043,-0.00001672,0.0
 0002435,-0.00060646,0.00397065,0.00195155,-0.00000656,-0.00000653,-0.0
 0002117,-0.00238469,0.04890117,-0.04378851,-0.00004912,0.00002574,-0.0
 0011347,-0.00026942,0.00001043,0.00003864,0.00000263,0.00009867,-0.000
 04838,0.00042303,0.00000359,0.00008624,0.00014979,-0.00001306,0.000068
 29,-0.00030807,0.00004871,0.00014980,-0.00001257,-0.00002820,0.0000443
 2,0.00007591,-0.00002540,-0.00000896,0.00000091,-0.00000347,0.00000153
 ,-0.00053394,-0.00065372,-0.00351061,0.00000077,-0.00000450,0.00000172
 ,0.00069047,-0.00058951,-0.00350822,0.00000191,0.00000463,0.00001179,0
 .00252160,-0.05546157,0.03438427,-0.00409502,0.00298345,-0.00143532,0.
 00002694,0.00056413,0.00005462,-0.01987953,-0.02006041,0.00779790,-0.0
 0036825,-0.00026057,-0.00012888,-0.00013198,-0.00169024,-0.00002405,0.
 00003178,-0.00012617,0.00001459,0.00021136,-0.00295310,-0.00013229,0.0
 0005469,0.00004220,-0.00001596,0.00027008,0.00057434,-0.00017794,0.000
 01960,-0.00000331,-0.00000442,-0.00024961,0.00029588,0.00000279,-0.000
 03091,-0.00004887,0.00003128,-0.13835573,-0.11014400,0.05219069,-0.000
 72273,0.00007332,0.00142788,-0.00014471,0.00033073,0.00012040,0.000036
 50,-0.00002952,0.00000338,0.00932783,0.01019244,-0.00706618,0.00009771
 ,0.00009666,0.00004885,-0.00134380,0.00016463,0.00082015,-0.00006452,-
 0.00003237,-0.00002578,0.00012795,0.00169354,-0.00027402,0.00000860,-0
 .00005615,-0.00001357,0.00004063,0.00005862,-0.00010146,0.00000092,-0.
 00001768,0.00000585,-0.00001754,-0.00000072,-0.00000391,0.00000562,-0.
 00000231,-0.00000354,0.15697191,0.00119592,0.00068617,0.00086773,0.000
 03765,-0.00011749,0.00004124,0.00092166,0.00212222,-0.00194184,0.00039
 911,0.00101969,0.00049999,-0.00012303,0.00007705,0.00002313,0.00004172
 ,0.00001529,-0.00003931,0.00390529,-0.00065381,0.00062610,0.00014059,-
 0.00001244,0.00001041,0.00017036,-0.00019548,-0.00016708,-0.00002009,0
 .00000232,-0.00001577,-0.00005243,0.00024584,-0.00064630,0.00002272,0.
 00004180,-0.00005300,-0.11820610,-0.18318481,0.06810844,0.00333609,-0.
 00103988,-0.00213622,-0.00000668,-0.00000779,-0.00003532,-0.00001932,0
 .00001003,0.00000293,-0.01702971,-0.02468100,0.01117272,0.00004707,0.0
 0000400,0.00000990,0.00142379,0.00323231,-0.00221774,-0.00004523,-0.00
 000499,-0.00000172,0.00094644,0.00009090,0.00102478,0.00000791,0.00003
 253,0.00001936,0.00004303,0.00006738,0.00014367,-0.00000681,-0.0000031
 2,0.00000831,-0.00002010,0.00002380,0.00006375,0.00000756,0.00000228,0
 .00000390,0.12066993,0.19954007,-0.00150741,0.00182780,0.00021895,0.00
 014037,-0.00010047,0.00009690,-0.01123139,-0.01024196,0.00276158,0.000
 25712,0.00031382,0.00013296,-0.00069025,-0.00037878,0.00022233,0.00000
 996,0.00003433,-0.00002201,-0.00096785,-0.00078720,-0.00025915,0.00004
 250,-0.00000319,-0.00004214,-0.00002813,-0.00015439,0.00015751,0.00002
 762,-0.00000926,-0.00002870,0.00014058,-0.00022089,-0.00009963,0.00000
 593,-0.00001531,-0.00001235,0.05385917,0.06377593,-0.06836940,0.001174
 28,-0.00018111,-0.00115811,-0.00012813,0.00018467,0.00005140,-0.000008
 60,-0.00000179,-0.00000637,-0.00347478,-0.00715300,0.00149934,-0.00000
 324,0.00001072,0.00002637,-0.00141963,0.00086596,0.00046035,0.00001275
 ,-0.00000449,-0.00001696,-0.00018292,0.00036471,0.00030665,0.00001139,
 0.00000384,-0.00000036,-0.00000041,0.00000132,-0.00001832,-0.00000059,
 0.00000168,0.00000742,0.00002931,-0.00002709,-0.00005345,0.00000205,0.
 00000575,0.00001208,-0.05510988,-0.07247016,0.07622658,0.00158823,0.00
 165261,-0.00130440,0.00016005,0.00026308,-0.00039071,-0.00702624,-0.00
 271831,-0.02985074,-0.00048804,0.00019355,0.00054346,-0.00020547,0.000
 96214,0.00086594,0.00010164,-0.00017191,-0.00004392,-0.00099629,-0.000
 46402,-0.00051276,0.00010949,-0.00011495,0.00006215,-0.00080213,-0.000
 47750,0.00006508,0.00011322,0.00011408,0.00002913,0.00045538,-0.000080
 16,0.00130316,0.00011484,-0.00012293,-0.00002038,-0.04162987,0.0024477
 5,0.01350298,-0.00019789,0.00165234,-0.00070708,-0.00004346,0.00023132
 ,0.00010511,-0.00003220,0.00006834,-0.00002716,-0.00087053,-0.00115188
 ,0.01411639,0.00014522,-0.00000281,-0.00002726,-0.00002322,0.00122418,
 -0.00163080,-0.00008648,-0.00001005,0.00000875,0.00010382,0.00008363,-
 0.00047769,0.00002829,-0.00005684,0.00001691,-0.00000800,-0.00000428,-
 0.00001197,-0.00000388,-0.00001001,0.00001131,-0.00002568,0.00004048,-
 0.00008222,0.00002272,0.00000807,-0.00002201,-0.00187417,0.00267963,0.
 01926687,0.05127426,-0.00090817,-0.00074593,-0.00003210,-0.00005295,0.
 00073088,0.00006807,0.00218912,0.00060455,0.00383617,0.00065766,-0.000
 12340,-0.00082836,0.00006136,-0.00036512,0.00017667,-0.00036031,-0.000
 44097,0.00014486,0.00116596,-0.00045165,0.00060201,-0.00037042,-0.0005
 0595,0.00026091,0.00037238,0.00024828,-0.00008743,-0.00029485,0.000372
 81,-0.00007415,-0.00052297,-0.00005616,-0.00089438,0.00043652,0.000062
 23,0.00011048,0.00318073,-0.04242553,-0.03680989,0.00075278,-0.0048547
 3,0.00143857,-0.00002943,0.00007356,0.00001275,0.00002052,-0.00002577,
 0.00000315,0.00579414,-0.00853884,-0.03276834,-0.00003879,-0.00005279,
 -0.00004613,-0.00321561,0.00188455,0.00222126,0.00003244,0.00001733,0.
 00001246,-0.00002108,0.00008048,0.00063934,-0.00002061,0.00003353,-0.0
 0005770,0.00003212,0.00003514,0.00007893,0.00000068,0.00000231,-0.0000
 4870,0.00002659,-0.00001833,0.00006058,-0.00000361,-0.00001475,-0.0000
 1350,-0.00254422,0.00339362,0.02464001,-0.00608377,0.05133515,0.001459
 51,0.00127037,0.00065825,0.00000958,-0.00052900,-0.00012681,-0.0052502
 7,0.00015945,-0.01005429,0.00005514,0.00001777,-0.00023813,-0.00065023
 ,0.00069942,0.00003549,0.00010084,0.00000807,0.00000821,-0.00017999,-0
 .00047140,0.00091788,-0.00014106,-0.00017920,0.00016451,-0.00010754,-0
 .00033780,-0.00011022,0.00001326,0.00005000,-0.00001036,-0.00040563,0.
 00011399,0.00063877,0.00012138,-0.00000952,0.00002561,0.01834720,-0.03
 426904,-0.29763949,0.00077130,-0.00104256,0.00034289,0.00001029,0.0000
 5238,0.00005434,-0.00004931,0.00005901,-0.00000639,0.00046111,-0.00197
 353,-0.00743775,0.00008930,-0.00000890,-0.00001299,-0.00121600,0.00125
 510,0.00216651,-0.00004925,0.00000034,0.00000753,-0.00005240,-0.000104
 32,-0.00055421,-0.00000209,-0.00000019,-0.00002000,-0.00003735,-0.0000
 3261,-0.00006184,-0.00000427,0.00000079,-0.00000350,-0.00003694,0.0000
 2872,-0.00002572,-0.00000196,-0.00000868,-0.00002038,0.00145100,-0.001
 56094,-0.01148636,-0.01468382,0.03680185,0.32247941,0.00006937,-0.0001
 2019,0.00003930,-0.00203156,-0.00370860,0.00198137,-0.00029007,0.00015
 664,0.00000823,-0.02047051,0.01780861,0.00616359,0.00018793,-0.0000275
 0,-0.00005072,-0.00050085,0.00130165,-0.00033865,0.00011296,-0.0000884
 2,0.00005625,0.00036243,0.00260890,-0.00072174,0.00005945,0.00012988,0
 .00000430,0.00029453,-0.00015671,0.00019154,-0.00012116,0.00001941,0.0
 0001455,-0.00005995,-0.00034562,-0.00021630,-0.00094768,-0.00129380,-0
 .00207461,-0.16030800,0.13034192,0.03884839,-0.00001725,-0.00000391,-0
 .00002481,-0.00011212,-0.00037951,-0.00016124,0.00986819,-0.01230610,-
 0.00399055,0.00011217,-0.00001235,-0.00001373,0.00087559,0.00035783,0.
 00173273,-0.00007210,-0.00000722,0.00001686,0.00001309,0.00003762,-0.0
 0000772,0.00073531,-0.00123522,0.00050768,-0.00000897,0.00001284,-0.00
 001273,0.00004589,-0.00005624,0.00009545,0.00000428,0.00000251,-0.0000
 0459,-0.00000362,0.00000444,0.00000596,0.00009297,-0.00013846,-0.00001
 699,0.00024483,-0.00058942,-0.00015591,0.17567349,-0.00000291,-0.00018
 741,0.00010884,-0.00167196,-0.00167833,0.00107626,-0.00087363,0.000481
 99,-0.00026660,-0.01037290,0.00974398,0.00393916,0.00004281,0.00002229
 ,0.00004537,-0.00052039,0.00024728,-0.00015628,0.00007422,0.00006541,0
 .00003137,-0.00379361,-0.00045375,0.00130899,0.00008053,-0.00000001,-0
 .00001281,-0.00023279,0.00016173,-0.00002103,-0.00001193,0.00004970,-0
 .00000834,0.00015981,0.00042488,0.00016040,-0.00186319,-0.00104301,-0.
 00329410,0.13126962,-0.19332689,-0.04320621,0.00000880,0.00000824,0.00
 003500,-0.00008697,-0.00019663,-0.00015640,0.01638653,-0.01932585,-0.0
 0381025,0.00000676,-0.00007959,-0.00006516,-0.00089244,0.00366790,0.00
 276638,0.00004114,0.00002962,0.00002590,0.00000522,0.00004164,-0.00000
 137,-0.00051503,-0.00026821,0.00041494,0.00000861,-0.00000018,-0.00001
 407,0.00001324,0.00000184,-0.00003530,0.00001723,-0.00001718,-0.000006
 57,0.00004536,0.00001387,-0.00002263,0.00001944,-0.00041139,-0.0001699
 0,0.00026318,-0.00107725,-0.00030669,-0.13574243,0.21324665,-0.0001367
 3,0.00031346,0.00001306,0.00084891,0.00162691,0.00016060,-0.00050594,0
 .00065304,0.00025566,0.00796505,-0.00796193,-0.00314577,0.00023353,-0.
 00019828,-0.00001451,0.00044019,-0.00030320,0.00046088,0.00023152,-0.0
 0028081,0.00019424,0.00080632,-0.00085684,-0.00003868,0.00003632,0.000
 23592,-0.00007324,0.00006640,-0.00016485,0.00001937,-0.00026173,-0.000
 05464,0.00006350,-0.00037265,0.00002931,-0.00014986,-0.00326029,-0.002
 42407,-0.00074473,0.03665642,-0.03989001,-0.06457797,-0.00000873,-0.00
 001097,-0.00001637,0.00008554,0.00022775,0.00001179,0.01654966,-0.0191
 2640,-0.00505965,-0.00001589,-0.00000464,0.00000076,0.00034128,0.00334
 134,0.00190760,0.00000114,-0.00000179,-0.00000789,0.00000008,0.0000243
 9,-0.00002247,0.00004149,0.00092858,0.00014584,0.00000412,0.00000253,-
 0.00000912,-0.00004430,0.00003147,0.00001037,0.00000020,-0.00000174,-0
 .00000319,-0.00001409,-0.00002000,-0.00004334,0.00030660,-0.00088506,-
 0.00042179,0.00011281,-0.00021528,-0.00010406,-0.04324377,0.04615481,0
 .06303472,-0.00008899,-0.00100466,0.00037518,0.00105724,-0.00005629,0.
 00116252,0.00070203,-0.00047292,-0.00018310,0.00155246,-0.01600429,0.0
 2494848,-0.00049413,0.00045076,-0.00011012,0.00025088,-0.00069078,-0.0
 0059809,-0.00029400,0.00067317,-0.00016726,-0.00281573,-0.00033384,0.0
 0061606,-0.00012013,-0.00048527,0.00009527,-0.00036008,0.00007436,0.00
 011603,0.00053076,0.00005377,-0.00007531,0.00009137,-0.00059066,-0.001
 16783,-0.00009026,-0.00032287,0.00184400,-0.05304441,0.03547701,-0.047
 80292,0.00004316,0.00004129,0.00005567,0.00002386,-0.00007207,-0.00001
 464,-0.00607288,0.00987205,-0.01375070,-0.00002389,-0.00001796,-0.0000
 2098,-0.00151735,-0.00437206,-0.00107046,0.00004567,0.00001791,0.00000
 789,-0.00001491,-0.00003190,-0.00002421,0.00012370,-0.00011365,0.00047
 790,0.00001265,0.00000420,0.00003493,-0.00000244,0.00001544,0.00002629
 ,0.00001820,-0.00000454,0.00000963,-0.00014703,-0.00012568,-0.00001073
 ,0.00003417,-0.00031094,-0.00015572,-0.00003335,0.00034685,0.00016199,
 -0.00367060,0.00821610,-0.01690823,0.06434220,0.00018170,0.00185769,0.
 00015249,0.00175127,-0.00117317,-0.00131170,-0.00115245,0.00036793,0.0
 0016033,-0.00127333,-0.00893280,0.01329685,0.00057844,-0.00045175,0.00
 002376,0.00001378,0.00008601,-0.00034230,0.00053972,-0.00095934,0.0003
 3222,-0.00124198,0.00032632,0.00076397,0.00022233,0.00067034,-0.000186
 68,0.00035726,-0.00039244,0.00008385,-0.00075906,-0.00002702,0.0001603
 0,-0.00099519,-0.00055211,-0.00098662,0.00016183,-0.00129341,0.0006263
 3,0.03643266,-0.11217280,0.10357697,-0.00001270,-0.00008934,-0.0000482
 0,0.00000149,-0.00000357,-0.00002367,-0.00334134,0.01405303,-0.0185689
 1,0.00003270,0.00005235,0.00002789,-0.00396859,-0.00327186,-0.00007718
 ,-0.00006996,-0.00002368,-0.00000769,0.00002383,0.00000735,-0.00001604
 ,-0.00022801,0.00047567,0.00074162,-0.00002082,-0.00000171,-0.00004835
 ,-0.00009119,0.00004476,0.00014903,-0.00002114,0.00000146,-0.00002586,
 -0.00013073,-0.00010517,-0.00001876,0.00027257,-0.00030257,-0.00005527
 ,-0.00026392,0.00082164,0.00036779,0.00335450,-0.01022091,0.01886548,-
 0.03028608,0.12117026,0.00017969,-0.00005627,-0.00031981,-0.00124355,0
 .00067968,0.00119707,0.00038729,-0.00030967,0.00009969,0.00080874,0.00
 655560,-0.00784161,0.00004113,-0.00007508,-0.00005008,0.00038978,0.000
 91267,0.00005469,0.00015415,-0.00020039,0.00026804,0.00145776,-0.00004
 785,-0.00063388,-0.00016255,0.00009223,0.00000511,0.00051037,-0.000494
 09,-0.00004296,-0.00010130,-0.00015229,0.00007741,-0.00053833,-0.00002
 480,0.00030774,-0.00046428,-0.00124604,0.00162354,-0.04522204,0.106137
 40,-0.22307395,-0.00002163,0.00001996,-0.00006349,0.00000454,-0.000004
 80,-0.00002896,-0.00760584,0.01417389,-0.01988609,-0.00003327,0.000079
 13,0.00010556,-0.00193227,-0.00429481,-0.00101709,0.00000193,-0.000040
 00,-0.00003947,-0.00000502,-0.00001989,-0.00002267,-0.00008662,0.00001
 237,-0.00008507,-0.00000410,0.00000318,0.00000809,0.00000037,-0.000012
 59,0.00003038,-0.00001741,0.00001135,-0.00002059,0.00005813,0.00006301
 ,0.00001640,0.00014420,-0.00044485,-0.00023059,-0.00024900,0.00077549,
 0.00038318,0.00142674,-0.00443710,0.00815542,0.05212896,-0.11761734,0.
 24099633,0.00091444,-0.00003336,0.00116887,-0.00003176,-0.00081774,0.0
 0049817,0.00028177,-0.00044758,-0.00036323,-0.00037987,0.00041698,-0.0
 0011626,0.00701149,-0.01465124,0.02031845,0.00031000,0.00005248,-0.000
 19941,-0.00023268,-0.00005071,0.00014886,-0.00016171,-0.00029096,0.000
 03816,-0.00272154,-0.00068551,0.00109385,-0.00002712,0.00032121,0.0000
 9688,-0.00007415,-0.00078084,-0.00082728,0.00029068,-0.00003508,0.0000
 5013,0.00004665,-0.00002665,0.00001396,0.00003239,0.00005987,0.0000289
 9,-0.08254164,0.06284648,-0.07906778,0.00045374,-0.00146210,0.00124067
 ,-0.00001066,-0.00004941,-0.00002621,-0.01190177,0.01166118,-0.0153222
 2,0.00001867,0.00002260,0.00001076,0.00007180,-0.00434804,0.00096845,-
 0.00000294,0.00000711,-0.00000117,0.00000521,-0.00000162,0.00002233,0.
 00018263,-0.00007921,0.00036020,-0.00001688,-0.00003110,-0.00006461,-0
 .00015302,-0.00014374,0.00002984,0.00001296,-0.00000792,-0.00000574,0.
 00000535,-0.00000070,-0.00000564,-0.00005959,-0.00001407,-0.00001449,0
 .00000155,0.00000204,-0.00000396,0.00002366,-0.00001181,-0.00000863,0.
 09580455,0.00140923,-0.00105228,-0.00161399,0.00039795,0.00168386,-0.0
 0009385,-0.00003951,0.00021254,-0.00019525,0.00043829,-0.00048217,0.00
 006452,0.00236688,-0.01028176,0.01278867,-0.00051420,-0.00017945,-0.00
 088018,0.00046713,-0.00043608,0.00005811,0.00037554,0.00052992,-0.0000
 9380,-0.00151448,0.00031632,0.00124345,0.00052943,-0.00098893,0.000036
 59,-0.00106182,-0.00078973,-0.00048416,-0.00064052,0.00007212,0.000098
 54,0.00003145,-0.00001627,-0.00000893,-0.00002422,-0.00008268,-0.00000
 359,0.05857930,-0.11617581,0.09665053,0.00162982,-0.00216953,0.0018266
 8,0.00002534,0.00005170,0.00006692,-0.00874625,0.01376995,-0.01505394,
 -0.00005449,0.00000217,-0.00005979,-0.00096656,-0.00262887,0.00114176,
 -0.00007288,0.00004196,0.00011241,-0.00001324,0.00000648,-0.00004378,-
 0.00017005,0.00050213,0.00052766,0.00000781,-0.00000564,-0.00004820,-0
 .00016406,-0.00014265,0.00000963,-0.00000792,-0.00000394,-0.00000583,-
 0.00000921,-0.00000229,-0.00000899,-0.00007531,-0.00000812,-0.00001807
 ,-0.00000028,0.00000600,0.00000727,-0.00001021,-0.00000283,0.00000211,
 -0.06012211,0.12938560,-0.00147095,0.00028581,0.00112035,0.00027586,0.
 00044745,-0.00020854,0.00038424,0.00121887,-0.00015174,0.00032098,-0.0
 0044099,0.00003770,-0.00365193,0.00903599,-0.01131026,-0.00024040,-0.0
 0014593,-0.00045214,0.00082726,-0.00078692,-0.00007637,0.00001640,0.00
 041580,-0.00008319,0.00236761,0.00093447,-0.00119206,0.00036350,-0.000
 72798,0.00045472,-0.00103995,0.00010373,0.00071369,-0.00047546,-0.0001
 2977,0.00009021,-0.00001605,-0.00003209,-0.00002876,-0.00002975,-0.000
 01613,-0.00004038,-0.07566617,0.10424668,-0.18507742,0.00053612,-0.001
 71378,0.00085721,-0.00004269,0.00018840,0.00008036,-0.01146803,0.01035
 795,-0.01579153,0.00001604,-0.00007678,-0.00003543,0.00088731,-0.00219
 846,0.00064020,0.00000960,-0.00000358,0.00007025,-0.00000914,0.0000058
 9,-0.00001397,-0.00015335,-0.00001369,-0.00016069,0.00001016,-0.000012
 13,-0.00003652,0.00008810,0.00009435,-0.00005205,-0.00001579,0.0000135
 5,-0.00002824,-0.00000851,0.00000128,0.00000280,0.00001749,-0.00001272
 ,0.00002877,-0.00001379,-0.00001586,-0.00000795,-0.00000952,0.00000061
 ,0.00000735,0.08277063,-0.11371952,0.19846686,-0.00083905,-0.00305510,
 0.00227157,-0.00008582,0.00015999,0.00014285,-0.00054618,0.00103080,-0
 .00044666,0.00036111,-0.00018124,-0.00002853,-0.01628849,0.01398594,0.
 00946836,-0.00064800,0.00033164,0.00018450,0.00033886,-0.00014290,0.00
 016352,0.00012899,0.00025505,-0.00000777,0.00049978,0.00200063,-0.0011
 5736,0.00013476,-0.00022082,0.00011146,-0.00028255,-0.00035114,-0.0002
 3788,-0.00024507,0.00002326,-0.00000653,0.00000127,-0.00027890,-0.0000
 4705,-0.00004489,-0.00003788,-0.00002482,-0.14007612,0.11173768,0.0671
 3166,-0.00202481,-0.00177826,-0.00217120,0.00011111,-0.00000408,0.0000
 6700,0.01205438,-0.01501127,-0.00809397,-0.00007841,0.00001861,-0.0000
 5309,0.00120901,0.00184741,0.00070107,0.00004061,-0.00002753,0.0000985
 8,-0.00000587,0.00001804,-0.00000981,0.00084282,-0.00066724,0.00040347
 ,0.00001120,0.00005487,0.00000161,-0.00000959,-0.00000558,0.00001991,0
 .00000312,0.00000272,-0.00000748,-0.00009040,-0.00000609,-0.00004517,-
 0.00007113,-0.00000487,-0.00001503,-0.00001071,0.00000672,0.00000014,0
 .00000121,0.00000718,-0.00001051,-0.00688825,0.00821959,0.00562706,0.1
 5199267,-0.00084942,-0.00191412,0.00142620,-0.00008017,-0.00015512,0.0
 0010000,-0.00065689,0.00007287,-0.00020602,0.00006057,0.00003455,0.000
 03738,-0.01058838,0.01011052,0.00756251,-0.00095365,0.00042755,-0.0001
 9297,-0.00040776,0.00029352,0.00006622,0.00008989,0.00000475,0.0000072
 4,-0.00292048,-0.00029956,0.00186404,0.00004880,0.00010596,-0.00002291
 ,0.00038967,0.00052396,0.00007797,-0.00000524,0.00005350,-0.00001174,-
 0.00002192,-0.00020978,-0.00013611,-0.00000108,0.00001263,0.00002151,0
 .11209707,-0.18055270,-0.07748147,-0.00254490,-0.00171513,-0.00215333,
 0.00005662,-0.00011438,-0.00005016,0.01574284,-0.01471332,-0.00778085,
 -0.00000023,0.00004316,0.00002941,-0.00077654,0.00302886,0.00216701,0.
 00000830,-0.00001779,-0.00007481,0.00000842,0.00000113,-0.00001544,-0.
 00012778,-0.00014024,0.00028984,0.00000247,0.00004886,0.00000228,0.000
 03696,0.00000478,-0.00004763,0.00001790,-0.00001544,0.00000360,-0.0000
 5484,0.00001204,-0.00004193,-0.00007083,-0.00000895,-0.00001890,0.0000
 0673,0.00001176,0.00000075,0.00000315,0.00001169,-0.00001600,0.0083755
 9,-0.01136690,-0.00747245,-0.11741107,0.19699858,0.00061016,0.00203707
 ,-0.00088015,-0.00024910,0.00052109,0.00025401,0.00052933,-0.00037090,
 0.00061420,0.00022972,-0.00033410,0.00001540,0.00947456,-0.01073638,-0
 .00654071,-0.00067299,0.00069565,0.00031685,0.00008537,-0.00015077,-0.
 00005359,0.00008213,0.00031372,-0.00007285,0.00086415,-0.00112242,0.00
 012399,0.00019421,-0.00042075,0.00022233,-0.00041562,0.00007809,0.0000
 5712,-0.00035038,-0.00005989,-0.00002167,0.00004699,0.00024376,-0.0000
 5557,0.00000733,0.00000594,-0.00000520,0.06634581,-0.07545109,-0.09257
 354,-0.00296703,-0.00323515,-0.00113241,-0.00008464,0.00003270,-0.0000
 3022,0.01155259,-0.01680364,-0.01102840,0.00003741,-0.00002342,0.00001
 703,0.00101154,0.00400047,0.00150919,-0.00006344,0.00003767,0.00000028
 ,0.00000709,-0.00000141,-0.00000396,-0.00031456,0.00106920,-0.00019278
 ,-0.00000873,0.00001536,-0.00000314,-0.00001680,-0.00001768,-0.0000292
 2,-0.00000608,-0.00000091,-0.00000024,0.00008239,-0.00000334,0.0000455
 4,0.00001683,0.00001374,0.00000898,0.00000308,-0.00000484,-0.00000909,
 -0.00000215,0.00000334,-0.00000606,-0.01332797,0.01680950,0.01134604,-
 0.07322574,0.08321980,0.09872820,-0.00027396,0.00076043,-0.00055884,0.
 00120597,0.00014520,-0.00087973,-0.00027089,-0.00050097,0.00017812,0.0
 0015215,0.00073121,0.00052562,0.00034555,0.00002428,0.00021044,0.00106
 847,0.01868771,-0.02399533,-0.00018890,0.00029226,-0.00001967,-0.00032
 428,-0.00008864,-0.00010628,0.00000525,-0.00039632,0.00001700,-0.00335
 307,0.00026823,-0.00078099,0.00031070,0.00004470,-0.00009976,-0.000009
 62,0.00073085,0.00116115,0.00001253,-0.00001991,-0.00003991,0.00000704
 ,0.00006359,0.00000942,0.00014043,0.00145283,-0.00146235,-0.04801971,-
 0.03553450,0.03978026,-0.00002553,0.00006520,0.00000806,-0.00663635,-0
 .01314626,0.01583163,0.00004682,-0.00003946,0.00001756,-0.00107364,0.0
 0422635,-0.00076633,0.00000374,-0.00000069,-0.00001960,-0.00001289,-0.
 00002486,-0.00003313,-0.00001524,0.00004169,0.00007243,0.00009796,0.00
 006791,-0.00050262,0.00001331,0.00001179,-0.00000711,-0.00020226,0.000
 13709,-0.00001044,0.00001398,-0.00000678,-0.00000475,0.00001835,0.0000
 0632,-0.00000262,-0.00000083,-0.00002398,-0.00001182,-0.00005270,-0.00
 004142,0.00001574,-0.00029624,-0.00041868,-0.00036723,0.00000776,0.000
 04540,-0.00004823,0.06040903,-0.00072230,0.00189183,-0.00010381,-0.001
 26840,-0.00149585,-0.00154414,-0.00038498,-0.00071133,0.00021213,-0.00
 009193,0.00038004,-0.00012838,0.00048568,0.00002112,-0.00093848,0.0019
 8243,-0.00855501,0.00985117,-0.00057542,0.00058523,-0.00005909,-0.0004
 4193,-0.00062765,0.00010572,-0.00040338,-0.00132537,0.00017769,0.00102
 070,0.00070492,0.00085707,0.00078108,0.00020810,-0.00005870,0.00124754
 ,-0.00045192,-0.00066902,0.00000148,-0.00002468,-0.00001344,0.00002116
 ,0.00000395,-0.00003266,-0.00098806,-0.00208326,0.00177756,-0.03318092
 ,-0.13494430,0.11434711,-0.00000169,0.00000927,-0.00001971,0.00280937,
 0.01267557,-0.01301210,0.00003245,-0.00001643,0.00001934,0.00145493,-0
 .00181867,0.00071780,0.00000896,0.00000396,-0.00005551,0.00007662,0.00
 004383,0.00011621,-0.00001105,-0.00001289,-0.00003313,0.00018881,0.000
 49928,0.00055318,0.00001272,-0.00000128,-0.00001581,0.00015063,-0.0000
 9415,-0.00003032,0.00001497,-0.00000127,-0.00000333,0.00000941,0.00000
 803,-0.00000888,0.00001749,-0.00000064,-0.00000732,0.00003465,0.000031
 11,-0.00000585,0.00039521,0.00042805,0.00042304,-0.00005382,-0.0001699
 3,0.00032689,0.03125266,0.14852703,-0.00038820,0.00036055,-0.00001551,
 0.00129050,0.00033197,0.00101143,-0.00014828,-0.00037410,0.00003040,-0
 .00059658,0.00108043,-0.00002548,0.00016049,-0.00010916,-0.00057437,-0
 .00005375,0.00668976,-0.00744711,-0.00004202,0.00032850,-0.00011130,-0
 .00061940,-0.00085374,0.00001460,-0.00013394,-0.00066541,0.00058213,-0
 .00191969,0.00039748,-0.00061031,0.00040867,-0.00007243,0.00007086,0.0
 0104864,0.00005386,0.00035986,-0.00002588,0.00000766,-0.00009476,-0.00
 002575,-0.00003523,-0.00003854,-0.00019495,-0.00205513,0.00121088,0.03
 571870,0.12177589,-0.19878403,0.00000857,0.00015684,0.00010717,0.00841
 032,0.01486019,-0.02039127,0.00002145,-0.00007450,-0.00002386,-0.00010
 441,-0.00322062,0.00080469,0.00001013,0.00000904,-0.00000269,0.0000042
 7,-0.00001232,0.00005270,-0.00001018,-0.00003335,-0.00005474,0.0001099
 7,0.00002827,-0.00007408,0.00000756,0.00001379,-0.00003131,-0.00006733
 ,0.00005478,-0.00002024,0.00002149,-0.00000275,0.00000083,0.00000528,-
 0.00001127,-0.00000166,0.00001193,-0.00001571,-0.00000932,-0.00000646,
 0.00000328,0.00003411,0.00045605,0.00057152,0.00061112,-0.00008173,-0.
 00025208,0.00025667,-0.04126880,-0.13184396,0.21321017,-0.00006720,0.0
 0009454,-0.00008565,-0.00207290,0.00342238,-0.00217080,0.00024022,0.00
 010585,-0.00001559,-0.00043711,-0.00124559,0.00040376,-0.00055351,-0.0
 0036595,-0.00000041,-0.01774466,-0.01941679,-0.00852543,0.00013074,-0.
 00015808,-0.00001087,0.00020020,0.00011281,-0.00020696,0.00008435,0.00
 015604,-0.00009225,0.00013974,-0.00223575,0.00061100,-0.00016337,-0.00
 005991,0.00003495,-0.00009423,0.00028085,0.00023488,0.00000106,0.00000
 792,0.00001721,-0.00017654,0.00035315,0.00017271,-0.00160256,0.0011614
 9,0.00255568,-0.12804731,-0.11396020,-0.05053419,0.00012372,0.00006078
 ,0.00007680,0.01098270,0.01534300,0.00552358,-0.00006819,0.00000311,-0
 .00005428,0.00100948,-0.00137532,-0.00103260,-0.00000205,-0.00001834,0
 .00001371,0.00003370,0.00005275,-0.00008280,0.00001893,-0.00005341,-0.
 00000063,0.00061873,0.00109521,-0.00052967,0.00000753,0.00000020,0.000
 00360,-0.00001035,0.00000602,-0.00001050,-0.00000972,-0.00000402,0.000
 00159,-0.00000273,-0.00000105,0.00000428,-0.00012811,-0.00006321,0.000
 06043,-0.00001034,-0.00002156,-0.00000318,0.00003229,0.00014822,0.0001
 6035,0.00049667,0.00048080,0.00057280,-0.00310291,-0.00387508,-0.00200
 667,0.14017371,0.00012810,-0.00022598,0.00003041,0.00128831,-0.0013517
 5,0.00090962,-0.00001876,0.00007811,0.00006102,0.00052371,0.00005485,-
 0.00017791,0.00070952,0.00043264,-0.00039745,0.00763517,0.00904670,0.0
 0488385,-0.00005381,-0.00004814,0.00002397,0.00036725,0.00034724,-0.00
 000389,-0.00006179,0.00015239,-0.00006017,0.00355870,-0.00028139,0.001
 49980,-0.00004835,0.00003904,-0.00000914,-0.00042463,0.00047426,0.0002
 3629,0.00002829,0.00000748,0.00002569,0.00010821,-0.00015697,-0.000158
 80,0.00198709,-0.00106379,-0.00221973,-0.11481501,-0.21007448,-0.06919
 021,-0.00002457,-0.00013562,-0.00004287,-0.01281904,-0.01414916,-0.004
 43412,-0.00003102,0.00005291,0.00000550,0.00092181,0.00278069,0.001984
 11,-0.00001334,-0.00000746,-0.00001624,-0.00001253,-0.00000453,-0.0000
 7785,-0.00000520,0.00003920,0.00000030,0.00045713,-0.00009998,0.000280
 70,-0.00001359,-0.00001912,0.00001149,-0.00004550,0.00000528,-0.000035
 90,-0.00001316,-0.00000098,-0.00000202,-0.00001429,0.00001014,-0.00000
 479,0.00005101,0.00006247,-0.00003515,0.00002597,-0.00000115,-0.000018
 37,-0.00006925,-0.00019287,-0.00025509,-0.00046236,-0.00040734,-0.0006
 8729,-0.00881321,-0.01368671,-0.00709204,0.11996912,0.22832399,0.00018
 535,0.00050202,0.00027162,-0.00074139,0.00143683,-0.00011261,-0.000214
 84,-0.00033192,0.00003077,-0.00030743,-0.00031451,0.00047822,0.0007252
 2,0.00083651,0.00018105,-0.00579780,-0.00852098,-0.00386179,-0.0001376
 9,0.00027846,-0.00007009,-0.00007810,-0.00017358,-0.00000854,-0.000096
 20,-0.00041118,0.00028434,-0.00062612,-0.00097167,0.00001694,0.0003268
 7,-0.00001266,-0.00006145,0.00043292,0.00011559,-0.00006488,0.00000639
 ,-0.00000338,-0.00002764,-0.00011542,0.00020482,0.00000395,0.00358336,
 -0.00306421,-0.00204334,-0.04989261,-0.06701632,-0.07648682,0.00004114
 ,0.00002100,0.00003036,-0.01329037,-0.02115856,-0.01040606,-0.00001386
 ,-0.00000396,-0.00001901,-0.00136850,0.00411291,0.00197525,-0.00000647
 ,0.00000114,-0.00000073,0.00004736,0.00003800,0.00000700,0.00000226,0.
 00002450,-0.00001071,-0.00001907,0.00099047,0.00001166,0.00000214,-0.0
 0000077,-0.00000031,0.00001130,-0.00001328,-0.00003274,0.00000165,-0.0
 0000624,-0.00000390,-0.00000774,0.00000267,-0.00000617,-0.00006010,-0.
 00004022,0.00002517,0.00001762,-0.00000152,-0.00000773,0.00003934,0.00
 031600,0.00021961,-0.00072245,-0.00090097,-0.00087701,0.01315811,0.019
 09873,0.00995294,0.05491515,0.07496629,0.08061263\\0.00000003,-0.00000
 016,-0.00000006,-0.00000042,-0.00000004,0.00000002,0.00000052,-0.00000
 040,0.00000046,-0.00000002,0.00000024,-0.00000050,0.00000033,-0.000000
 53,0.00000028,0.00000028,0.00000059,-0.00000017,-0.00000143,0.,0.00000
 043,0.00000080,0.00000026,-0.00000059,-0.00000018,0.00000014,0.0000005
 1,0.00000061,0.00000004,-0.00000028,0.00000099,0.00000013,0.00000040,-
 0.00000065,-0.00000055,-0.00000047,-0.00000074,0.00000014,0.00000061,-
 0.00000007,0.00000036,-0.00000049,-0.00000063,-0.00000043,0.00000026,-
 0.00000004,-0.00000069,-0.00000017,0.00000085,0.00000005,0.00000002,0.
 00000051,0.00000077,0.00000049,-0.00000057,-0.00000026,-0.00000052,-0.
 00000020,-0.00000012,0.00000016,0.00000070,0.00000062,0.00000038,-0.00
 000030,0.00000003,-0.00000055,-0.00000021,0.00000005,0.00000061,-0.000
 00060,-0.00000032,-0.00000054,0.,0.00000018,0.00000070,-0.00000005,0.0
 0000008,-0.00000075,0.00000014,-0.00000002,0.00000019,0.00000011,-0.00
 000026,-0.00000033,0.00000005,-0.00000009,-0.00000034,-0.00000004,0.00
 000007,0.00000026,0.00000007,-0.00000029,0.00000009,0.00000018,-0.0000
 0030,0.00000026,0.00000003,0.00000056,-0.00000019,-0.00000005,0.000000
 14,-0.00000019\\\@
 The archive entry for this job was punched.


 SCIENCE IS LONG AND LIFE IS SHORT.

                     DON MOSER IN THE FEBRUARY 1979 SMITHSONIAN
 Job cpu time:       0 days  1 hours 40 minutes 18.9 seconds.
 Elapsed time:       0 days  0 hours  3 minutes 14.2 seconds.
 File lengths (MBytes):  RWF=    481 Int=      0 D2E=      0 Chk=     13 Scr=      1
 Normal termination of Gaussian 16 at Tue May 20 08:45:44 2025.
