%chk=anisaldehyde_1.chk
%nprocshared=16
%mem=32GB
#p M062X/6-31+G(d,p) scrf=(pcm,solvent=thf) freq int=finegrid

anisaldehyde 1: Chen, Nieves-Quinones, Waas, Singleton, JACS 2014 (SI geometry, M06-2X/6-31+G**/PCM(THF), default radii); SI: E = -459.931869643, ZPE = 0.143666

0 1
C     -0.0013640658     0.0000000000     0.1160420510
C      0.0521638259     0.0000000000     1.5185415556
C      1.2897465865     0.0000000000     2.1501136661
C      2.4733095825     0.0000000000     1.4061254485
C      2.4059915729     0.0000000000     0.0055859560
C      1.1814093891     0.0000000000    -0.6391548467
H     -0.8535870545     0.0000000000     2.1121104867
H      1.3488913963     0.0000000000     3.2346071802
C      3.7867627504     0.0000000000     2.0688875787
H      3.3235661101     0.0000000000    -0.5778027297
H      1.1080782896     0.0000000000    -1.7213649287
O     -1.1492158283     0.0000000000    -0.5951452003
C     -2.3821803926     0.0000000000     0.1139268221
H     -3.1615617058     0.0000000000    -0.6457521632
H     -2.4740699039    -0.8961228929     0.7358676169
H     -2.4740699039     0.8961228929     0.7358676169
O      3.9551191481     0.0000000000     3.2749419227
H      4.6586332033     0.0000000000     1.3859979675

