%chk=ts_4.chk
%nprocshared=16
%mem=32GB
#p M062X/6-31+G(d,p) scrf=(pcm,solvent=thf) freq int=finegrid

transition structure 4 (C-C bond formation; 'TS1' in the SI): Chen, Nieves-Quinones, Waas, Singleton, JACS 2014 (SI geometry, M06-2X/6-31+G**/PCM(THF), default radii); SI: E = -1687.793615460, ZPE = 0.485845

0 1
O      1.0622354854     1.3611509586     1.6251018877
C      1.3708468669     0.2022348135     1.1777730313
P     -1.3199308016     0.1405142383    -0.0248527823
C      0.4113698257    -0.1107193547    -0.4193206255
C      2.7947894799    -0.0437995595     0.7249337668
C     -2.3783545629    -0.9027575369    -1.0702514072
C     -2.1112610337    -0.9319325718    -2.4446660889
C     -2.9229093281    -1.6749094355    -3.2946639943
C     -4.0039430357    -2.3910913928    -2.7762862086
C     -4.2733583896    -2.3583206958    -1.4103619719
C     -3.4634786533    -1.6122913524    -0.5526997783
C     -1.7689113052     1.8554070142    -0.4065223837
C     -1.7536353210    -0.2075442881     1.6986752200
C     -0.8692366907     2.8864459614    -0.1077103703
C     -1.2295618327     4.2050364911    -0.3795121718
C     -2.4728085557     4.4953025193    -0.9406500672
C     -3.3679605741     3.4658660198    -1.2313351853
C     -3.0196279122     2.1430543983    -0.9663571341
C     -2.3621511573     0.7736963395     2.4855317924
C     -2.7217858551     0.4779359159     3.7991347918
C     -2.4744774748    -0.7897514221     4.3226189871
C     -1.8667440253    -1.7683664043     3.5346349175
C     -1.5043282534    -1.4832359413     2.2207650346
C      3.3923816959    -1.2983808240     0.8862841429
C      4.6849439625    -1.5364025153     0.4372700265
C      5.4062316762    -0.5124553570    -0.1876518175
C      4.8280847612     0.7519449683    -0.3443033896
C      3.5297670063     0.9717193865     0.1198725106
H      0.9848898885    -0.6910910705     1.7145067901
H      0.7703322639     0.6969612702    -1.0599404531
H     -1.2724074069    -0.3712796911    -2.8515256242
H     -2.7121490962    -1.6972083152    -4.3588662315
H     -4.6346400111    -2.9741459667    -3.4399050807
H     -5.1130676139    -2.9144492672    -1.0065056852
H     -3.6798284773    -1.5906737459     0.5110823825
H      0.0836732597     2.6461699561     0.3631080200
H     -0.5363162666     5.0069999573    -0.1469512056
H     -2.7451941413     5.5247526774    -1.1518379733
H     -4.3360557872     3.6892464819    -1.6676752644
H     -3.7182439877     1.3449078554    -1.1999163212
H     -2.5466060766     1.7652471915     2.0831831070
H     -3.1914914638     1.2404938339     4.4116613402
H     -2.7538648580    -1.0163057212     5.3468291228
H     -1.6728145722    -2.7549761744     3.9429718064
H     -1.0299210616    -2.2374434320     1.5977573488
H      2.8338032025    -2.1008883940     1.3642074227
H      5.1565980664    -2.5061482926     0.5616278685
O      6.6626441034    -0.8362733834    -0.6030264932
H      5.3721126971     1.5622692176    -0.8152509389
H      3.0729547844     1.9522017326     0.0098227972
C      0.7333009563    -1.4674937563    -0.8816159144
C      1.7694898046    -1.6142989036    -1.9700980369
O      0.2047985577    -2.4550089225    -0.3708100582
H      2.2100016141    -2.6116414794    -1.9304868550
H      1.2670488391    -1.4864971297    -2.9368766013
H      2.5485071756    -0.8513894002    -1.8904904650
C      7.4256383035     0.1723261422    -1.2439269903
H      8.3789625377    -0.2876050850    -1.5002316308
H      6.9300823220     0.5194926031    -2.1574947772
H      7.5972644459     1.0221228381    -0.5741201385

