%chk=ts_6.chk
%nprocshared=16
%mem=32GB
#p M062X/6-31+G(d,p) scrf=(pcm,solvent=thf) freq int=finegrid

transition structure 6 (P-O bond formation; 'TS1.5' in the SI): Chen, Nieves-Quinones, Waas, Singleton, JACS 2014 (SI geometry, M06-2X/6-31+G**/PCM(THF), default radii); SI: E = -1687.794726050, ZPE = 0.487529

0 1
O      0.7210710000     0.9959530000     1.3803830000
C      1.2390970000    -0.1442240000     0.8796270000
P     -1.2449680000     0.1331930000     0.0357060000
C      0.4475920000    -0.3617780000    -0.4824670000
C      2.7351430000    -0.1437630000     0.5960310000
C     -2.3462010000    -0.7634510000    -1.1229900000
C     -2.0960860000    -0.6228800000    -2.4951360000
C     -2.8955220000    -1.2772100000    -3.4262530000
C     -3.9566260000    -2.0755320000    -2.9936600000
C     -4.2150650000    -2.2102580000    -1.6323840000
C     -3.4129160000    -1.5551660000    -0.6955870000
C     -1.6752000000     1.8755500000    -0.2827630000
C     -1.7348240000    -0.3923970000     1.6938680000
C     -0.7492570000     2.9109100000    -0.1117870000
C     -1.1314300000     4.2258570000    -0.3738450000
C     -2.4323430000     4.5163880000    -0.7809000000
C     -3.3602340000     3.4862820000    -0.9338150000
C     -2.9834790000     2.1667720000    -0.6971350000
C     -2.3167220000     0.5301820000     2.5672440000
C     -2.7220300000     0.1162430000     3.8333520000
C     -2.5398370000    -1.2094410000     4.2290430000
C     -1.9570030000    -2.1257210000     3.3551980000
C     -1.5580480000    -1.7243960000     2.0806550000
C      3.4885080000    -1.3215240000     0.6651850000
C      4.8434020000    -1.3263650000     0.3584960000
C      5.4763270000    -0.1369150000    -0.0214780000
C      4.7422880000     1.0507800000    -0.0878280000
C      3.3801040000     1.0319550000     0.2227800000
H      1.0288230000    -1.0557340000     1.4855130000
H      0.7949850000     0.4209140000    -1.1682040000
H     -1.2797700000     0.0084370000    -2.8420600000
H     -2.6928320000    -1.1639420000    -4.4863660000
H     -4.5803490000    -2.5880790000    -3.7191150000
H     -5.0416150000    -2.8261770000    -1.2930380000
H     -3.6244920000    -1.6677520000     0.3630940000
H      0.2419910000     2.6612070000     0.2537980000
H     -0.4086030000     5.0255330000    -0.2474970000
H     -2.7250240000     5.5433780000    -0.9767070000
H     -4.3765740000     3.7055930000    -1.2444830000
H     -3.7118410000     1.3736990000    -0.8362470000
H     -2.4370180000     1.5673460000     2.2684500000
H     -3.1713500000     0.8321540000     4.5138750000
H     -2.8516340000    -1.5269720000     5.2190550000
H     -1.8133310000    -3.1571770000     3.6606880000
H     -1.1144590000    -2.4361740000     1.3897480000
H      3.0061470000    -2.2499860000     0.9670350000
H      5.4330290000    -2.2361970000     0.4143620000
O      6.8080560000    -0.2326690000    -0.2984740000
H      5.2141000000     1.9853750000    -0.3681470000
H      2.8018030000     1.9520170000     0.1929150000
C      0.5911420000    -1.7383030000    -1.0853790000
C      1.5312180000    -1.8658650000    -2.2533440000
O      0.0215800000    -2.6980840000    -0.5949840000
H      1.7229000000    -2.9161850000    -2.4727340000
H      1.0751990000    -1.3830640000    -3.1259450000
H      2.4683440000    -1.3404250000    -2.0410150000
C      7.4873950000     0.9529020000    -0.6746440000
H      8.5245620000     0.6661790000    -0.8432480000
H      7.0692850000     1.3710730000    -1.5971180000
H      7.4402430000     1.7036850000     0.1219100000

