Job Start Time: Sun Sep 27 20:02:32 MDT 2026
SLURM Job ID: 833736
SLURM Job Name: ylide_2
 Entering Gaussian System, Link 0=/opt/apps/Gaussian/G16C/g16/g16
 Initial command:
 /opt/apps/Gaussian/G16C/g16/l1.exe "/tmp/833736/Gau-261264.inp" -scrdir="/tmp/833736/"
 Entering Link 1 = /opt/apps/Gaussian/G16C/g16/l1.exe PID=    261265.
  
 Copyright (c) 1988-2019, Gaussian, Inc.  All Rights Reserved.
  
 This is part of the Gaussian(R) 16 program.  It is based on
 the Gaussian(R) 09 system (copyright 2009, Gaussian, Inc.),
 the Gaussian(R) 03 system (copyright 2003, Gaussian, Inc.),
 the Gaussian(R) 98 system (copyright 1998, Gaussian, Inc.),
 the Gaussian(R) 94 system (copyright 1995, Gaussian, Inc.),
 the Gaussian 92(TM) system (copyright 1992, Gaussian, Inc.),
 the Gaussian 90(TM) system (copyright 1990, Gaussian, Inc.),
 the Gaussian 88(TM) system (copyright 1988, Gaussian, Inc.),
 the Gaussian 86(TM) system (copyright 1986, Carnegie Mellon
 University), and the Gaussian 82(TM) system (copyright 1983,
 Carnegie Mellon University). Gaussian is a federally registered
 trademark of Gaussian, Inc.
  
 This software contains proprietary and confidential information,
 including trade secrets, belonging to Gaussian, Inc.
  
 This software is provided under written license and may be
 used, copied, transmitted, or stored only in accord with that
 written license.
  
 The following legend is applicable only to US Government
 contracts under FAR:
  
                    RESTRICTED RIGHTS LEGEND
  
 Use, reproduction and disclosure by the US Government is
 subject to restrictions as set forth in subparagraphs (a)
 and (c) of the Commercial Computer Software - Restricted
 Rights clause in FAR 52.227-19.
  
 Gaussian, Inc.
 340 Quinnipiac St., Bldg. 40, Wallingford CT 06492
  
  
 ---------------------------------------------------------------
 Warning -- This program may not be used in any manner that
 competes with the business of Gaussian, Inc. or will provide
 assistance to any competitor of Gaussian, Inc.  The licensee
 of this program is prohibited from giving any competitor of
 Gaussian, Inc. access to this program.  By using this program,
 the user acknowledges that Gaussian, Inc. is engaged in the
 business of creating and licensing software in the field of
 computational chemistry and represents and warrants to the
 licensee that it is not a competitor of Gaussian, Inc. and that
 it will not use this program in any manner prohibited above.
 ---------------------------------------------------------------
  

 Cite this work as:
 Gaussian 16, Revision C.01,
 M. J. Frisch, G. W. Trucks, H. B. Schlegel, G. E. Scuseria, 
 M. A. Robb, J. R. Cheeseman, G. Scalmani, V. Barone, 
 G. A. Petersson, H. Nakatsuji, X. Li, M. Caricato, A. V. Marenich, 
 J. Bloino, B. G. Janesko, R. Gomperts, B. Mennucci, H. P. Hratchian, 
 J. V. Ortiz, A. F. Izmaylov, J. L. Sonnenberg, D. Williams-Young, 
 F. Ding, F. Lipparini, F. Egidi, J. Goings, B. Peng, A. Petrone, 
 T. Henderson, D. Ranasinghe, V. G. Zakrzewski, J. Gao, N. Rega, 
 G. Zheng, W. Liang, M. Hada, M. Ehara, K. Toyota, R. Fukuda, 
 J. Hasegawa, M. Ishida, T. Nakajima, Y. Honda, O. Kitao, H. Nakai, 
 T. Vreven, K. Throssell, J. A. Montgomery, Jr., J. E. Peralta, 
 F. Ogliaro, M. J. Bearpark, J. J. Heyd, E. N. Brothers, K. N. Kudin, 
 V. N. Staroverov, T. A. Keith, R. Kobayashi, J. Normand, 
 K. Raghavachari, A. P. Rendell, J. C. Burant, S. S. Iyengar, 
 J. Tomasi, M. Cossi, J. M. Millam, M. Klene, C. Adamo, R. Cammi, 
 J. W. Ochterski, R. L. Martin, K. Morokuma, O. Farkas, 
 J. B. Foresman, and D. J. Fox, Gaussian, Inc., Wallingford CT, 2019.
 
 ******************************************
 Gaussian 16:  AS64L-G16RevC.01  3-Jul-2019
                27-Sep-2026 
 ******************************************
 %chk=ylide_2.chk
 %nprocshared=16
 Will use up to   16 processors via shared memory.
 %mem=96GB
 -------------------------------------------------------------
 #p M062X/6-31+G(d,p) scrf=(pcm,solvent=thf) freq int=finegrid
 -------------------------------------------------------------
 1/10=4,30=1,38=1/1,3;
 2/12=2,17=6,18=5,40=1/2;
 3/5=1,6=6,7=111,11=2,25=1,30=1,70=2201,71=2,72=20,74=-55,75=-4,140=1/1,2,3;
 4//1;
 5/5=2,38=5,53=20,98=1/2;
 8/6=4,10=90,11=11/1;
 11/6=1,8=1,9=11,15=111,16=1/1,2,10;
 10/6=1/2;
 6/7=2,8=2,9=2,10=2,28=1/1;
 7/8=1,10=1,25=1/1,2,3,16;
 1/10=4,30=1/3;
 99//99;
 Leave Link    1 at Sun Sep 27 20:02:32 2026, MaxMem= 12884901888 cpu:               0.0 elap:               0.0
 (Enter /opt/apps/Gaussian/G16C/g16/l101.exe)
 ----------------------------------------------------------------------
 ylide 2, Ph3P=CHCOMe: Chen, Nieves-Quinones, Waas, Singleton, JACS 201
 4 (SI geometry, M06-2X/6-31+G**/PCM(THF), default radii); SI: E = -122
 7.873969660, ZPE = 0.340415
 ----------------------------------------------------------------------
 Symbolic Z-matrix:
 Charge =  0 Multiplicity = 1
 C                     0.39409   0.14466   0.41887 
 P                     0.43394  -0.12662   2.12669 
 H                    -0.29338   0.89628   0.0525 
 C                     4.32096   1.10837   4.27989 
 C                     3.09826   1.24746   4.93571 
 C                     1.91689   0.88198   4.29184 
 C                     1.96116   0.37198   2.98911 
 C                     3.18861   0.23417   2.33 
 C                     4.36473   0.60329   2.97999 
 H                     5.24005   1.39666   4.78058 
 H                     3.06127   1.64343   5.94545 
 H                     0.96492   1.00217   4.80273 
 H                     3.21259  -0.17304   1.32312 
 H                     5.31662   0.49765   2.46946 
 C                    -0.52295  -4.47044   3.31978 
 C                     0.25386  -3.6836    4.16915 
 C                     0.57682  -2.37584   3.80878 
 C                     0.11457  -1.85499   2.59691 
 C                    -0.65659  -2.6468    1.74165 
 C                    -0.97523  -3.95297   2.10536 
 H                    -0.76973  -5.48982   3.59956 
 H                     0.61464  -4.08704   5.10977 
 H                     1.19159  -1.7711    4.46957 
 H                    -0.99366  -2.23908   0.79236 
 H                    -1.56909  -4.56871   1.43747 
 C                    -2.89748   2.50148   3.91621 
 C                    -1.82235   3.07848   3.23693 
 C                    -0.81817   2.27161   2.71153 
 C                    -0.88665   0.8804    2.86365 
 C                    -1.96036   0.30438   3.54657 
 C                    -2.96528   1.11877   4.07056 
 H                    -3.68062   3.13204   4.32531 
 H                    -1.7655    4.15569   3.11868 
 H                     0.02218   2.7222    2.18889 
 H                    -2.01812  -0.77319   3.67008 
 H                    -3.79995   0.66913   4.59855 
 C                     1.16096  -0.67661  -0.42981 
 C                     1.0094   -0.49574  -1.93061 
 O                     1.95106  -1.5592   -0.01284 
 H                     1.99268  -0.29801  -2.36674 
 H                     0.64077  -1.43151  -2.36178 
 H                     0.32658   0.31418  -2.19472 
 
 ITRead=  0  0  0  0  0  0  0  0  0  0  0  0  0  0  0  0  0  0  0  0
 ITRead=  0  0  0  0  0  0  0  0  0  0  0  0  0  0  0  0  0  0  0  0
 ITRead=  0  0
 MicOpt= -1 -1 -1 -1 -1 -1 -1 -1 -1 -1 -1 -1 -1 -1 -1 -1 -1 -1 -1 -1
 MicOpt= -1 -1 -1 -1 -1 -1 -1 -1 -1 -1 -1 -1 -1 -1 -1 -1 -1 -1 -1 -1
 MicOpt= -1 -1
 NAtoms=     42 NQM=       42 NQMF=       0 NMMI=      0 NMMIF=      0
                NMic=       0 NMicF=      0.
                    Isotopes and Nuclear Properties:
 (Nuclear quadrupole moments (NQMom) in fm**2, nuclear magnetic moments (NMagM)
  in nuclear magnetons)

  Atom         1           2           3           4           5           6           7           8           9          10
 IAtWgt=          12          31           1          12          12          12          12          12          12           1
 AtmWgt=  12.0000000  30.9737634   1.0078250  12.0000000  12.0000000  12.0000000  12.0000000  12.0000000  12.0000000   1.0078250
 NucSpn=           0           1           1           0           0           0           0           0           0           1
 AtZEff=  -0.0000000  -0.0000000  -0.0000000  -0.0000000  -0.0000000  -0.0000000  -0.0000000  -0.0000000  -0.0000000  -0.0000000
 NQMom=    0.0000000   0.0000000   0.0000000   0.0000000   0.0000000   0.0000000   0.0000000   0.0000000   0.0000000   0.0000000
 NMagM=    0.0000000   1.1316000   2.7928460   0.0000000   0.0000000   0.0000000   0.0000000   0.0000000   0.0000000   2.7928460
 AtZNuc=   6.0000000  15.0000000   1.0000000   6.0000000   6.0000000   6.0000000   6.0000000   6.0000000   6.0000000   1.0000000

  Atom        11          12          13          14          15          16          17          18          19          20
 IAtWgt=           1           1           1           1          12          12          12          12          12          12
 AtmWgt=   1.0078250   1.0078250   1.0078250   1.0078250  12.0000000  12.0000000  12.0000000  12.0000000  12.0000000  12.0000000
 NucSpn=           1           1           1           1           0           0           0           0           0           0
 AtZEff=  -0.0000000  -0.0000000  -0.0000000  -0.0000000  -0.0000000  -0.0000000  -0.0000000  -0.0000000  -0.0000000  -0.0000000
 NQMom=    0.0000000   0.0000000   0.0000000   0.0000000   0.0000000   0.0000000   0.0000000   0.0000000   0.0000000   0.0000000
 NMagM=    2.7928460   2.7928460   2.7928460   2.7928460   0.0000000   0.0000000   0.0000000   0.0000000   0.0000000   0.0000000
 AtZNuc=   1.0000000   1.0000000   1.0000000   1.0000000   6.0000000   6.0000000   6.0000000   6.0000000   6.0000000   6.0000000

  Atom        21          22          23          24          25          26          27          28          29          30
 IAtWgt=           1           1           1           1           1          12          12          12          12          12
 AtmWgt=   1.0078250   1.0078250   1.0078250   1.0078250   1.0078250  12.0000000  12.0000000  12.0000000  12.0000000  12.0000000
 NucSpn=           1           1           1           1           1           0           0           0           0           0
 AtZEff=  -0.0000000  -0.0000000  -0.0000000  -0.0000000  -0.0000000  -0.0000000  -0.0000000  -0.0000000  -0.0000000  -0.0000000
 NQMom=    0.0000000   0.0000000   0.0000000   0.0000000   0.0000000   0.0000000   0.0000000   0.0000000   0.0000000   0.0000000
 NMagM=    2.7928460   2.7928460   2.7928460   2.7928460   2.7928460   0.0000000   0.0000000   0.0000000   0.0000000   0.0000000
 AtZNuc=   1.0000000   1.0000000   1.0000000   1.0000000   1.0000000   6.0000000   6.0000000   6.0000000   6.0000000   6.0000000

  Atom        31          32          33          34          35          36          37          38          39          40
 IAtWgt=          12           1           1           1           1           1          12          12          16           1
 AtmWgt=  12.0000000   1.0078250   1.0078250   1.0078250   1.0078250   1.0078250  12.0000000  12.0000000  15.9949146   1.0078250
 NucSpn=           0           1           1           1           1           1           0           0           0           1
 AtZEff=  -0.0000000  -0.0000000  -0.0000000  -0.0000000  -0.0000000  -0.0000000  -0.0000000  -0.0000000  -0.0000000  -0.0000000
 NQMom=    0.0000000   0.0000000   0.0000000   0.0000000   0.0000000   0.0000000   0.0000000   0.0000000   0.0000000   0.0000000
 NMagM=    0.0000000   2.7928460   2.7928460   2.7928460   2.7928460   2.7928460   0.0000000   0.0000000   0.0000000   2.7928460
 AtZNuc=   6.0000000   1.0000000   1.0000000   1.0000000   1.0000000   1.0000000   6.0000000   6.0000000   8.0000000   1.0000000

  Atom        41          42
 IAtWgt=           1           1
 AtmWgt=   1.0078250   1.0078250
 NucSpn=           1           1
 AtZEff=  -0.0000000  -0.0000000
 NQMom=    0.0000000   0.0000000
 NMagM=    2.7928460   2.7928460
 AtZNuc=   1.0000000   1.0000000
 Leave Link  101 at Sun Sep 27 20:02:32 2026, MaxMem= 12884901888 cpu:               0.1 elap:               0.0
 (Enter /opt/apps/Gaussian/G16C/g16/l103.exe)

 GradGradGradGradGradGradGradGradGradGradGradGradGradGradGradGradGradGrad
 Berny optimization.
 Initialization pass.
 Trust Radius=3.00D-01 FncErr=1.00D-07 GrdErr=1.00D-07 EigMax=2.50D+02 EigMin=1.00D-04
 Number of steps in this run=      2 maximum allowed number of steps=      2.
 GradGradGradGradGradGradGradGradGradGradGradGradGradGradGradGradGradGrad

 Leave Link  103 at Sun Sep 27 20:02:32 2026, MaxMem= 12884901888 cpu:               0.0 elap:               0.0
 (Enter /opt/apps/Gaussian/G16C/g16/l202.exe)
                          Input orientation:                          
 ---------------------------------------------------------------------
 Center     Atomic      Atomic             Coordinates (Angstroms)
 Number     Number       Type             X           Y           Z
 ---------------------------------------------------------------------
      1          6           0        0.394093    0.144660    0.418866
      2         15           0        0.433937   -0.126617    2.126694
      3          1           0       -0.293382    0.896284    0.052499
      4          6           0        4.320963    1.108373    4.279887
      5          6           0        3.098257    1.247462    4.935707
      6          6           0        1.916889    0.881983    4.291839
      7          6           0        1.961163    0.371983    2.989111
      8          6           0        3.188611    0.234170    2.329996
      9          6           0        4.364728    0.603289    2.979987
     10          1           0        5.240050    1.396660    4.780584
     11          1           0        3.061266    1.643427    5.945445
     12          1           0        0.964918    1.002167    4.802734
     13          1           0        3.212592   -0.173044    1.323125
     14          1           0        5.316619    0.497655    2.469463
     15          6           0       -0.522953   -4.470440    3.319778
     16          6           0        0.253855   -3.683596    4.169152
     17          6           0        0.576817   -2.375842    3.808776
     18          6           0        0.114574   -1.854990    2.596912
     19          6           0       -0.656595   -2.646800    1.741647
     20          6           0       -0.975231   -3.952975    2.105365
     21          1           0       -0.769734   -5.489817    3.599557
     22          1           0        0.614643   -4.087036    5.109770
     23          1           0        1.191591   -1.771102    4.469565
     24          1           0       -0.993665   -2.239082    0.792357
     25          1           0       -1.569088   -4.568712    1.437470
     26          6           0       -2.897475    2.501477    3.916215
     27          6           0       -1.822350    3.078479    3.236926
     28          6           0       -0.818165    2.271615    2.711531
     29          6           0       -0.886647    0.880400    2.863652
     30          6           0       -1.960356    0.304384    3.546565
     31          6           0       -2.965284    1.118773    4.070560
     32          1           0       -3.680622    3.132036    4.325310
     33          1           0       -1.765503    4.155691    3.118675
     34          1           0        0.022175    2.722199    2.188886
     35          1           0       -2.018125   -0.773189    3.670082
     36          1           0       -3.799948    0.669134    4.598549
     37          6           0        1.160958   -0.676606   -0.429812
     38          6           0        1.009403   -0.495735   -1.930613
     39          8           0        1.951063   -1.559199   -0.012844
     40          1           0        1.992676   -0.298009   -2.366735
     41          1           0        0.640766   -1.431513   -2.361776
     42          1           0        0.326580    0.314181   -2.194721
 ---------------------------------------------------------------------
                    Distance matrix (angstroms):
                    1          2          3          4          5
     1  C    0.000000
     2  P    1.729697   0.000000
     3  H    1.082490   2.424377   0.000000
     4  C    5.590755   4.611987   6.261627   0.000000
     5  C    5.378711   4.108194   5.955860   1.394437   0.000000
     6  C    4.226402   2.811455   4.780953   2.414740   1.394192
     7  C    3.018864   1.823399   3.739191   2.788733   2.418405
     8  C    3.386703   2.785629   4.213034   2.418373   2.797258
     9  C    4.747170   4.088030   5.509448   1.395265   2.417384
    10  H    6.638930   5.697564   7.295480   1.085600   2.152579
    11  H    6.316897   4.961732   6.821928   2.155737   1.085232
    12  H    4.503271   2.952505   4.915207   3.398189   2.151509
    13  H    2.977005   2.892889   3.879408   3.407780   3.883512
    14  H    5.344232   4.934348   6.121497   2.154517   3.400838
    15  C    5.527695   4.605202   6.287252   7.450402   6.958361
    16  C    5.360957   4.105626   6.182362   6.286223   5.744002
    17  C    4.228216   2.812265   5.057042   5.136179   4.555872
    18  C    2.969952   1.819443   3.769612   5.413653   4.898728
    19  C    3.262812   2.772876   3.941902   6.732018   6.282214
    20  C    4.637880   4.077649   5.309848   7.641692   7.186702
    21  H    6.574086   5.690524   7.320575   8.361468   7.882739
    22  H    6.321429   4.961483   7.157791   6.435665   5.886892
    23  H    4.551297   2.960983   5.369410   4.256798   3.600610
    24  H    2.783450   2.877675   3.296712   7.184260   6.787280
    25  H    5.206487   4.921315   5.780290   8.660331   8.237090
    26  C    5.349809   4.605168   4.928108   7.360629   6.209729
    27  C    4.632643   4.073830   4.152144   6.535242   5.518230
    28  C    3.354075   2.767907   3.039307   5.497592   4.618898
    29  C    2.856324   1.816902   2.873117   5.401565   4.506397
    30  C    3.918091   2.816813   3.916331   6.374883   5.329979
    31  C    5.056597   4.109053   4.830464   7.289261   6.126302
    32  H    6.386550   5.690547   5.893123   8.253644   7.062394
    33  H    5.295393   4.915254   4.710872   6.905044   5.951098
    34  H    3.148809   2.879091   2.828019   5.045424   4.379744
    35  H    4.151102   2.968621   4.341520   6.640495   5.644662
    36  H    5.944308   4.966797   5.745797   8.139022   6.930612
    37  C    1.408125   2.714179   2.195839   5.945843   6.020296
    38  C    2.511726   4.114505   2.750945   7.218720   7.385690
    39  O    2.348120   2.988576   3.327341   5.582106   5.803581
    40  H    3.242067   4.759196   3.536254   7.181673   7.545625
    41  H    3.205798   4.678877   3.481378   8.006658   8.152879
    42  H    2.619949   4.345164   2.402747   7.648947   7.706894
                    6          7          8          9         10
     6  C    0.000000
     7  C    1.399700   0.000000
     8  C    2.426060   1.400019   0.000000
     9  C    2.791154   2.414686   1.393552   0.000000
    10  H    3.398112   3.874331   3.400760   2.153550   0.000000
    11  H    2.150304   3.400986   3.882486   3.402182   2.482920
    12  H    1.087063   2.163067   3.413072   3.878171   4.293352
    13  H    3.406640   2.153751   1.086365   2.162245   4.304484
    14  H    3.876458   3.397781   2.148789   1.085307   2.480999
    15  C    5.962060   5.452452   6.073609   7.053198   8.352785
    16  C    4.860581   4.555779   5.229166   6.057291   7.144577
    17  C    3.555639   3.184150   3.977490   4.889824   6.076342
    18  C    3.689463   2.919438   3.726330   4.924803   6.450748
    19  C    5.057530   4.185914   4.840635   6.108211   7.768856
    20  C    6.043331   5.301762   5.909334   7.073872   8.625840
    21  H    6.949607   6.495471   7.074200   7.992027   9.216067
    22  H    5.201539   5.117925   5.746762   6.371676   7.181481
    23  H    2.756176   2.716027   3.547811   4.233837   5.149900
    24  H    5.518945   4.513801   5.096346   6.448036   8.245227
    25  H    7.071742   6.267434   6.819089   8.021167   9.650204
    26  C    5.093325   5.385223   6.685597   7.564339   8.257546
    27  C    4.463110   4.658487   5.832868   6.668772   7.422189
    28  C    3.450938   3.377915   4.511208   5.451399   6.461308
    29  C    3.146353   2.895557   4.160544   5.259968   6.440308
    30  C    3.990248   3.961519   5.291203   6.357439   7.386590
    31  C    4.892918   5.098736   6.456199   7.428603   8.240684
    32  H    6.032908   6.421297   7.717853   8.540029   9.099296
    33  H    5.064927   5.312369   6.367384   7.086503   7.710510
    34  H    3.376203   3.150166   4.029455   4.896262   5.974962
    35  H    4.313990   4.196412   5.469982   6.565952   7.656537
    36  H    5.729014   5.989072   7.360400   8.323822   9.071052
    37  C    5.029376   3.664547   3.543646   4.850670   6.934382
    38  C    6.437434   5.085516   4.840919   6.048145   8.155961
    39  O    4.948821   3.569495   3.199468   4.411254   6.521617
    40  H    6.762747   5.397682   4.875732   5.918311   8.031283
    41  H    7.159005   5.798969   5.592740   6.822224   8.953507
    42  H    6.702757   5.435744   5.354502   6.570223   8.600514
                   11         12         13         14         15
    11  H    0.000000
    12  H    2.472181   0.000000
    13  H    4.968734   4.305907   0.000000
    14  H    4.299054   4.963465   2.488143   0.000000
    15  C    7.557786   5.861940   6.033948   7.713988   0.000000
    16  C    6.278053   4.781570   5.401664   6.782579   1.394271
    17  C    5.185785   3.542530   4.240058   5.702322   2.415771
    18  C    5.668738   3.708379   3.748225   5.710731   2.787392
    19  C    7.064026   5.031353   4.611425   6.789447   2.415371
    20  C    7.896787   5.966021   5.695405   7.715442   1.395395
    21  H    8.429883   6.826602   7.022046   8.612237   1.085498
    22  H    6.286694   5.110474   6.033851   7.078078   2.155271
    23  H    4.163282   2.802392   4.066734   5.115029   3.398249
    24  H    7.620411   5.515874   4.716230   7.079696   3.404172
    25  H    8.963966   6.984330   6.496109   8.610810   2.155722
    26  C    6.353001   4.236972   7.156124   8.577863   7.389297
    27  C    5.765862   3.812046   6.291716   7.629845   7.660384
    28  C    5.089480   3.027212   4.914370   6.390705   6.775870
    29  C    5.066131   2.683870   4.504080   6.227551   5.382547
    30  C    5.724015   3.259154   5.650754   7.358795   4.991643
    31  C    6.333227   3.999521   6.883557   8.458086   6.145564
    32  H    7.091816   5.132769   8.212982   9.556907   8.293347
    33  H    6.131867   4.498440   6.836913   7.997447   8.717483
    34  H    4.950915   3.267947   4.394398   5.749648   7.301379
    35  H    6.067745   3.651484   5.764442   7.540226   4.003487
    36  H    7.059719   4.780852   7.785460   9.363451   6.228096
    37  C    7.045398   5.498749   2.745098   5.201365   5.593582
    38  C    8.415370   6.898090   3.942713   6.236955   6.761139
    39  O    6.854967   5.542820   2.301671   4.660414   5.069758
    40  H    8.602523   7.358534   3.888300   5.922034   7.488258
    41  H    9.182810   7.573511   4.666533   6.994724   6.547471
    42  H    8.689517   7.060111   4.576210   6.832918   7.350103
                   16         17         18         19         20
    16  C    0.000000
    17  C    1.394416   0.000000
    18  C    2.415603   1.397701   0.000000
    19  C    2.792248   2.422343   1.397549   0.000000
    20  C    2.417113   2.792456   2.414712   1.392807   0.000000
    21  H    2.152814   3.399089   3.872888   3.398142   2.153305
    22  H    1.085216   2.149930   3.398022   3.877445   3.401783
    23  H    2.151100   1.086416   2.161905   3.409424   3.878805
    24  H    3.878875   3.403513   2.152241   1.086739   2.159110
    25  H    3.401270   3.877715   3.397545   2.149166   1.085302
    26  C    6.946221   5.989198   5.458187   6.021217   6.973818
    27  C    7.134798   5.986037   5.338578   6.031059   7.172126
    28  C    6.224020   4.974814   4.232258   5.015734   6.256007
    29  C    4.882124   3.692980   2.925056   3.708498   4.893297
    30  C    4.603730   3.699948   3.141667   3.696892   4.601373
    31  C    5.782329   4.982705   4.527740   4.993338   5.791798
    32  H    7.871298   6.980639   6.500870   7.015341   7.902194
    33  H    8.163071   6.973064   6.319431   7.028497   8.209859
    34  H    6.708900   5.377889   4.596268   5.430184   6.749795
    35  H    3.725779   3.053106   2.621144   3.013809   3.694185
    36  H    5.963553   5.389962   5.069639   5.388690   5.963127
    37  C    5.569138   4.603722   3.412414   3.449696   4.661011
    38  C    6.923904   6.054959   4.811110   4.570353   5.672777
    39  O    4.988253   4.142492   3.204842   3.325807   4.333609
    40  H    7.563301   6.667758   5.530755   5.423492   6.493607
    41  H    6.919148   6.242721   5.004478   4.471929   5.378156
    42  H    7.515743   6.583375   5.264029   5.022852   6.196295
                   21         22         23         24         25
    21  H    0.000000
    22  H    2.482950   0.000000
    23  H    4.293314   2.471089   0.000000
    24  H    4.300906   4.964035   4.303047   0.000000
    25  H    2.482341   4.299591   4.964027   2.484846   0.000000
    26  C    8.275767   7.560955   5.939831   5.987979   7.608966
    27  C    8.640324   7.796864   5.841377   5.910931   7.860135
    28  C    7.812218   6.945281   4.844932   4.905142   6.998370
    29  C    6.413648   5.654585   3.732090   3.746050   5.673847
    30  C    5.915501   5.325298   3.885143   3.871612   5.324325
    31  C    6.979666   6.402833   5.078405   5.090097   6.421060
    32  H    9.128873   8.436805   6.913757   6.967813   8.491155
    33  H    9.708688   8.807502   6.759895   6.848402   8.887082
    34  H    8.369845   7.432917   5.172889   5.253240   7.500275
    35  H    4.879552   4.470542   3.455037   3.388166   4.426306
    36  H    6.936343   6.509310   5.557594   5.551581   6.511850
    37  C    6.567373   6.528129   5.020235   2.928725   5.107679
    38  C    7.660872   7.913297   6.528556   3.803433   5.880624
    39  O    5.991822   5.866613   4.551230   3.127621   4.853045
    40  H    8.377495   8.494341   7.038945   4.760868   6.737733
    41  H    7.348253   7.929470   6.861921   3.643087   5.399976
    42  H    8.274174   8.532836   7.036289   4.145460   6.374090
                   26         27         28         29         30
    26  C    0.000000
    27  C    1.396517   0.000000
    28  C    2.414049   1.391208   0.000000
    29  C    2.789123   2.417939   1.401182   0.000000
    30  C    2.417033   2.794732   2.423196   1.396787   0.000000
    31  C    1.392943   2.416960   2.790363   2.415405   1.395593
    32  H    1.085487   2.154210   3.396802   3.874610   3.400202
    33  H    2.157279   1.085172   2.147780   3.400729   3.879900
    34  H    3.399521   2.151186   1.087362   2.161826   3.408746
    35  H    3.399600   3.880890   3.410214   2.159845   1.086167
    36  H    2.153489   3.401449   3.875540   3.397326   2.150305
    37  C    6.742332   6.037033   4.740988   4.178978   5.149419
    38  C    7.644108   6.891829   5.705062   5.336079   6.281651
    39  O    7.445463   6.804977   5.455820   4.720008   5.607275
    40  H    8.439559   7.573382   6.347644   6.085730   7.138380
    41  H    8.209795   7.599502   6.448261   5.914645   6.684883
    42  H    7.247229   6.462355   5.404932   5.232558   6.180011
                   31         32         33         34         35
    31  C    0.000000
    32  H    2.151705   0.000000
    33  H    3.401240   2.484254   0.000000
    34  H    3.877704   4.294529   2.472893   0.000000
    35  H    2.153373   4.294649   4.966058   4.309815   0.000000
    36  H    1.085178   2.480884   4.299427   4.962880   2.473306
    37  C    6.364166   7.781891   6.671358   4.439175   5.188934
    38  C    7.376914   8.619376   7.404808   5.319774   6.372652
    39  O    6.929372   8.517226   7.501949   5.186385   5.471399
    40  H    8.247873   9.419925   8.003067   5.810182   7.263297
    41  H    7.802724   9.177009   8.187937   6.192293   6.624681
    42  H    7.123025   8.155291   6.882309   5.010710   6.409051
                   36         37         38         39         40
    36  H    0.000000
    37  C    7.190690   0.000000
    38  C    8.192481   1.519239   0.000000
    39  O    7.700945   1.255827   2.386529   0.000000
    40  H    9.110711   2.141673   1.093675   2.670794   0.000000
    41  H    8.519318   2.138450   1.094292   2.692707   1.764233
    42  H    7.956302   2.189235   1.091772   3.302891   1.783324
                   41         42
    41  H    0.000000
    42  H    1.781592   0.000000
 Stoichiometry    C21H19OP
 Framework group  C1[X(C21H19OP)]
 Deg. of freedom   120
 Full point group                 C1      NOp   1
 Largest Abelian subgroup         C1      NOp   1
 Largest concise Abelian subgroup C1      NOp   1
                         Standard orientation:                         
 ---------------------------------------------------------------------
 Center     Atomic      Atomic             Coordinates (Angstroms)
 Number     Number       Type             X           Y           Z
 ---------------------------------------------------------------------
      1          6           0       -0.563424    0.034441    2.087137
      2         15           0       -0.018313    0.003800    0.445867
      3          1           0        0.122165   -0.325231    2.843701
      4          6           0        0.638164    4.112531   -1.543552
      5          6           0        1.473880    3.046876   -1.875835
      6          6           0        1.287270    1.802072   -1.276325
      7          6           0        0.258087    1.623525   -0.344625
      8          6           0       -0.579726    2.693984   -0.009603
      9          6           0       -0.385521    3.935429   -0.612170
     10          1           0        0.786480    5.082458   -2.008063
     11          1           0        2.273064    3.183044   -2.597286
     12          1           0        1.947819    0.976879   -1.530171
     13          1           0       -1.382332    2.541582    0.706488
     14          1           0       -1.033947    4.766056   -0.352379
     15          6           0       -2.702864   -2.499525   -2.335218
     16          6           0       -1.937347   -1.465658   -2.872893
     17          6           0       -1.141708   -0.679746   -2.040009
     18          6           0       -1.109703   -0.935538   -0.666285
     19          6           0       -1.883930   -1.966184   -0.126392
     20          6           0       -2.678238   -2.747427   -0.962242
     21          1           0       -3.325283   -3.107562   -2.984210
     22          1           0       -1.962198   -1.264947   -3.939096
     23          1           0       -0.555825    0.131437   -2.463120
     24          1           0       -1.867719   -2.143503    0.945661
     25          1           0       -3.283599   -3.543553   -0.540813
     26          6           0        4.103377   -2.049391    0.506294
     27          6           0        3.894759   -0.850102    1.190722
     28          6           0        2.646742   -0.236472    1.153726
     29          6           0        1.599660   -0.822671    0.430330
     30          6           0        1.810256   -2.020202   -0.257117
     31          6           0        3.064056   -2.631704   -0.215520
     32          1           0        5.077451   -2.527472    0.536285
     33          1           0        4.703979   -0.392683    1.750660
     34          1           0        2.487140    0.700932    1.681131
     35          1           0        1.003466   -2.478503   -0.821748
     36          1           0        3.224919   -3.563387   -0.748157
     37          6           0       -1.889269    0.416340    2.368393
     38          6           0       -2.375251    0.313655    3.804138
     39          8           0       -2.694457    0.822530    1.494447
     40          1           0       -2.751824    1.289537    4.123468
     41          1           0       -3.212322   -0.390149    3.842189
     42          1           0       -1.596711   -0.017577    4.494158
 ---------------------------------------------------------------------
 Rotational constants (GHZ):           0.2447969           0.2323007           0.1937245
 Leave Link  202 at Sun Sep 27 20:02:32 2026, MaxMem= 12884901888 cpu:               0.0 elap:               0.0
 (Enter /opt/apps/Gaussian/G16C/g16/l301.exe)
 Standard basis: 6-31+G(d,p) (6D, 7F)
 Ernie: Thresh=  0.10000D-02 Tol=  0.10000D-05 Strict=F.
 There are   536 symmetry adapted cartesian basis functions of A   symmetry.
 There are   536 symmetry adapted basis functions of A   symmetry.
   536 basis functions,   893 primitive gaussians,   536 cartesian basis functions
    84 alpha electrons       84 beta electrons
       nuclear repulsion energy      1992.9229813629 Hartrees.
 IExCor= 4336 DFT=T Ex+Corr=M062X ExCW=0 ScaHFX=  0.540000
 ScaDFX=  1.000000  1.000000  1.000000  1.000000 ScalE2=  1.000000  1.000000
 IRadAn=      4 IRanWt=     -1 IRanGd=            0 ICorTp=0 IEmpDi=  4
 NAtoms=   42 NActive=   42 NUniq=   42 SFac= 1.00D+00 NAtFMM=   60 NAOKFM=F Big=F
 Integral buffers will be    131072 words long.
 Raffenetti 2 integral format.
 Two-electron integral symmetry is turned on.
 Force inversion solution in PCM.
 ------------------------------------------------------------------------------
 Polarizable Continuum Model (PCM)
 =================================
 Model                : PCM.
 Atomic radii         : UFF (Universal Force Field).
 Polarization charges : Total charges.
 Charge compensation  : None.
 Solution method      : Matrix inversion.
 Cavity type          : Scaled VdW (van der Waals Surface) (Alpha=1.100).
 Cavity algorithm     : GePol (No added spheres)
                        Default sphere list used, NSphG=   42.
                        Lebedev-Laikov grids with approx.  5.0 points / Ang**2.
                        Smoothing algorithm: York/Karplus (Gamma=1.0000).
                        Polarization charges: spherical gaussians, with
                                              point-specific exponents (IZeta= 3).
                        Self-potential: point-specific (ISelfS= 7).
                        Self-field    : sphere-specific E.n sum rule (ISelfD= 2).
 1st derivatives      : Analytical E(r).r(x)/FMM algorithm (CHGder, D1EAlg=3).
                        Cavity 1st derivative terms included.
 2nd derivatives      : Analytical E(r).r(xy)/FMM algorithm (CHGder, D2EAlg=3).
                        Cavity 2nd derivative terms included.
 Solvent              : TetraHydroFuran, Eps=   7.425700 Eps(inf)=   1.974025
 ------------------------------------------------------------------------------
 GePol: Number of generator spheres                  =      42
 GePol: Total number of spheres                      =      42
 GePol: Number of exposed spheres                    =      42 (100.00%)
 GePol: Number of points                             =    3086
 GePol: Average weight of points                     =       0.13
 GePol: Minimum weight of points                     =   0.31D-11
 GePol: Maximum weight of points                     =    0.20577
 GePol: Number of points with low weight             =     196
 GePol: Fraction of low-weight points (<1% of avg)   =       6.35%
 GePol: Cavity surface area                          =    402.711 Ang**2
 GePol: Cavity volume                                =    453.535 Ang**3
 Leave Link  301 at Sun Sep 27 20:02:33 2026, MaxMem= 12884901888 cpu:               0.0 elap:               0.0
 (Enter /opt/apps/Gaussian/G16C/g16/l302.exe)
 NPDir=0 NMtPBC=     1 NCelOv=     1 NCel=       1 NClECP=     1 NCelD=      1
         NCelK=      1 NCelE2=     1 NClLst=     1 CellRange=     0.0.
 One-electron integrals computed using PRISM.
 One-electron integral symmetry used in STVInt
 NBasis=   536 RedAO= T EigKep=  1.18D-06  NBF=   536
 NBsUse=   535 1.00D-06 EigRej=  8.69D-07 NBFU=   535
 Precomputing XC quadrature grid using
 IXCGrd= 4 IRadAn=           4 IRanWt=          -1 IRanGd=           0 AccXCQ= 0.00D+00.
 Generated NRdTot=       0 NPtTot=           0 NUsed=           0 NTot=          32
 NSgBfM=   532   531   532   532   532 MxSgAt=    42 MxSgA2=    42.
 Leave Link  302 at Sun Sep 27 20:02:33 2026, MaxMem= 12884901888 cpu:               3.3 elap:               0.4
 (Enter /opt/apps/Gaussian/G16C/g16/l303.exe)
 DipDrv:  MaxL=1.
 Leave Link  303 at Sun Sep 27 20:02:33 2026, MaxMem= 12884901888 cpu:               0.1 elap:               0.0
 (Enter /opt/apps/Gaussian/G16C/g16/l401.exe)
 ExpMin= 3.48D-02 ExpMax= 1.94D+04 ExpMxC= 2.91D+03 IAcc=3 IRadAn=         5 AccDes= 0.00D+00
 Harris functional with IExCor= 1009 and IRadAn=       5 diagonalized for initial guess.
 HarFok:  IExCor= 1009 AccDes= 0.00D+00 IRadAn=         5 IDoV= 1 UseB2=F ITyADJ=14
 ICtDFT=  3500011 ScaDFX=  1.000000  1.000000  1.000000  1.000000
 FoFCou: FMM=F IPFlag=           0 FMFlag=      100000 FMFlg1=           0
         NFxFlg=           0 DoJE=T BraDBF=F KetDBF=T FulRan=T
         wScrn=  0.000000 ICntrl=       500 IOpCl=  0 I1Cent=   200000004 NGrid=           0
         NMat0=    1 NMatS0=      1 NMatT0=    0 NMatD0=    1 NMtDS0=    0 NMtDT0=    0
 Petite list used in FoFCou.
 Harris En= -1227.39443262061    
 JPrj=0 DoOrth=F DoCkMO=F.
 Leave Link  401 at Sun Sep 27 20:02:35 2026, MaxMem= 12884901888 cpu:              34.7 elap:               2.4
 (Enter /opt/apps/Gaussian/G16C/g16/l502.exe)
 Integral symmetry usage will be decided dynamically.
 Closed shell SCF:
 Using DIIS extrapolation, IDIIS=  1040.
 NGot= 12884901888 LenX= 12884312361 LenY= 12884024529
 Requested convergence on RMS density matrix=1.00D-08 within 128 cycles.
 Requested convergence on MAX density matrix=1.00D-06.
 Requested convergence on             energy=1.00D-06.
 No special actions if energy rises.
 Fock matrices will be formed incrementally for  20 cycles.

 Cycle   1  Pass 1  IDiag  1:
 FoFJK:  IHMeth= 1 ICntrl=       0 DoSepK=F KAlg= 0 I1Cent=           0 FoldK=F
 IRaf= 810000000 NMat=       1 IRICut=       1 DoRegI=T DoRafI=F ISym2E= 0 IDoP0=0 IntGTp=1.
 FoFCou: FMM=F IPFlag=           0 FMFlag=      100000 FMFlg1=           0
         NFxFlg=           0 DoJE=F BraDBF=F KetDBF=F FulRan=T
         wScrn=  0.000000 ICntrl=         0 IOpCl=  0 I1Cent=           0 NGrid=           0
         NMat0=    1 NMatS0=      1 NMatT0=    0 NMatD0=    1 NMtDS0=    0 NMtDT0=    0
 Symmetry not used in FoFCou.
 Inv3:  Mode=1 IEnd=    28570188.
 Iteration    1 A*A^-1 deviation from unit magnitude is 1.20D-14 for   3071.
 Iteration    1 A*A^-1 deviation from orthogonality  is 3.88D-15 for   3082   3066.
 Iteration    1 A^-1*A deviation from unit magnitude is 1.20D-14 for   3071.
 Iteration    1 A^-1*A deviation from orthogonality  is 7.77D-15 for   2862   2837.
 E= -1227.26736872959    
 DIIS: error= 1.87D-02 at cycle   1 NSaved=   1.
 NSaved= 1 IEnMin= 1 EnMin= -1227.26736872959     IErMin= 1 ErrMin= 1.87D-02
 ErrMax= 1.87D-02  0.00D+00 EMaxC= 1.00D-01 BMatC= 6.40D-01 BMatP= 6.40D-01
 IDIUse=3 WtCom= 8.13D-01 WtEn= 1.87D-01
 Coeff-Com:  0.100D+01
 Coeff-En:   0.100D+01
 Coeff:      0.100D+01
 Gap=     0.209 Goal=   None    Shift=    0.000
 GapD=    0.209 DampG=1.000 DampE=0.500 DampFc=0.5000 IDamp=-1.
 Damping current iteration by 5.00D-01
 RMSDP=1.03D-01 MaxDP=1.19D+01              OVMax= 2.35D-01

 Cycle   2  Pass 1  IDiag  1:
 RMSU=  4.58D-02    CP:  1.19D+00
 E= -1227.57320714726     Delta-E=       -0.305838417666 Rises=F Damp=T
 DIIS: error= 1.01D-02 at cycle   2 NSaved=   2.
 NSaved= 2 IEnMin= 2 EnMin= -1227.57320714726     IErMin= 2 ErrMin= 1.01D-02
 ErrMax= 1.01D-02  0.00D+00 EMaxC= 1.00D-01 BMatC= 4.93D-02 BMatP= 6.40D-01
 IDIUse=3 WtCom= 8.99D-01 WtEn= 1.01D-01
 Coeff-Com: -0.102D+00 0.110D+01
 Coeff-En:   0.000D+00 0.100D+01
 Coeff:     -0.917D-01 0.109D+01
 Gap=     0.318 Goal=   None    Shift=    0.000
 RMSDP=5.20D-02 MaxDP=6.77D+00 DE=-3.06D-01 OVMax= 1.41D-01

 Cycle   3  Pass 1  IDiag  1:
 RMSU=  1.84D-02    CP:  8.24D-01  6.70D-01
 E= -1227.85314216191     Delta-E=       -0.279935014651 Rises=F Damp=F
 DIIS: error= 4.31D-03 at cycle   3 NSaved=   3.
 NSaved= 3 IEnMin= 3 EnMin= -1227.85314216191     IErMin= 3 ErrMin= 4.31D-03
 ErrMax= 4.31D-03  0.00D+00 EMaxC= 1.00D-01 BMatC= 2.26D-02 BMatP= 4.93D-02
 IDIUse=3 WtCom= 9.57D-01 WtEn= 4.31D-02
 Coeff-Com: -0.962D-01 0.462D+00 0.634D+00
 Coeff-En:   0.000D+00 0.000D+00 0.100D+01
 Coeff:     -0.920D-01 0.442D+00 0.650D+00
 Gap=     0.244 Goal=   None    Shift=    0.000
 RMSDP=1.15D-02 MaxDP=1.19D+00 DE=-2.80D-01 OVMax= 6.43D-02

 Cycle   4  Pass 1  IDiag  1:
 RMSU=  5.44D-03    CP:  8.75D-01  8.18D-01  7.90D-01
 E= -1227.86870901839     Delta-E=       -0.015566856478 Rises=F Damp=F
 DIIS: error= 1.92D-03 at cycle   4 NSaved=   4.
 NSaved= 4 IEnMin= 4 EnMin= -1227.86870901839     IErMin= 4 ErrMin= 1.92D-03
 ErrMax= 1.92D-03  0.00D+00 EMaxC= 1.00D-01 BMatC= 5.60D-03 BMatP= 2.26D-02
 IDIUse=3 WtCom= 9.81D-01 WtEn= 1.92D-02
 Coeff-Com: -0.361D-01 0.105D+00 0.361D+00 0.569D+00
 Coeff-En:   0.000D+00 0.000D+00 0.200D+00 0.800D+00
 Coeff:     -0.354D-01 0.103D+00 0.358D+00 0.574D+00
 Gap=     0.239 Goal=   None    Shift=    0.000
 RMSDP=3.68D-03 MaxDP=3.34D-01 DE=-1.56D-02 OVMax= 1.95D-02

 Cycle   5  Pass 1  IDiag  1:
 RMSU=  2.32D-03    CP:  8.66D-01  8.19D-01  8.76D-01  6.12D-01
 E= -1227.87390690287     Delta-E=       -0.005197884486 Rises=F Damp=F
 DIIS: error= 2.07D-04 at cycle   5 NSaved=   5.
 NSaved= 5 IEnMin= 5 EnMin= -1227.87390690287     IErMin= 5 ErrMin= 2.07D-04
 ErrMax= 2.07D-04  0.00D+00 EMaxC= 1.00D-01 BMatC= 8.34D-05 BMatP= 5.60D-03
 IDIUse=3 WtCom= 9.98D-01 WtEn= 2.07D-03
 Coeff-Com: -0.781D-02 0.166D-01 0.869D-01 0.190D+00 0.715D+00
 Coeff-En:   0.000D+00 0.000D+00 0.000D+00 0.000D+00 0.100D+01
 Coeff:     -0.779D-02 0.166D-01 0.867D-01 0.189D+00 0.715D+00
 Gap=     0.240 Goal=   None    Shift=    0.000
 RMSDP=1.10D-03 MaxDP=1.25D-01 DE=-5.20D-03 OVMax= 2.90D-03

 Cycle   6  Pass 1  IDiag  1:
 RMSU=  3.75D-04    CP:  8.60D-01  8.07D-01  8.90D-01  6.10D-01  8.91D-01
 E= -1227.87398491416     Delta-E=       -0.000078011290 Rises=F Damp=F
 DIIS: error= 5.43D-05 at cycle   6 NSaved=   6.
 NSaved= 6 IEnMin= 6 EnMin= -1227.87398491416     IErMin= 6 ErrMin= 5.43D-05
 ErrMax= 5.43D-05  0.00D+00 EMaxC= 1.00D-01 BMatC= 7.75D-06 BMatP= 8.34D-05
 IDIUse=1 WtCom= 1.00D+00 WtEn= 0.00D+00
 Coeff-Com: -0.101D-02 0.735D-03 0.130D-01 0.405D-01 0.278D+00 0.669D+00
 Coeff:     -0.101D-02 0.735D-03 0.130D-01 0.405D-01 0.278D+00 0.669D+00
 Gap=     0.240 Goal=   None    Shift=    0.000
 RMSDP=2.92D-04 MaxDP=2.07D-02 DE=-7.80D-05 OVMax= 9.76D-04

 Cycle   7  Pass 1  IDiag  1:
 RMSU=  1.92D-04    CP:  8.61D-01  8.09D-01  8.90D-01  6.20D-01  9.59D-01
                    CP:  8.12D-01
 E= -1227.87399314457     Delta-E=       -0.000008230404 Rises=F Damp=F
 DIIS: error= 2.39D-05 at cycle   7 NSaved=   7.
 NSaved= 7 IEnMin= 7 EnMin= -1227.87399314457     IErMin= 7 ErrMin= 2.39D-05
 ErrMax= 2.39D-05  0.00D+00 EMaxC= 1.00D-01 BMatC= 9.26D-07 BMatP= 7.75D-06
 IDIUse=1 WtCom= 1.00D+00 WtEn= 0.00D+00
 Coeff-Com:  0.704D-03-0.202D-02-0.691D-02-0.117D-01 0.103D-01 0.248D+00
 Coeff-Com:  0.762D+00
 Coeff:      0.704D-03-0.202D-02-0.691D-02-0.117D-01 0.103D-01 0.248D+00
 Coeff:      0.762D+00
 Gap=     0.240 Goal=   None    Shift=    0.000
 RMSDP=1.11D-04 MaxDP=1.33D-02 DE=-8.23D-06 OVMax= 5.27D-04

 Cycle   8  Pass 1  IDiag  1:
 RMSU=  4.19D-05    CP:  8.61D-01  8.08D-01  8.92D-01  6.16D-01  9.87D-01
                    CP:  9.07D-01  1.11D+00
 E= -1227.87399424333     Delta-E=       -0.000001098762 Rises=F Damp=F
 DIIS: error= 1.09D-05 at cycle   8 NSaved=   8.
 NSaved= 8 IEnMin= 8 EnMin= -1227.87399424333     IErMin= 8 ErrMin= 1.09D-05
 ErrMax= 1.09D-05  0.00D+00 EMaxC= 1.00D-01 BMatC= 2.09D-07 BMatP= 9.26D-07
 IDIUse=1 WtCom= 1.00D+00 WtEn= 0.00D+00
 Coeff-Com:  0.478D-03-0.109D-02-0.485D-02-0.115D-01-0.298D-01 0.400D-01
 Coeff-Com:  0.377D+00 0.630D+00
 Coeff:      0.478D-03-0.109D-02-0.485D-02-0.115D-01-0.298D-01 0.400D-01
 Coeff:      0.377D+00 0.630D+00
 Gap=     0.240 Goal=   None    Shift=    0.000
 RMSDP=4.51D-05 MaxDP=6.33D-03 DE=-1.10D-06 OVMax= 1.59D-04

 Cycle   9  Pass 1  IDiag  1:
 RMSU=  2.34D-05    CP:  8.61D-01  8.08D-01  8.93D-01  6.16D-01  9.96D-01
                    CP:  9.39D-01  1.17D+00  1.05D+00
 E= -1227.87399446715     Delta-E=       -0.000000223819 Rises=F Damp=F
 DIIS: error= 4.05D-06 at cycle   9 NSaved=   9.
 NSaved= 9 IEnMin= 9 EnMin= -1227.87399446715     IErMin= 9 ErrMin= 4.05D-06
 ErrMax= 4.05D-06  0.00D+00 EMaxC= 1.00D-01 BMatC= 1.95D-08 BMatP= 2.09D-07
 IDIUse=1 WtCom= 1.00D+00 WtEn= 0.00D+00
 Coeff-Com:  0.881D-04-0.157D-03-0.756D-03-0.301D-02-0.114D-01-0.137D-01
 Coeff-Com:  0.488D-01 0.223D+00 0.758D+00
 Coeff:      0.881D-04-0.157D-03-0.756D-03-0.301D-02-0.114D-01-0.137D-01
 Coeff:      0.488D-01 0.223D+00 0.758D+00
 Gap=     0.240 Goal=   None    Shift=    0.000
 RMSDP=2.72D-05 MaxDP=2.86D-03 DE=-2.24D-07 OVMax= 1.08D-04

 Cycle  10  Pass 1  IDiag  1:
 RMSU=  1.29D-05    CP:  8.61D-01  8.08D-01  8.94D-01  6.15D-01  9.96D-01
                    CP:  9.58D-01  1.19D+00  1.12D+00  1.45D+00
 E= -1227.87399450061     Delta-E=       -0.000000033465 Rises=F Damp=F
 DIIS: error= 1.31D-06 at cycle  10 NSaved=  10.
 NSaved=10 IEnMin=10 EnMin= -1227.87399450061     IErMin=10 ErrMin= 1.31D-06
 ErrMax= 1.31D-06  0.00D+00 EMaxC= 1.00D-01 BMatC= 3.89D-09 BMatP= 1.95D-08
 IDIUse=1 WtCom= 1.00D+00 WtEn= 0.00D+00
 Coeff-Com: -0.733D-04 0.180D-03 0.869D-03 0.134D-02 0.251D-02-0.133D-01
 Coeff-Com: -0.644D-01-0.791D-01 0.284D+00 0.868D+00
 Coeff:     -0.733D-04 0.180D-03 0.869D-03 0.134D-02 0.251D-02-0.133D-01
 Coeff:     -0.644D-01-0.791D-01 0.284D+00 0.868D+00
 Gap=     0.240 Goal=   None    Shift=    0.000
 RMSDP=1.21D-05 MaxDP=1.63D-03 DE=-3.35D-08 OVMax= 6.36D-05

 Cycle  11  Pass 1  IDiag  1:
 RMSU=  2.65D-06    CP:  8.61D-01  8.08D-01  8.94D-01  6.14D-01  9.97D-01
                    CP:  9.60D-01  1.22D+00  1.17D+00  1.64D+00  1.14D+00
 E= -1227.87399450745     Delta-E=       -0.000000006837 Rises=F Damp=F
 DIIS: error= 2.99D-07 at cycle  11 NSaved=  11.
 NSaved=11 IEnMin=11 EnMin= -1227.87399450745     IErMin=11 ErrMin= 2.99D-07
 ErrMax= 2.99D-07  0.00D+00 EMaxC= 1.00D-01 BMatC= 1.76D-10 BMatP= 3.89D-09
 IDIUse=1 WtCom= 1.00D+00 WtEn= 0.00D+00
 Coeff-Com: -0.193D-04 0.470D-04 0.254D-03 0.458D-03 0.121D-02-0.200D-02
 Coeff-Com: -0.173D-01-0.363D-01 0.195D-01 0.203D+00 0.831D+00
 Coeff:     -0.193D-04 0.470D-04 0.254D-03 0.458D-03 0.121D-02-0.200D-02
 Coeff:     -0.173D-01-0.363D-01 0.195D-01 0.203D+00 0.831D+00
 Gap=     0.240 Goal=   None    Shift=    0.000
 RMSDP=1.76D-06 MaxDP=1.49D-04 DE=-6.84D-09 OVMax= 1.28D-05

 Cycle  12  Pass 1  IDiag  1:
 RMSU=  8.37D-07    CP:  8.61D-01  8.08D-01  8.94D-01  6.14D-01  9.98D-01
                    CP:  9.60D-01  1.22D+00  1.18D+00  1.67D+00  1.14D+00
                    CP:  1.14D+00
 E= -1227.87399450767     Delta-E=       -0.000000000217 Rises=F Damp=F
 DIIS: error= 1.52D-07 at cycle  12 NSaved=  12.
 NSaved=12 IEnMin=12 EnMin= -1227.87399450767     IErMin=12 ErrMin= 1.52D-07
 ErrMax= 1.52D-07  0.00D+00 EMaxC= 1.00D-01 BMatC= 4.97D-11 BMatP= 1.76D-10
 IDIUse=1 WtCom= 1.00D+00 WtEn= 0.00D+00
 Coeff-Com:  0.412D-05-0.960D-05-0.204D-04-0.133D-04 0.158D-03 0.135D-02
 Coeff-Com:  0.270D-02-0.515D-02-0.373D-01-0.461D-01 0.388D+00 0.697D+00
 Coeff:      0.412D-05-0.960D-05-0.204D-04-0.133D-04 0.158D-03 0.135D-02
 Coeff:      0.270D-02-0.515D-02-0.373D-01-0.461D-01 0.388D+00 0.697D+00
 Gap=     0.240 Goal=   None    Shift=    0.000
 RMSDP=1.05D-06 MaxDP=1.15D-04 DE=-2.17D-10 OVMax= 5.02D-06

 Cycle  13  Pass 1  IDiag  1:
 RMSU=  3.59D-07    CP:  8.61D-01  8.08D-01  8.94D-01  6.14D-01  9.98D-01
                    CP:  9.60D-01  1.22D+00  1.17D+00  1.68D+00  1.19D+00
                    CP:  1.25D+00  1.03D+00
 E= -1227.87399450801     Delta-E=       -0.000000000345 Rises=F Damp=F
 DIIS: error= 5.31D-08 at cycle  13 NSaved=  13.
 NSaved=13 IEnMin=13 EnMin= -1227.87399450801     IErMin=13 ErrMin= 5.31D-08
 ErrMax= 5.31D-08  0.00D+00 EMaxC= 1.00D-01 BMatC= 3.02D-12 BMatP= 4.97D-11
 IDIUse=1 WtCom= 1.00D+00 WtEn= 0.00D+00
 Coeff-Com:  0.281D-05-0.671D-05-0.214D-04-0.333D-04-0.894D-05 0.617D-03
 Coeff-Com:  0.209D-02 0.966D-04-0.142D-01-0.295D-01 0.793D-01 0.256D+00
 Coeff-Com:  0.706D+00
 Coeff:      0.281D-05-0.671D-05-0.214D-04-0.333D-04-0.894D-05 0.617D-03
 Coeff:      0.209D-02 0.966D-04-0.142D-01-0.295D-01 0.793D-01 0.256D+00
 Coeff:      0.706D+00
 Gap=     0.240 Goal=   None    Shift=    0.000
 RMSDP=1.89D-07 MaxDP=2.22D-05 DE=-3.45D-10 OVMax= 1.05D-06

 Cycle  14  Pass 1  IDiag  1:
 RMSU=  7.56D-08    CP:  8.61D-01  8.08D-01  8.94D-01  6.14D-01  9.98D-01
                    CP:  9.60D-01  1.22D+00  1.17D+00  1.68D+00  1.19D+00
                    CP:  1.28D+00  1.09D+00  9.31D-01
 E= -1227.87399450789     Delta-E=        0.000000000125 Rises=F Damp=F
 DIIS: error= 1.65D-08 at cycle  14 NSaved=  14.
 NSaved=14 IEnMin=13 EnMin= -1227.87399450801     IErMin=14 ErrMin= 1.65D-08
 ErrMax= 1.65D-08  0.00D+00 EMaxC= 1.00D-01 BMatC= 4.59D-13 BMatP= 3.02D-12
 IDIUse=1 WtCom= 1.00D+00 WtEn= 0.00D+00
 Coeff-Com:  0.370D-06-0.938D-06-0.346D-05-0.837D-05-0.198D-04 0.278D-04
 Coeff-Com:  0.356D-03 0.555D-03 0.204D-03-0.396D-02-0.300D-01-0.660D-02
 Coeff-Com:  0.290D+00 0.750D+00
 Coeff:      0.370D-06-0.938D-06-0.346D-05-0.837D-05-0.198D-04 0.278D-04
 Coeff:      0.356D-03 0.555D-03 0.204D-03-0.396D-02-0.300D-01-0.660D-02
 Coeff:      0.290D+00 0.750D+00
 Gap=     0.240 Goal=   None    Shift=    0.000
 RMSDP=8.89D-08 MaxDP=6.71D-06 DE= 1.25D-10 OVMax= 4.48D-07

 Cycle  15  Pass 1  IDiag  1:
 RMSU=  3.55D-08    CP:  8.61D-01  8.08D-01  8.94D-01  6.14D-01  9.98D-01
                    CP:  9.60D-01  1.22D+00  1.17D+00  1.68D+00  1.19D+00
                    CP:  1.28D+00  1.13D+00  9.90D-01  1.09D+00
 E= -1227.87399450781     Delta-E=        0.000000000080 Rises=F Damp=F
 DIIS: error= 3.78D-09 at cycle  15 NSaved=  15.
 NSaved=15 IEnMin=13 EnMin= -1227.87399450801     IErMin=15 ErrMin= 3.78D-09
 ErrMax= 3.78D-09  0.00D+00 EMaxC= 1.00D-01 BMatC= 2.40D-14 BMatP= 4.59D-13
 IDIUse=1 WtCom= 1.00D+00 WtEn= 0.00D+00
 Coeff-Com: -0.153D-06 0.334D-06 0.997D-06 0.925D-06-0.414D-05-0.444D-04
 Coeff-Com: -0.746D-04 0.107D-03 0.122D-02 0.171D-02-0.149D-01-0.248D-01
 Coeff-Com:  0.163D-01 0.208D+00 0.812D+00
 Coeff:     -0.153D-06 0.334D-06 0.997D-06 0.925D-06-0.414D-05-0.444D-04
 Coeff:     -0.746D-04 0.107D-03 0.122D-02 0.171D-02-0.149D-01-0.248D-01
 Coeff:      0.163D-01 0.208D+00 0.812D+00
 Gap=     0.240 Goal=   None    Shift=    0.000
 RMSDP=3.33D-08 MaxDP=3.62D-06 DE= 8.00D-11 OVMax= 1.42D-07

 Cycle  16  Pass 1  IDiag  1:
 RMSU=  1.19D-08    CP:  8.61D-01  8.08D-01  8.94D-01  6.14D-01  9.98D-01
                    CP:  9.60D-01  1.22D+00  1.17D+00  1.68D+00  1.19D+00
                    CP:  1.29D+00  1.13D+00  1.01D+00  1.17D+00  1.24D+00
 E= -1227.87399450790     Delta-E=       -0.000000000096 Rises=F Damp=F
 DIIS: error= 1.35D-09 at cycle  16 NSaved=  16.
 NSaved=16 IEnMin=13 EnMin= -1227.87399450801     IErMin=16 ErrMin= 1.35D-09
 ErrMax= 1.35D-09  0.00D+00 EMaxC= 1.00D-01 BMatC= 3.45D-15 BMatP= 2.40D-14
 IDIUse=1 WtCom= 1.00D+00 WtEn= 0.00D+00
 Coeff-Com: -0.876D-07 0.199D-06 0.600D-06 0.108D-05-0.173D-06-0.193D-04
 Coeff-Com: -0.598D-04-0.126D-04 0.406D-03 0.113D-02-0.233D-02-0.866D-02
 Coeff-Com: -0.249D-01-0.420D-02 0.266D+00 0.773D+00
 Coeff:     -0.876D-07 0.199D-06 0.600D-06 0.108D-05-0.173D-06-0.193D-04
 Coeff:     -0.598D-04-0.126D-04 0.406D-03 0.113D-02-0.233D-02-0.866D-02
 Coeff:     -0.249D-01-0.420D-02 0.266D+00 0.773D+00
 Gap=     0.240 Goal=   None    Shift=    0.000
 RMSDP=8.11D-09 MaxDP=9.78D-07 DE=-9.60D-11 OVMax= 3.38D-08

 Error on total polarization charges =  0.01844
 SCF Done:  E(RM062X) =  -1227.87399451     A.U. after   16 cycles
            NFock= 16  Conv=0.81D-08     -V/T= 2.0073
 KE= 1.218957738897D+03 PE=-6.852099093466D+03 EE= 2.412344378697D+03
 Leave Link  502 at Sun Sep 27 20:04:24 2026, MaxMem= 12884901888 cpu:            1587.9 elap:             108.5
 (Enter /opt/apps/Gaussian/G16C/g16/l801.exe)
 DoSCS=F DFT=T ScalE2(SS,OS)=  1.000000  1.000000
 Range of M.O.s used for correlation:     1   535
 NBasis=   536 NAE=    84 NBE=    84 NFC=     0 NFV=     0
 NROrb=    535 NOA=    84 NOB=    84 NVA=   451 NVB=   451

 **** Warning!!: The largest alpha MO coefficient is  0.16678549D+03

 Leave Link  801 at Sun Sep 27 20:04:24 2026, MaxMem= 12884901888 cpu:               0.0 elap:               0.0
 (Enter /opt/apps/Gaussian/G16C/g16/l1101.exe)
 Using compressed storage, NAtomX=    42.
 Will process     43 centers per pass.
 Leave Link 1101 at Sun Sep 27 20:04:24 2026, MaxMem= 12884901888 cpu:               3.4 elap:               0.4
 (Enter /opt/apps/Gaussian/G16C/g16/l1102.exe)
 Symmetrizing basis deriv contribution to polar:
 IMax=3 JMax=2 DiffMx= 0.00D+00
 Leave Link 1102 at Sun Sep 27 20:04:24 2026, MaxMem= 12884901888 cpu:               0.1 elap:               0.0
 (Enter /opt/apps/Gaussian/G16C/g16/l1110.exe)
 Forming Gx(P) for the SCF density, NAtomX=    42.
 Integral derivatives from FoFJK, PRISM(SPDF).
 Do as many integral derivatives as possible in FoFJK.
 G2DrvN: MDV=   12884897426.
 G2DrvN: will do    43 centers at a time, making    1 passes.
 Calling FoFCou, ICntrl=  3107 FMM=F I1Cent=   0 AccDes= 0.00D+00.
 FoFJK:  IHMeth= 1 ICntrl=    3107 DoSepK=F KAlg= 0 I1Cent=           0 FoldK=F
 IRaf=         0 NMat=       1 IRICut=       1 DoRegI=T DoRafI=F ISym2E= 0 IDoP0=0 IntGTp=1.
 FoFCou: FMM=F IPFlag=           0 FMFlag=      100000 FMFlg1=           0
         NFxFlg=           0 DoJE=F BraDBF=F KetDBF=F FulRan=T
         wScrn=  0.000000 ICntrl=      3107 IOpCl=  0 I1Cent=           0 NGrid=           0
         NMat0=    1 NMatS0=      1 NMatT0=    0 NMatD0=    1 NMtDS0=    0 NMtDT0=    0
 Symmetry not used in FoFCou.
 NEqPCM:  Using equilibrium solvation (IEInf=0, Eps=   7.4257, EpsInf=   1.9740)
 G2PCM: DoFxE=T DoFxN=T DoGrad=T DoDP/DQ/DG/TGxP=FFFF NFrqRd=   0 IEInf=0 SqF1=F DoCFld=F IF1Alg=4.
 GePol: Maximum number of non-zero 1st derivatives   =     209
 End of G2Drv F.D. properties file   721 does not exist.
 End of G2Drv F.D. properties file   722 does not exist.
 End of G2Drv F.D. properties file   788 does not exist.
 Leave Link 1110 at Sun Sep 27 20:07:59 2026, MaxMem= 12884901888 cpu:            3398.3 elap:             214.4
 (Enter /opt/apps/Gaussian/G16C/g16/l1002.exe)
 Minotr:  Closed shell wavefunction.
          IDoAtm=111111111111111111111111111111111111111111
 NEqPCM:  Using equilibrium solvation (IEInf=0, Eps=   7.4257, EpsInf=   1.9740)
          Direct CPHF calculation.
          Differentiating once with respect to electric field.
                with respect to dipole field.
          Differentiating once with respect to nuclear coordinates.
          Requested convergence is 1.0D-08 RMS, and 1.0D-07 maximum.
          Secondary convergence is 1.0D-12 RMS, and 1.0D-12 maximum.
          NewPWx=T KeepS1=F KeepF1=F KeepIn=T MapXYZ=F SortEE=F KeepMc=T.
         9101 words used for storage of precomputed grid.
 Two-electron integrals replicated using symmetry.
          MDV=   12884901888 using IRadAn=       2.
          Solving linear equations simultaneously, MaxMat=     384.
 FoF2E skips out because all densities are zero.
 CalDSu exits because no D1Ps are significant.
 FoFJK:  IHMeth= 1 ICntrl=       0 DoSepK=F KAlg= 0 I1Cent=           0 FoldK=F
 IRaf= 810000000 NMat=     126 IRICut=     315 DoRegI=T DoRafI=T ISym2E= 2 IDoP0=0 IntGTp=1.
          There are   129 degrees of freedom in the 1st order CPHF.  IDoFFX=6 NUNeed=     3.
    126 vectors produced by pass  0 Test12= 3.79D-14 1.00D-09 XBig12= 1.90D+02 3.80D+00.
 AX will form   126 AO Fock derivatives at one time.
    126 vectors produced by pass  1 Test12= 3.79D-14 1.00D-09 XBig12= 1.98D+01 6.31D-01.
    126 vectors produced by pass  2 Test12= 3.79D-14 1.00D-09 XBig12= 3.24D-01 4.99D-02.
    126 vectors produced by pass  3 Test12= 3.79D-14 1.00D-09 XBig12= 2.74D-03 5.50D-03.
    126 vectors produced by pass  4 Test12= 3.79D-14 1.00D-09 XBig12= 1.65D-05 3.50D-04.
    126 vectors produced by pass  5 Test12= 3.79D-14 1.00D-09 XBig12= 8.36D-08 1.72D-05.
    109 vectors produced by pass  6 Test12= 3.79D-14 1.00D-09 XBig12= 4.00D-10 1.25D-06.
     53 vectors produced by pass  7 Test12= 3.79D-14 1.00D-09 XBig12= 1.69D-11 5.32D-07.
     35 vectors produced by pass  8 Test12= 3.79D-14 1.00D-09 XBig12= 4.05D-12 1.82D-07.
     24 vectors produced by pass  9 Test12= 3.79D-14 1.00D-09 XBig12= 6.30D-13 5.87D-08.
     19 vectors produced by pass 10 Test12= 3.79D-14 1.00D-09 XBig12= 9.96D-14 2.82D-08.
     19 vectors produced by pass 11 Test12= 3.79D-14 1.00D-09 XBig12= 1.95D-14 1.01D-08.
     17 vectors produced by pass 12 Test12= 3.79D-14 1.00D-09 XBig12= 3.31D-15 4.86D-09.
     13 vectors produced by pass 13 Test12= 3.79D-14 1.00D-09 XBig12= 6.48D-16 2.03D-09.
      8 vectors produced by pass 14 Test12= 3.79D-14 1.00D-09 XBig12= 3.95D-16 1.38D-09.
      4 vectors produced by pass 15 Test12= 3.79D-14 1.00D-09 XBig12= 3.35D-16 1.44D-09.
      3 vectors produced by pass 16 Test12= 3.79D-14 1.00D-09 XBig12= 2.98D-16 1.03D-09.
      2 vectors produced by pass 17 Test12= 3.79D-14 1.00D-09 XBig12= 4.27D-16 1.40D-09.
      2 vectors produced by pass 18 Test12= 3.79D-14 1.00D-09 XBig12= 2.78D-16 1.14D-09.
      1 vectors produced by pass 19 Test12= 3.79D-14 1.00D-09 XBig12= 2.86D-16 1.04D-09.
 InvSVY:  IOpt=1 It=  1 EMax= 7.11D-15
 Solved reduced A of dimension  1065 with   129 vectors.
 FullF1:  Do perturbations      1 to       3.
 Isotropic polarizability for W=    0.000000      344.31 Bohr**3.
 End of Minotr F.D. properties file   721 does not exist.
 End of Minotr F.D. properties file   722 does not exist.
 End of Minotr F.D. properties file   788 does not exist.
 Leave Link 1002 at Sun Sep 27 20:23:09 2026, MaxMem= 12884901888 cpu:           14226.1 elap:             909.7
 (Enter /opt/apps/Gaussian/G16C/g16/l601.exe)
 Copying SCF densities to generalized density rwf, IOpCl= 0 IROHF=0.

 **********************************************************************

            Population analysis using the SCF Density.

 **********************************************************************

 Orbital symmetries:
       Occupied  (A) (A) (A) (A) (A) (A) (A) (A) (A) (A) (A) (A)
                 (A) (A) (A) (A) (A) (A) (A) (A) (A) (A) (A) (A)
                 (A) (A) (A) (A) (A) (A) (A) (A) (A) (A) (A) (A)
                 (A) (A) (A) (A) (A) (A) (A) (A) (A) (A) (A) (A)
                 (A) (A) (A) (A) (A) (A) (A) (A) (A) (A) (A) (A)
                 (A) (A) (A) (A) (A) (A) (A) (A) (A) (A) (A) (A)
                 (A) (A) (A) (A) (A) (A) (A) (A) (A) (A) (A) (A)
       Virtual   (A) (A) (A) (A) (A) (A) (A) (A) (A) (A) (A) (A)
                 (A) (A) (A) (A) (A) (A) (A) (A) (A) (A) (A) (A)
                 (A) (A) (A) (A) (A) (A) (A) (A) (A) (A) (A) (A)
                 (A) (A) (A) (A) (A) (A) (A) (A) (A) (A) (A) (A)
                 (A) (A) (A) (A) (A) (A) (A) (A) (A) (A) (A) (A)
                 (A) (A) (A) (A) (A) (A) (A) (A) (A) (A) (A) (A)
                 (A) (A) (A) (A) (A) (A) (A) (A) (A) (A) (A) (A)
                 (A) (A) (A) (A) (A) (A) (A) (A) (A) (A) (A) (A)
                 (A) (A) (A) (A) (A) (A) (A) (A) (A) (A) (A) (A)
                 (A) (A) (A) (A) (A) (A) (A) (A) (A) (A) (A) (A)
                 (A) (A) (A) (A) (A) (A) (A) (A) (A) (A) (A) (A)
                 (A) (A) (A) (A) (A) (A) (A) (A) (A) (A) (A) (A)
                 (A) (A) (A) (A) (A) (A) (A) (A) (A) (A) (A) (A)
                 (A) (A) (A) (A) (A) (A) (A) (A) (A) (A) (A) (A)
                 (A) (A) (A) (A) (A) (A) (A) (A) (A) (A) (A) (A)
                 (A) (A) (A) (A) (A) (A) (A) (A) (A) (A) (A) (A)
                 (A) (A) (A) (A) (A) (A) (A) (A) (A) (A) (A) (A)
                 (A) (A) (A) (A) (A) (A) (A) (A) (A) (A) (A) (A)
                 (A) (A) (A) (A) (A) (A) (A) (A) (A) (A) (A) (A)
                 (A) (A) (A) (A) (A) (A) (A) (A) (A) (A) (A) (A)
                 (A) (A) (A) (A) (A) (A) (A) (A) (A) (A) (A) (A)
                 (A) (A) (A) (A) (A) (A) (A) (A) (A) (A) (A) (A)
                 (A) (A) (A) (A) (A) (A) (A) (A) (A) (A) (A) (A)
                 (A) (A) (A) (A) (A) (A) (A) (A) (A) (A) (A) (A)
                 (A) (A) (A) (A) (A) (A) (A) (A) (A) (A) (A) (A)
                 (A) (A) (A) (A) (A) (A) (A) (A) (A) (A) (A) (A)
                 (A) (A) (A) (A) (A) (A) (A) (A) (A) (A) (A) (A)
                 (A) (A) (A) (A) (A) (A) (A) (A) (A) (A) (A) (A)
                 (A) (A) (A) (A) (A) (A) (A) (A) (A) (A) (A) (A)
                 (A) (A) (A) (A) (A) (A) (A) (A) (A) (A) (A) (A)
                 (A) (A) (A) (A) (A) (A) (A) (A) (A) (A) (A) (A)
                 (A) (A) (A) (A) (A) (A) (A) (A) (A) (A) (A) (A)
                 (A) (A) (A) (A) (A) (A) (A) (A) (A) (A) (A) (A)
                 (A) (A) (A) (A) (A) (A) (A) (A) (A) (A) (A) (A)
                 (A) (A) (A) (A) (A) (A) (A) (A) (A) (A) (A) (A)
                 (A) (A) (A) (A) (A) (A) (A) (A) (A) (A) (A) (A)
                 (A) (A) (A) (A) (A) (A) (A) (A) (A) (A) (A) (A)
                 (A) (A) (A) (A) (A) (A) (A)
 The electronic state is 1-A.
 Alpha  occ. eigenvalues --  -78.13140 -19.59095 -10.61144 -10.58454 -10.57880
 Alpha  occ. eigenvalues --  -10.57809 -10.57746 -10.57728 -10.57420 -10.57342
 Alpha  occ. eigenvalues --  -10.57256 -10.57098 -10.57097 -10.57049 -10.56896
 Alpha  occ. eigenvalues --  -10.56880 -10.56802 -10.56718 -10.56705 -10.56627
 Alpha  occ. eigenvalues --  -10.56510 -10.53205 -10.51981  -6.92944  -5.04580
 Alpha  occ. eigenvalues --   -5.04501  -5.04435  -1.11348  -0.98799  -0.97637
 Alpha  occ. eigenvalues --   -0.97375  -0.90326  -0.86349  -0.85923  -0.85875
 Alpha  occ. eigenvalues --   -0.85573  -0.85375  -0.84188  -0.79829  -0.73927
 Alpha  occ. eigenvalues --   -0.70967  -0.70336  -0.70259  -0.69491  -0.69123
 Alpha  occ. eigenvalues --   -0.65601  -0.61243  -0.60707  -0.59883  -0.57450
 Alpha  occ. eigenvalues --   -0.54595  -0.54237  -0.53591  -0.53125  -0.52982
 Alpha  occ. eigenvalues --   -0.52482  -0.52105  -0.50573  -0.50341  -0.50150
 Alpha  occ. eigenvalues --   -0.49777  -0.49462  -0.48513  -0.48266  -0.45703
 Alpha  occ. eigenvalues --   -0.45186  -0.45126  -0.44198  -0.44071  -0.42150
 Alpha  occ. eigenvalues --   -0.41921  -0.41714  -0.40469  -0.40313  -0.39847
 Alpha  occ. eigenvalues --   -0.39472  -0.33497  -0.32860  -0.32638  -0.32077
 Alpha  occ. eigenvalues --   -0.31869  -0.31760  -0.29642  -0.25653
 Alpha virt. eigenvalues --   -0.01668  -0.01445  -0.00724  -0.00432   0.00473
 Alpha virt. eigenvalues --    0.01188   0.01354   0.01688   0.01837   0.02085
 Alpha virt. eigenvalues --    0.03339   0.03530   0.03935   0.04113   0.04277
 Alpha virt. eigenvalues --    0.04858   0.05210   0.05364   0.05774   0.05930
 Alpha virt. eigenvalues --    0.06501   0.06524   0.07108   0.07478   0.07723
 Alpha virt. eigenvalues --    0.08395   0.08541   0.08806   0.09177   0.09862
 Alpha virt. eigenvalues --    0.10427   0.10698   0.10893   0.11417   0.11481
 Alpha virt. eigenvalues --    0.11804   0.12187   0.12460   0.12724   0.13130
 Alpha virt. eigenvalues --    0.13444   0.13665   0.14112   0.14171   0.14572
 Alpha virt. eigenvalues --    0.15027   0.15273   0.15607   0.15968   0.16338
 Alpha virt. eigenvalues --    0.16540   0.16942   0.17022   0.17144   0.17431
 Alpha virt. eigenvalues --    0.17509   0.18052   0.18312   0.18475   0.18779
 Alpha virt. eigenvalues --    0.19012   0.19557   0.19673   0.20055   0.20206
 Alpha virt. eigenvalues --    0.20637   0.21043   0.21237   0.21742   0.22211
 Alpha virt. eigenvalues --    0.22634   0.22871   0.23036   0.23311   0.23559
 Alpha virt. eigenvalues --    0.23760   0.24003   0.24070   0.24736   0.24927
 Alpha virt. eigenvalues --    0.25211   0.25409   0.25731   0.25870   0.25998
 Alpha virt. eigenvalues --    0.26474   0.27032   0.27246   0.27310   0.27564
 Alpha virt. eigenvalues --    0.27951   0.28397   0.28727   0.28977   0.29147
 Alpha virt. eigenvalues --    0.29323   0.29482   0.30172   0.30397   0.30651
 Alpha virt. eigenvalues --    0.31050   0.31494   0.31858   0.32016   0.32480
 Alpha virt. eigenvalues --    0.32779   0.32809   0.33131   0.33591   0.34051
 Alpha virt. eigenvalues --    0.34282   0.34883   0.35211   0.35439   0.35944
 Alpha virt. eigenvalues --    0.36050   0.36101   0.36529   0.37706   0.38295
 Alpha virt. eigenvalues --    0.38706   0.38994   0.40079   0.40669   0.40857
 Alpha virt. eigenvalues --    0.40965   0.41932   0.42141   0.42602   0.43721
 Alpha virt. eigenvalues --    0.43918   0.44272   0.44982   0.45040   0.46909
 Alpha virt. eigenvalues --    0.47795   0.51171   0.53617   0.56192   0.56930
 Alpha virt. eigenvalues --    0.59217   0.59422   0.61724   0.63006   0.65384
 Alpha virt. eigenvalues --    0.67475   0.68610   0.68963   0.70286   0.71121
 Alpha virt. eigenvalues --    0.72474   0.73133   0.73324   0.74338   0.74966
 Alpha virt. eigenvalues --    0.75600   0.75812   0.76217   0.76931   0.76970
 Alpha virt. eigenvalues --    0.77881   0.78046   0.78571   0.78980   0.79446
 Alpha virt. eigenvalues --    0.80148   0.80228   0.80745   0.81398   0.81719
 Alpha virt. eigenvalues --    0.81916   0.82565   0.83205   0.83868   0.84993
 Alpha virt. eigenvalues --    0.85531   0.86042   0.86826   0.87092   0.88074
 Alpha virt. eigenvalues --    0.88465   0.89689   0.90112   0.90640   0.91255
 Alpha virt. eigenvalues --    0.92311   0.93986   0.94136   0.95054   0.95202
 Alpha virt. eigenvalues --    0.95749   0.96015   0.96322   0.96752   0.97221
 Alpha virt. eigenvalues --    0.98374   0.98694   0.99068   0.99608   1.00267
 Alpha virt. eigenvalues --    1.01478   1.02022   1.02705   1.03707   1.04838
 Alpha virt. eigenvalues --    1.05323   1.05462   1.05843   1.05973   1.06600
 Alpha virt. eigenvalues --    1.07239   1.08521   1.09256   1.09961   1.10267
 Alpha virt. eigenvalues --    1.10996   1.11962   1.13287   1.13449   1.13845
 Alpha virt. eigenvalues --    1.14895   1.16329   1.17632   1.18609   1.19180
 Alpha virt. eigenvalues --    1.20062   1.20395   1.20526   1.21872   1.22366
 Alpha virt. eigenvalues --    1.24476   1.25350   1.25773   1.26407   1.27493
 Alpha virt. eigenvalues --    1.27860   1.28977   1.30122   1.31013   1.31445
 Alpha virt. eigenvalues --    1.32066   1.34703   1.35771   1.36469   1.38501
 Alpha virt. eigenvalues --    1.39107   1.39422   1.39985   1.41377   1.42325
 Alpha virt. eigenvalues --    1.42510   1.43830   1.44085   1.44624   1.45183
 Alpha virt. eigenvalues --    1.45419   1.45814   1.46168   1.46714   1.47074
 Alpha virt. eigenvalues --    1.48124   1.48310   1.48899   1.49496   1.49945
 Alpha virt. eigenvalues --    1.51080   1.52147   1.52952   1.54787   1.55863
 Alpha virt. eigenvalues --    1.57085   1.57502   1.59140   1.62791   1.66372
 Alpha virt. eigenvalues --    1.70906   1.72675   1.78746   1.79645   1.81977
 Alpha virt. eigenvalues --    1.83904   1.85469   1.85745   1.87334   1.88639
 Alpha virt. eigenvalues --    1.89105   1.90397   1.90903   1.91251   1.93415
 Alpha virt. eigenvalues --    1.95288   1.97086   1.97551   1.98617   1.99881
 Alpha virt. eigenvalues --    2.00437   2.00821   2.01969   2.02414   2.02567
 Alpha virt. eigenvalues --    2.03184   2.03752   2.03863   2.04054   2.04532
 Alpha virt. eigenvalues --    2.04626   2.04859   2.05585   2.06471   2.07178
 Alpha virt. eigenvalues --    2.07933   2.08976   2.09548   2.10239   2.10652
 Alpha virt. eigenvalues --    2.11129   2.11912   2.12794   2.13364   2.14820
 Alpha virt. eigenvalues --    2.15775   2.17746   2.18296   2.18305   2.19251
 Alpha virt. eigenvalues --    2.20387   2.20784   2.22686   2.24105   2.27947
 Alpha virt. eigenvalues --    2.30625   2.31120   2.31317   2.32261   2.32993
 Alpha virt. eigenvalues --    2.33987   2.38501   2.38720   2.40532   2.41037
 Alpha virt. eigenvalues --    2.41234   2.41298   2.41610   2.41913   2.42203
 Alpha virt. eigenvalues --    2.42333   2.42509   2.43373   2.44111   2.44391
 Alpha virt. eigenvalues --    2.47183   2.49076   2.49892   2.50306   2.53221
 Alpha virt. eigenvalues --    2.53869   2.54019   2.54413   2.54992   2.55499
 Alpha virt. eigenvalues --    2.56156   2.56939   2.58410   2.58622   2.58929
 Alpha virt. eigenvalues --    2.59370   2.60207   2.60647   2.61123   2.61682
 Alpha virt. eigenvalues --    2.62196   2.65095   2.65394   2.65441   2.65946
 Alpha virt. eigenvalues --    2.67754   2.68948   2.69399   2.70955   2.71324
 Alpha virt. eigenvalues --    2.72045   2.72957   2.74273   2.74663   2.75020
 Alpha virt. eigenvalues --    2.75216   2.79053   2.79537   2.80558   2.83664
 Alpha virt. eigenvalues --    2.84438   2.85335   2.85588   2.89237   2.97039
 Alpha virt. eigenvalues --    2.97928   2.98225   2.98714   3.04191   3.06772
 Alpha virt. eigenvalues --    3.07085   3.07567   3.18423   3.19010   3.20557
 Alpha virt. eigenvalues --    3.22605   3.26169   3.26726   3.26880   3.27842
 Alpha virt. eigenvalues --    3.28330   3.29252   3.30169   3.32190   3.32636
 Alpha virt. eigenvalues --    3.32764   3.41110   3.43162   3.43327   3.44515
 Alpha virt. eigenvalues --    3.47818   3.51396   3.52578   3.53565   3.53790
 Alpha virt. eigenvalues --    3.65936   3.87043   3.87548   3.89221   4.34321
 Alpha virt. eigenvalues --    4.34702   4.36312   4.38358   4.39495   4.40153
 Alpha virt. eigenvalues --    4.42502   4.46165   4.47929   4.49801   4.50416
 Alpha virt. eigenvalues --    4.52263   4.52926   4.53910   4.54031   4.56259
 Alpha virt. eigenvalues --    4.57750   4.64966   4.78302   4.84481   4.84852
 Alpha virt. eigenvalues --    4.86460
          Condensed to atoms (all electrons):
               1          2          3          4          5          6
     1  C   13.021663  -1.658124   0.365532   0.001566  -0.144482   0.086890
     2  P   -1.658124  21.151185  -0.036630   0.076519  -1.127345  -2.452325
     3  H    0.365532  -0.036630   0.493967  -0.000764   0.000933   0.019824
     4  C    0.001566   0.076519  -0.000764   6.184047   0.072455  -0.758266
     5  C   -0.144482  -1.127345   0.000933   0.072455  11.010849  -0.081191
     6  C    0.086890  -2.452325   0.019824  -0.758266  -0.081191  17.147328
     7  C   -0.461256  -0.678454   0.025364  -2.147643  -0.594572  -1.669895
     8  C    0.224984   2.845875  -0.043963   3.770572  -4.412021 -11.176332
     9  C    0.446735  -0.794214   0.001528  -1.232181   0.703609   2.960928
    10  H    0.000122  -0.002105  -0.000000   0.293177  -0.008590   0.014190
    11  H    0.000195   0.014715  -0.000000   0.002764   0.199776   0.061311
    12  H   -0.001908   0.026254  -0.000005  -0.010744  -0.181294   0.229135
    13  H   -0.012085   0.052375  -0.000053  -0.017031   0.023652   0.037020
    14  H    0.000866   0.008409  -0.000000  -0.010470   0.012897  -0.017758
    15  C   -0.093388  -0.049007   0.000362   0.000770   0.006411  -0.100970
    16  C    0.219813   0.432228  -0.000447   0.026835  -0.346147   0.514811
    17  C   -1.012660  -0.926334  -0.026060   0.257370   0.165490  -1.895993
    18  C    0.402021  -0.377851  -0.059109  -0.185619   0.225473   1.864331
    19  C    0.480274  -0.204486   0.070770  -0.100812   0.053024   0.593958
    20  C   -0.284335  -0.192646   0.007376   0.013151  -0.031932   0.052012
    21  H    0.000154  -0.002953   0.000000   0.000008  -0.000031   0.000237
    22  H    0.000252   0.014517  -0.000000  -0.000220  -0.001716  -0.007223
    23  H    0.004156   0.130020  -0.000001  -0.001018   0.031576  -0.086583
    24  H   -0.020685   0.017132  -0.000174  -0.000027  -0.000597  -0.007336
    25  H   -0.000329   0.006088  -0.000000   0.000001   0.000002  -0.000380
    26  C    0.034890   0.118598  -0.001234  -0.004054   0.017322   0.003825
    27  C   -0.078281  -0.987898   0.035933  -0.019409   0.132444   0.886176
    28  C    3.327383  -2.090190   0.014695  -0.385013   0.246828   1.712826
    29  C   -2.392942   0.137163   0.067315   0.118387  -0.476360  -0.072593
    30  C   -1.779743   0.986462  -0.036522   0.225734   0.149596  -1.797039
    31  C    0.033214  -0.193383   0.001842  -0.002593   0.062756   0.498299
    32  H    0.000194  -0.005317  -0.000000  -0.000002   0.000147   0.000214
    33  H   -0.002231   0.012975  -0.000001  -0.000036  -0.002179  -0.004916
    34  H    0.009347   0.018806  -0.000376   0.004380  -0.012113   0.041663
    35  H   -0.018607   0.141998   0.000001  -0.000338   0.000507  -0.011674
    36  H   -0.000788   0.026138   0.000000  -0.000016  -0.000163  -0.001036
    37  C   -4.380274   0.734769  -0.032579   0.031298   0.006259  -0.081424
    38  C    0.319161  -0.180559  -0.061246   0.022609  -0.025130  -0.114720
    39  O   -0.460628   0.119865   0.010673  -0.009305  -0.002821   0.005226
    40  H    0.015346   0.016778   0.000272   0.000015  -0.000035  -0.000946
    41  H    0.052014  -0.014527   0.000321  -0.000039   0.000032   0.000806
    42  H    0.038548  -0.000024   0.000359   0.000033   0.000004  -0.000533
               7          8          9         10         11         12
     1  C   -0.461256   0.224984   0.446735   0.000122   0.000195  -0.001908
     2  P   -0.678454   2.845875  -0.794214  -0.002105   0.014715   0.026254
     3  H    0.025364  -0.043963   0.001528  -0.000000  -0.000000  -0.000005
     4  C   -2.147643   3.770572  -1.232181   0.293177   0.002764  -0.010744
     5  C   -0.594572  -4.412021   0.703609  -0.008590   0.199776  -0.181294
     6  C   -1.669895 -11.176332   2.960928   0.014190   0.061311   0.229135
     7  C   22.032566 -11.914937   2.955742  -0.000529   0.040492   0.155011
     8  C  -11.914937  41.352014 -13.893950   0.030123   0.031496   0.072940
     9  C    2.955742 -13.893950  14.833202  -0.001542  -0.021415  -0.004850
    10  H   -0.000529   0.030123  -0.001542   0.505375  -0.004101  -0.000137
    11  H    0.040492   0.031496  -0.021415  -0.004101   0.506471  -0.004431
    12  H    0.155011   0.072940  -0.004850  -0.000137  -0.004431   0.525528
    13  H    0.085764   0.065752   0.078513  -0.000123   0.000011  -0.000137
    14  H    0.036677  -0.063120   0.360317  -0.004055  -0.000126   0.000014
    15  C    0.125805   0.045787  -0.020424  -0.000000  -0.000140   0.000346
    16  C   -0.655863  -0.101003   0.168912  -0.000113  -0.000448   0.019632
    17  C    2.185113   2.032023  -0.730684  -0.000881  -0.004118   0.054146
    18  C   -2.026712  -1.272938   0.618393   0.000950   0.002758  -0.068629
    19  C   -0.571555  -1.134790   0.216974   0.000113   0.000055  -0.013591
    20  C   -0.193078   0.120759  -0.029383   0.000002   0.000067  -0.001409
    21  H   -0.000227   0.000064   0.000006  -0.000000   0.000000   0.000000
    22  H    0.006079   0.002058   0.000238   0.000000  -0.000000   0.000000
    23  H    0.021110   0.032721  -0.007699   0.000000  -0.000005  -0.001132
    24  H    0.020905  -0.001224  -0.000628   0.000000  -0.000000   0.000000
    25  H    0.000410   0.000275  -0.000047  -0.000000  -0.000000  -0.000000
    26  C   -0.035629   0.015015   0.021897  -0.000006  -0.000044  -0.000368
    27  C   -0.808586  -0.344492   0.154110   0.000129  -0.001897  -0.006323
    28  C    0.424082  -3.206073   1.657472  -0.000014  -0.001078   0.119771
    29  C   -0.862168   0.627949  -0.648457  -0.000201   0.001185   0.046460
    30  C    0.998704   1.875553  -0.937501  -0.000004  -0.000166  -0.108359
    31  C    0.045219  -0.394023  -0.031778   0.000015  -0.000347  -0.024189
    32  H    0.000481  -0.000025  -0.000002  -0.000000   0.000000   0.000000
    33  H    0.003517   0.001801  -0.000083   0.000000   0.000000  -0.000005
    34  H   -0.027800   0.005635  -0.010654   0.000000  -0.000000  -0.000358
    35  H   -0.010835  -0.000603   0.000633   0.000000  -0.000000   0.000026
    36  H   -0.001602  -0.000060   0.000028   0.000000   0.000000  -0.000003
    37  C    0.191384   0.099142  -0.264044   0.000034   0.000095   0.001460
    38  C   -0.485627   0.513221  -0.079651  -0.000000   0.000005   0.000048
    39  O    0.016371  -0.120090   0.003496   0.000004   0.000000   0.000013
    40  H   -0.004568   0.004304  -0.004422   0.000000  -0.000000  -0.000000
    41  H    0.004777  -0.004236   0.000539   0.000000   0.000000   0.000000
    42  H   -0.003983   0.004254   0.000243  -0.000000   0.000000  -0.000000
              13         14         15         16         17         18
     1  C   -0.012085   0.000866  -0.093388   0.219813  -1.012660   0.402021
     2  P    0.052375   0.008409  -0.049007   0.432228  -0.926334  -0.377851
     3  H   -0.000053  -0.000000   0.000362  -0.000447  -0.026060  -0.059109
     4  C   -0.017031  -0.010470   0.000770   0.026835   0.257370  -0.185619
     5  C    0.023652   0.012897   0.006411  -0.346147   0.165490   0.225473
     6  C    0.037020  -0.017758  -0.100970   0.514811  -1.895993   1.864331
     7  C    0.085764   0.036677   0.125805  -0.655863   2.185113  -2.026712
     8  C    0.065752  -0.063120   0.045787  -0.101003   2.032023  -1.272938
     9  C    0.078513   0.360317  -0.020424   0.168912  -0.730684   0.618393
    10  H   -0.000123  -0.004055  -0.000000  -0.000113  -0.000881   0.000950
    11  H    0.000011  -0.000126  -0.000140  -0.000448  -0.004118   0.002758
    12  H   -0.000137   0.000014   0.000346   0.019632   0.054146  -0.068629
    13  H    0.489685  -0.004703   0.000487  -0.005668   0.011934   0.004188
    14  H   -0.004703   0.504577  -0.000021   0.000126  -0.001643   0.000069
    15  C    0.000487  -0.000021   6.307993  -0.186310   1.695734  -2.524171
    16  C   -0.005668   0.000126  -0.186310  11.948703  -6.090743   0.226157
    17  C    0.011934  -0.001643   1.695734  -6.090743  32.906390  -7.090184
    18  C    0.004188   0.000069  -2.524171   0.226157  -7.090184  24.913426
    19  C   -0.012213   0.000247   0.676791  -0.405948 -13.736090  -7.208874
    20  C   -0.002605  -0.000001  -0.014708   0.252877  -2.068408  -0.409720
    21  H   -0.000000   0.000000   0.287645   0.017433   0.006571   0.003176
    22  H    0.000000  -0.000000   0.008358   0.233710   0.053226   0.020373
    23  H   -0.000001  -0.000001  -0.024333  -0.158343   0.060494   0.228949
    24  H    0.000001  -0.000000  -0.010296   0.000635   0.103058   0.138069
    25  H    0.000000  -0.000000  -0.004562  -0.014864   0.024006   0.055566
    26  C   -0.000003   0.000000   0.004392  -0.005032   0.059416   0.042707
    27  C   -0.000359  -0.000117   0.001316   0.008631  -0.152941   0.179245
    28  C   -0.000648   0.000273  -0.232200   0.539900  -0.885006   2.367540
    29  C    0.009436  -0.000017  -0.406950   0.789858  -2.289908   0.039773
    30  C   -0.001079  -0.000208   0.619419  -1.134438   2.429999  -3.140994
    31  C   -0.000029   0.000001   0.072134  -0.277763   0.599410  -0.507089
    32  H    0.000000  -0.000000   0.000007  -0.000019   0.000007  -0.000071
    33  H    0.000000  -0.000000   0.000000   0.000002   0.000109  -0.000036
    34  H    0.000002   0.000000  -0.000131  -0.000408  -0.011672   0.014491
    35  H    0.000000  -0.000000   0.006388  -0.001968   0.062188  -0.036656
    36  H   -0.000000  -0.000000  -0.000511  -0.000063  -0.002824   0.005027
    37  C   -0.005729  -0.001718   0.046352  -0.100292   0.551767  -0.333327
    38  C    0.006996   0.000028  -0.031944  -0.000361   0.073334   0.328736
    39  O   -0.006904   0.000152  -0.017177   0.040995  -0.316744  -0.099469
    40  H   -0.000013  -0.000000   0.000081  -0.000070   0.002283   0.005487
    41  H    0.000000   0.000000  -0.000645   0.000226  -0.000488   0.006382
    42  H    0.000002  -0.000000   0.000079  -0.000057  -0.001480  -0.010867
              19         20         21         22         23         24
     1  C    0.480274  -0.284335   0.000154   0.000252   0.004156  -0.020685
     2  P   -0.204486  -0.192646  -0.002953   0.014517   0.130020   0.017132
     3  H    0.070770   0.007376   0.000000  -0.000000  -0.000001  -0.000174
     4  C   -0.100812   0.013151   0.000008  -0.000220  -0.001018  -0.000027
     5  C    0.053024  -0.031932  -0.000031  -0.001716   0.031576  -0.000597
     6  C    0.593958   0.052012   0.000237  -0.007223  -0.086583  -0.007336
     7  C   -0.571555  -0.193078  -0.000227   0.006079   0.021110   0.020905
     8  C   -1.134790   0.120759   0.000064   0.002058   0.032721  -0.001224
     9  C    0.216974  -0.029383   0.000006   0.000238  -0.007699  -0.000628
    10  H    0.000113   0.000002  -0.000000   0.000000   0.000000   0.000000
    11  H    0.000055   0.000067   0.000000  -0.000000  -0.000005  -0.000000
    12  H   -0.013591  -0.001409   0.000000   0.000000  -0.001132   0.000000
    13  H   -0.012213  -0.002605  -0.000000   0.000000  -0.000001   0.000001
    14  H    0.000247  -0.000001   0.000000  -0.000000  -0.000001  -0.000000
    15  C    0.676791  -0.014708   0.287645   0.008358  -0.024333  -0.010296
    16  C   -0.405948   0.252877   0.017433   0.233710  -0.158343   0.000635
    17  C  -13.736090  -2.068408   0.006571   0.053226   0.060494   0.103058
    18  C   -7.208874  -0.409720   0.003176   0.020373   0.228949   0.138069
    19  C   26.350910  -0.102986   0.003288   0.007852   0.087712   0.132407
    20  C   -0.102986   8.489343   0.009532  -0.010392   0.014501  -0.093101
    21  H    0.003288   0.009532   0.504868  -0.004054  -0.000132  -0.000127
    22  H    0.007852  -0.010392  -0.004054   0.505782  -0.004634   0.000013
    23  H    0.087712   0.014501  -0.000132  -0.004634   0.524920  -0.000138
    24  H    0.132407  -0.093101  -0.000127   0.000013  -0.000138   0.516095
    25  H    0.024419   0.235008  -0.004119  -0.000125   0.000013  -0.004368
    26  C   -0.081452   0.002908  -0.000019  -0.000022   0.000724   0.000734
    27  C    0.163976   0.020606   0.000009  -0.000020  -0.003575  -0.002280
    28  C   -1.570595  -0.242064   0.000039  -0.000097  -0.003891  -0.002744
    29  C    1.722413  -0.085380   0.001268  -0.000653  -0.032643  -0.016974
    30  C    1.275392   0.296061  -0.000839  -0.000843   0.010457   0.016332
    31  C   -0.217262  -0.019871  -0.000185   0.000264  -0.001464   0.002953
    32  H    0.000037  -0.000037   0.000000   0.000000   0.000000   0.000000
    33  H    0.000090   0.000014  -0.000000  -0.000000  -0.000000  -0.000000
    34  H    0.004852   0.000960   0.000000  -0.000000   0.000000  -0.000001
    35  H   -0.020011  -0.016165   0.000000  -0.000003  -0.000080  -0.000172
    36  H   -0.003357   0.000289   0.000000  -0.000000   0.000000   0.000000
    37  C   -0.420444   0.275110  -0.000112  -0.000180   0.002523   0.032591
    38  C   -0.388738   0.030234  -0.000005  -0.000013   0.000099   0.002345
    39  O    0.332026   0.028127   0.000000  -0.000008  -0.000006  -0.003867
    40  H   -0.006715  -0.000657  -0.000000   0.000000  -0.000000  -0.000004
    41  H   -0.001721  -0.003153   0.000000  -0.000000   0.000000  -0.000015
    42  H    0.010384   0.000812   0.000000   0.000000  -0.000000   0.000011
              25         26         27         28         29         30
     1  C   -0.000329   0.034890  -0.078281   3.327383  -2.392942  -1.779743
     2  P    0.006088   0.118598  -0.987898  -2.090190   0.137163   0.986462
     3  H   -0.000000  -0.001234   0.035933   0.014695   0.067315  -0.036522
     4  C    0.000001  -0.004054  -0.019409  -0.385013   0.118387   0.225734
     5  C    0.000002   0.017322   0.132444   0.246828  -0.476360   0.149596
     6  C   -0.000380   0.003825   0.886176   1.712826  -0.072593  -1.797039
     7  C    0.000410  -0.035629  -0.808586   0.424082  -0.862168   0.998704
     8  C    0.000275   0.015015  -0.344492  -3.206073   0.627949   1.875553
     9  C   -0.000047   0.021897   0.154110   1.657472  -0.648457  -0.937501
    10  H   -0.000000  -0.000006   0.000129  -0.000014  -0.000201  -0.000004
    11  H   -0.000000  -0.000044  -0.001897  -0.001078   0.001185  -0.000166
    12  H   -0.000000  -0.000368  -0.006323   0.119771   0.046460  -0.108359
    13  H    0.000000  -0.000003  -0.000359  -0.000648   0.009436  -0.001079
    14  H   -0.000000   0.000000  -0.000117   0.000273  -0.000017  -0.000208
    15  C   -0.004562   0.004392   0.001316  -0.232200  -0.406950   0.619419
    16  C   -0.014864  -0.005032   0.008631   0.539900   0.789858  -1.134438
    17  C    0.024006   0.059416  -0.152941  -0.885006  -2.289908   2.429999
    18  C    0.055566   0.042707   0.179245   2.367540   0.039773  -3.140994
    19  C    0.024419  -0.081452   0.163976  -1.570595   1.722413   1.275392
    20  C    0.235008   0.002908   0.020606  -0.242064  -0.085380   0.296061
    21  H   -0.004119  -0.000019   0.000009   0.000039   0.001268  -0.000839
    22  H   -0.000125  -0.000022  -0.000020  -0.000097  -0.000653  -0.000843
    23  H    0.000013   0.000724  -0.003575  -0.003891  -0.032643   0.010457
    24  H   -0.004368   0.000734  -0.002280  -0.002744  -0.016974   0.016332
    25  H    0.505586  -0.000038   0.000018   0.000046  -0.001665   0.000119
    26  C   -0.000038   5.747912   0.484612   0.587379  -1.789185   0.328247
    27  C    0.000018   0.484612   8.967026  -0.398180  -1.091148  -1.102494
    28  C    0.000046   0.587379  -0.398180  35.152746  -9.807322 -21.383221
    29  C   -0.001665  -1.789185  -1.091148  -9.807322  25.340281  -2.914142
    30  C    0.000119   0.328247  -1.102494 -21.383221  -2.914142  36.253381
    31  C    0.000306   0.371864  -0.107369   0.956003  -0.613136  -6.048594
    32  H    0.000000   0.284426   0.010985   0.001913   0.006737  -0.003223
    33  H   -0.000000  -0.005703   0.247148  -0.015504   0.069788   0.036291
    34  H   -0.000000  -0.017475  -0.115409   0.074512   0.194216   0.126910
    35  H   -0.000002  -0.006386   0.007269  -0.020661  -0.040509   0.364107
    36  H   -0.000000   0.005959  -0.001102  -0.002346   0.012857  -0.008119
    37  C    0.000374  -0.031860   0.001242  -1.268746   0.813967   0.728188
    38  C    0.000398   0.005247  -0.004590   0.151864  -0.260914  -0.067513
    39  O   -0.000181  -0.000676   0.005993   0.040574   0.073834  -0.063149
    40  H    0.000000  -0.000008  -0.000174  -0.004017   0.003648   0.001232
    41  H   -0.000000   0.000005   0.000163   0.003917  -0.000476  -0.002436
    42  H   -0.000000   0.000077  -0.000356   0.002787  -0.005555  -0.000103
              31         32         33         34         35         36
     1  C    0.033214   0.000194  -0.002231   0.009347  -0.018607  -0.000788
     2  P   -0.193383  -0.005317   0.012975   0.018806   0.141998   0.026138
     3  H    0.001842  -0.000000  -0.000001  -0.000376   0.000001   0.000000
     4  C   -0.002593  -0.000002  -0.000036   0.004380  -0.000338  -0.000016
     5  C    0.062756   0.000147  -0.002179  -0.012113   0.000507  -0.000163
     6  C    0.498299   0.000214  -0.004916   0.041663  -0.011674  -0.001036
     7  C    0.045219   0.000481   0.003517  -0.027800  -0.010835  -0.001602
     8  C   -0.394023  -0.000025   0.001801   0.005635  -0.000603  -0.000060
     9  C   -0.031778  -0.000002  -0.000083  -0.010654   0.000633   0.000028
    10  H    0.000015  -0.000000   0.000000   0.000000   0.000000   0.000000
    11  H   -0.000347   0.000000   0.000000  -0.000000  -0.000000   0.000000
    12  H   -0.024189   0.000000  -0.000005  -0.000358   0.000026  -0.000003
    13  H   -0.000029   0.000000   0.000000   0.000002   0.000000  -0.000000
    14  H    0.000001  -0.000000  -0.000000   0.000000  -0.000000  -0.000000
    15  C    0.072134   0.000007   0.000000  -0.000131   0.006388  -0.000511
    16  C   -0.277763  -0.000019   0.000002  -0.000408  -0.001968  -0.000063
    17  C    0.599410   0.000007   0.000109  -0.011672   0.062188  -0.002824
    18  C   -0.507089  -0.000071  -0.000036   0.014491  -0.036656   0.005027
    19  C   -0.217262   0.000037   0.000090   0.004852  -0.020011  -0.003357
    20  C   -0.019871  -0.000037   0.000014   0.000960  -0.016165   0.000289
    21  H   -0.000185   0.000000  -0.000000   0.000000   0.000000   0.000000
    22  H    0.000264   0.000000  -0.000000  -0.000000  -0.000003  -0.000000
    23  H   -0.001464   0.000000  -0.000000   0.000000  -0.000080   0.000000
    24  H    0.002953   0.000000  -0.000000  -0.000001  -0.000172   0.000000
    25  H    0.000306   0.000000  -0.000000  -0.000000  -0.000002  -0.000000
    26  C    0.371864   0.284426  -0.005703  -0.017475  -0.006386   0.005959
    27  C   -0.107369   0.010985   0.247148  -0.115409   0.007269  -0.001102
    28  C    0.956003   0.001913  -0.015504   0.074512  -0.020661  -0.002346
    29  C   -0.613136   0.006737   0.069788   0.194216  -0.040509   0.012857
    30  C   -6.048594  -0.003223   0.036291   0.126910   0.364107  -0.008119
    31  C   11.649704   0.028925  -0.015471  -0.002317  -0.097705   0.297316
    32  H    0.028925   0.502189  -0.004120  -0.000129  -0.000129  -0.004112
    33  H   -0.015471  -0.004120   0.500851  -0.004308   0.000014  -0.000126
    34  H   -0.002317  -0.000129  -0.004308   0.511880  -0.000136   0.000013
    35  H   -0.097705  -0.000129   0.000014  -0.000136   0.520749  -0.004785
    36  H    0.297316  -0.004112  -0.000126   0.000013  -0.004785   0.503298
    37  C    0.013913  -0.000024   0.000136   0.013969  -0.000712  -0.000039
    38  C    0.004289   0.000001  -0.000020  -0.000050  -0.000443  -0.000001
    39  O   -0.002565   0.000000  -0.000000  -0.000039  -0.000053  -0.000000
    40  H    0.000024  -0.000000   0.000000  -0.000000   0.000000  -0.000000
    41  H   -0.000044   0.000000  -0.000000  -0.000000  -0.000000   0.000000
    42  H   -0.000174   0.000000   0.000000   0.000000  -0.000000  -0.000000
              37         38         39         40         41         42
     1  C   -4.380274   0.319161  -0.460628   0.015346   0.052014   0.038548
     2  P    0.734769  -0.180559   0.119865   0.016778  -0.014527  -0.000024
     3  H   -0.032579  -0.061246   0.010673   0.000272   0.000321   0.000359
     4  C    0.031298   0.022609  -0.009305   0.000015  -0.000039   0.000033
     5  C    0.006259  -0.025130  -0.002821  -0.000035   0.000032   0.000004
     6  C   -0.081424  -0.114720   0.005226  -0.000946   0.000806  -0.000533
     7  C    0.191384  -0.485627   0.016371  -0.004568   0.004777  -0.003983
     8  C    0.099142   0.513221  -0.120090   0.004304  -0.004236   0.004254
     9  C   -0.264044  -0.079651   0.003496  -0.004422   0.000539   0.000243
    10  H    0.000034  -0.000000   0.000004   0.000000   0.000000  -0.000000
    11  H    0.000095   0.000005   0.000000  -0.000000   0.000000   0.000000
    12  H    0.001460   0.000048   0.000013  -0.000000   0.000000  -0.000000
    13  H   -0.005729   0.006996  -0.006904  -0.000013   0.000000   0.000002
    14  H   -0.001718   0.000028   0.000152  -0.000000   0.000000  -0.000000
    15  C    0.046352  -0.031944  -0.017177   0.000081  -0.000645   0.000079
    16  C   -0.100292  -0.000361   0.040995  -0.000070   0.000226  -0.000057
    17  C    0.551767   0.073334  -0.316744   0.002283  -0.000488  -0.001480
    18  C   -0.333327   0.328736  -0.099469   0.005487   0.006382  -0.010867
    19  C   -0.420444  -0.388738   0.332026  -0.006715  -0.001721   0.010384
    20  C    0.275110   0.030234   0.028127  -0.000657  -0.003153   0.000812
    21  H   -0.000112  -0.000005   0.000000  -0.000000   0.000000   0.000000
    22  H   -0.000180  -0.000013  -0.000008   0.000000  -0.000000   0.000000
    23  H    0.002523   0.000099  -0.000006  -0.000000   0.000000  -0.000000
    24  H    0.032591   0.002345  -0.003867  -0.000004  -0.000015   0.000011
    25  H    0.000374   0.000398  -0.000181   0.000000  -0.000000  -0.000000
    26  C   -0.031860   0.005247  -0.000676  -0.000008   0.000005   0.000077
    27  C    0.001242  -0.004590   0.005993  -0.000174   0.000163  -0.000356
    28  C   -1.268746   0.151864   0.040574  -0.004017   0.003917   0.002787
    29  C    0.813967  -0.260914   0.073834   0.003648  -0.000476  -0.005555
    30  C    0.728188  -0.067513  -0.063149   0.001232  -0.002436  -0.000103
    31  C    0.013913   0.004289  -0.002565   0.000024  -0.000044  -0.000174
    32  H   -0.000024   0.000001   0.000000  -0.000000   0.000000   0.000000
    33  H    0.000136  -0.000020  -0.000000   0.000000  -0.000000   0.000000
    34  H    0.013969  -0.000050  -0.000039  -0.000000  -0.000000   0.000000
    35  H   -0.000712  -0.000443  -0.000053   0.000000  -0.000000  -0.000000
    36  H   -0.000039  -0.000001  -0.000000  -0.000000   0.000000  -0.000000
    37  C   10.961727  -1.857279   0.558643  -0.133912  -0.146088  -0.131196
    38  C   -1.857279   7.405923   0.013021   0.471583   0.465290   0.449282
    39  O    0.558643   0.013021   8.358499  -0.004148  -0.000205   0.007949
    40  H   -0.133912   0.471583  -0.004148   0.509176  -0.023179  -0.025627
    41  H   -0.146088   0.465290  -0.000205  -0.023179   0.508362  -0.025371
    42  H   -0.131196   0.449282   0.007949  -0.025627  -0.025371   0.530595
 Mulliken charges:
               1
     1  C   -0.282573
     2  P   -0.114495
     3  H    0.182097
     4  C   -0.216091
     5  C    0.326676
     6  C   -0.391876
     7  C   -0.220055
     8  C    0.309563
     9  C   -0.469901
    10  H    0.178165
    11  H    0.176920
    12  H    0.177087
    13  H    0.203563
    14  H    0.179306
    15  C   -0.188769
    16  C    0.044883
    17  C   -0.089206
    18  C   -0.340969
    19  C   -0.006327
    20  C   -0.047720
    21  H    0.178504
    22  H    0.177479
    23  H    0.175702
    24  H    0.181476
    25  H    0.178047
    26  C   -0.158961
    27  C   -0.080033
    28  C    0.137062
    29  C   -0.267239
    30  C   -0.191455
    31  C   -0.081098
    32  H    0.180947
    33  H    0.182002
    34  H    0.181743
    35  H    0.184752
    36  H    0.180124
    37  C    0.125038
    38  C   -0.704907
    39  O   -0.507425
    40  H    0.178267
    41  H    0.179790
    42  H    0.159906
 Sum of Mulliken charges =  -0.00000
 Mulliken charges with hydrogens summed into heavy atoms:
               1
     1  C   -0.100476
     2  P   -0.114495
     4  C   -0.037926
     5  C    0.503596
     6  C   -0.214789
     7  C   -0.220055
     8  C    0.513126
     9  C   -0.290595
    15  C   -0.010265
    16  C    0.222362
    17  C    0.086496
    18  C   -0.340969
    19  C    0.175149
    20  C    0.130327
    26  C    0.021986
    27  C    0.101970
    28  C    0.318804
    29  C   -0.267239
    30  C   -0.006703
    31  C    0.099027
    37  C    0.125038
    38  C   -0.186944
    39  O   -0.507425
 APT charges:
               1
     1  C   -1.315192
     2  P    2.380758
     3  H    0.042795
     4  C   -0.004021
     5  C   -0.093931
     6  C   -0.049088
     7  C   -0.469603
     8  C   -0.085627
     9  C   -0.057306
    10  H    0.048878
    11  H    0.045578
    12  H    0.073563
    13  H    0.134918
    14  H    0.045847
    15  C   -0.001294
    16  C   -0.082890
    17  C   -0.056172
    18  C   -0.452749
    19  C   -0.067721
    20  C   -0.066043
    21  H    0.051018
    22  H    0.047260
    23  H    0.083045
    24  H    0.093929
    25  H    0.046877
    26  C   -0.007175
    27  C   -0.084883
    28  C   -0.058845
    29  C   -0.372626
    30  C   -0.073678
    31  C   -0.059986
    32  H    0.053685
    33  H    0.048856
    34  H    0.076432
    35  H    0.081261
    36  H    0.049389
    37  C    1.337896
    38  C   -0.072652
    39  O   -1.190355
    40  H   -0.008088
    41  H   -0.004203
    42  H   -0.007857
 Sum of APT charges =   0.00000
 APT charges with hydrogens summed into heavy atoms:
               1
     1  C   -1.272397
     2  P    2.380758
     4  C    0.044857
     5  C   -0.048353
     6  C    0.024475
     7  C   -0.469603
     8  C    0.049292
     9  C   -0.011459
    15  C    0.049724
    16  C   -0.035630
    17  C    0.026873
    18  C   -0.452749
    19  C    0.026208
    20  C   -0.019166
    26  C    0.046510
    27  C   -0.036027
    28  C    0.017587
    29  C   -0.372626
    30  C    0.007583
    31  C   -0.010597
    37  C    1.337896
    38  C   -0.092800
    39  O   -1.190355
 Electronic spatial extent (au):  <R**2>=           7055.2125
 Charge=              0.0000 electrons
 Dipole moment (field-independent basis, Debye):
    X=              6.3967    Y=             -2.2287    Z=             -3.4206  Tot=              7.5885
 Quadrupole moment (field-independent basis, Debye-Ang):
   XX=           -141.1236   YY=           -125.2187   ZZ=           -133.9974
   XY=              6.6543   XZ=              7.0397   YZ=             -1.7208
 Traceless Quadrupole moment (field-independent basis, Debye-Ang):
   XX=             -7.6770   YY=              8.2279   ZZ=             -0.5508
   XY=              6.6543   XZ=              7.0397   YZ=             -1.7208
 Octapole moment (field-independent basis, Debye-Ang**2):
  XXX=            103.5746  YYY=             31.6621  ZZZ=            -15.5807  XYY=             -8.3891
  XXY=            -59.8242  XXZ=             -9.7790  XZZ=             -9.2268  YZZ=             -0.9542
  YYZ=            -35.7069  XYZ=            -11.3533
 Hexadecapole moment (field-independent basis, Debye-Ang**3):
 XXXX=          -3680.1970 YYYY=          -3194.1429 ZZZZ=          -2335.9223 XXXY=             -8.1407
 XXXZ=            146.6953 YYYX=            -10.1450 YYYZ=            -65.1963 ZZZX=             15.6218
 ZZZY=             33.0332 XXYY=          -1074.5986 XXZZ=           -990.3256 YYZZ=           -972.1098
 XXYZ=             14.5934 YYXZ=            -34.5641 ZZXY=             87.2145
 N-N= 1.992922981363D+03 E-N=-6.852099092965D+03  KE= 1.218957738897D+03
  Exact polarizability:     360.426       4.288     351.120     -10.736       5.380     321.373
 Approx polarizability:     341.963       3.225     336.105      -9.581       5.525     317.327
 No NMR shielding tensors so no spin-rotation constants.
 Leave Link  601 at Sun Sep 27 20:23:09 2026, MaxMem= 12884901888 cpu:               1.3 elap:               0.3
 (Enter /opt/apps/Gaussian/G16C/g16/l701.exe)
 ... and contract with generalized density number  0.
 Compute integral second derivatives.
 D2PCM: PCM CHGder 2nd derivatives, FixD1E=F FixD2E=F DoIter=F DoCFld=F I1PDM=0
 GePol: Maximum number of non-zero 2nd derivatives   =     209
 Leave Link  701 at Sun Sep 27 20:23:18 2026, MaxMem= 12884901888 cpu:             131.2 elap:               9.4
 (Enter /opt/apps/Gaussian/G16C/g16/l702.exe)
 L702 exits ... SP integral derivatives will be done elsewhere.
 Leave Link  702 at Sun Sep 27 20:23:18 2026, MaxMem= 12884901888 cpu:               0.0 elap:               0.0
 (Enter /opt/apps/Gaussian/G16C/g16/l703.exe)
 Integral derivatives from FoFJK, PRISM(SPDF).
 Compute integral second derivatives, UseDBF=F ICtDFT=           0.
 Calling FoFJK, ICntrl=    100127 FMM=F ISym2X=0 I1Cent= 0 IOpClX= 0 NMat=1 NMatS=1 NMatT=0.
 FoFJK:  IHMeth= 1 ICntrl=  100127 DoSepK=F KAlg= 0 I1Cent=           0 FoldK=F
 IRaf=         0 NMat=       1 IRICut=       1 DoRegI=T DoRafI=F ISym2E= 0 IDoP0=0 IntGTp=1.
 FoFCou: FMM=F IPFlag=           0 FMFlag=      100000 FMFlg1=         800
         NFxFlg=           0 DoJE=F BraDBF=F KetDBF=F FulRan=T
         wScrn=  0.000000 ICntrl=    100127 IOpCl=  0 I1Cent=           0 NGrid=           0
         NMat0=    1 NMatS0=      1 NMatT0=    0 NMatD0=    1 NMtDS0=    0 NMtDT0=    0
 Symmetry not used in FoFCou.
 Leave Link  703 at Sun Sep 27 20:26:04 2026, MaxMem= 12884901888 cpu:            2636.6 elap:             166.0
 (Enter /opt/apps/Gaussian/G16C/g16/l716.exe)
 Dipole        = 2.51663805D+00-8.76854342D-01-1.34577600D+00
 Polarizability= 3.60426452D+02 4.28819200D+00 3.51120412D+02
                -1.07364963D+01 5.37985604D+00 3.21372716D+02
 Full mass-weighted force constant matrix:
 Low frequencies ---  -23.0688  -11.9258   -0.0006    0.0008    0.0018    7.7857
 Low frequencies ---   12.1943   31.0626   39.7503
 ******    1 imaginary frequencies (negative Signs) ****** 
 Diagonal vibrational polarizability:
       72.4484480      97.4748687      89.9626268
 Harmonic frequencies (cm**-1), IR intensities (KM/Mole), Raman scattering
 activities (A**4/AMU), depolarization ratios for plane and unpolarized
 incident light, reduced masses (AMU), force constants (mDyne/A),
 and normal coordinates:
                      1                      2                      3
                      A                      A                      A
 Frequencies --     -9.3181                30.2436                39.6214
 Red. masses --      3.7441                 3.7085                 3.9139
 Frc consts  --      0.0002                 0.0020                 0.0036
 IR Inten    --      0.0573                 0.1969                 0.2373
  Atom  AN      X      Y      Z        X      Y      Z        X      Y      Z
     1   6     0.01  -0.03   0.00    -0.01   0.00  -0.01    -0.05  -0.00  -0.00
     2  15    -0.00  -0.01  -0.00    -0.00   0.01  -0.01    -0.04  -0.01  -0.00
     3   1     0.02  -0.04  -0.01    -0.02   0.01  -0.00    -0.06  -0.02   0.01
     4   6    -0.04   0.02   0.03     0.04   0.02   0.04     0.10   0.02   0.11
     5   6    -0.03   0.02   0.02    -0.03  -0.01  -0.04    -0.01  -0.03   0.01
     6   6    -0.02   0.02   0.01    -0.05  -0.01  -0.06    -0.07  -0.04  -0.04
     7   6    -0.01   0.00   0.01     0.00   0.01   0.01    -0.02  -0.01   0.01
     8   6    -0.02  -0.00   0.03     0.07   0.04   0.08     0.08   0.05   0.12
     9   6    -0.03   0.00   0.03     0.09   0.04   0.10     0.14   0.06   0.16
    10   1    -0.05   0.02   0.04     0.05   0.03   0.06     0.15   0.03   0.15
    11   1    -0.04   0.04   0.01    -0.07  -0.02  -0.08    -0.04  -0.06  -0.04
    12   1    -0.01   0.03  -0.00    -0.10  -0.04  -0.12    -0.14  -0.08  -0.11
    13   1    -0.01  -0.01   0.03     0.11   0.06   0.13     0.11   0.08   0.16
    14   1    -0.03  -0.00   0.05     0.14   0.07   0.16     0.23   0.10   0.25
    15   6     0.02   0.01  -0.04     0.01  -0.01  -0.00     0.06  -0.14   0.01
    16   6     0.18  -0.12  -0.05    -0.08   0.06   0.01     0.06  -0.15  -0.00
    17   6     0.16  -0.12  -0.04    -0.08   0.06   0.01     0.02  -0.10  -0.01
    18   6     0.00  -0.00  -0.02    -0.00   0.00  -0.01    -0.02  -0.04   0.00
    19   6    -0.16   0.12  -0.00     0.08  -0.07  -0.02    -0.03  -0.02   0.02
    20   6    -0.15   0.13  -0.02     0.09  -0.08  -0.01     0.02  -0.08   0.03
    21   1     0.03   0.01  -0.05     0.01  -0.02   0.00     0.10  -0.18   0.02
    22   1     0.31  -0.21  -0.08    -0.14   0.10   0.02     0.10  -0.19  -0.01
    23   1     0.29  -0.21  -0.05    -0.15   0.11   0.02     0.02  -0.10  -0.02
    24   1    -0.28   0.22   0.01     0.14  -0.12  -0.02    -0.06   0.02   0.03
    25   1    -0.27   0.23  -0.01     0.16  -0.13  -0.02     0.02  -0.07   0.04
    26   6     0.00  -0.00  -0.00    -0.01  -0.01   0.02    -0.00   0.07  -0.10
    27   6     0.03   0.06  -0.10     0.04   0.09  -0.14    -0.03   0.02  -0.03
    28   6     0.03   0.06  -0.11     0.05   0.10  -0.15    -0.05  -0.01   0.01
    29   6     0.00   0.00  -0.02    -0.00   0.01  -0.00    -0.04   0.00  -0.01
    30   6    -0.03  -0.06   0.09    -0.05  -0.09   0.15    -0.01   0.04  -0.08
    31   6    -0.03  -0.06   0.09    -0.06  -0.10   0.17     0.01   0.08  -0.12
    32   1     0.00  -0.00  -0.00    -0.01  -0.01   0.03     0.01   0.10  -0.14
    33   1     0.06   0.11  -0.18     0.08   0.17  -0.25    -0.04   0.01  -0.01
    34   1     0.06   0.11  -0.19     0.09   0.18  -0.28    -0.07  -0.04   0.07
    35   1    -0.06  -0.11   0.16    -0.09  -0.16   0.26     0.00   0.05  -0.10
    36   1    -0.06  -0.11   0.17    -0.10  -0.18   0.29     0.03   0.11  -0.18
    37   6     0.02  -0.02   0.03    -0.02  -0.01  -0.04    -0.03   0.05  -0.02
    38   6     0.05  -0.02   0.04    -0.06  -0.03  -0.05    -0.05   0.14  -0.02
    39   8     0.01  -0.01   0.04    -0.01  -0.02  -0.05    -0.01   0.06  -0.04
    40   1     0.06  -0.01   0.05    -0.12  -0.05  -0.06     0.19   0.23  -0.00
    41   1     0.04  -0.01   0.05    -0.02  -0.08  -0.07    -0.22   0.34  -0.03
    42   1     0.05  -0.03   0.02    -0.06   0.00  -0.03    -0.12  -0.05  -0.03
                      4                      5                      6
                      A                      A                      A
 Frequencies --     45.3454                52.2789                55.7210
 Red. masses --      2.4121                 3.7660                 3.1447
 Frc consts  --      0.0029                 0.0061                 0.0058
 IR Inten    --      0.9638                 0.3692                 1.1441
  Atom  AN      X      Y      Z        X      Y      Z        X      Y      Z
     1   6     0.00  -0.03   0.00     0.00   0.08   0.00    -0.03  -0.03   0.01
     2  15    -0.01  -0.01  -0.00    -0.01   0.05   0.00    -0.00  -0.04   0.02
     3   1     0.02  -0.05  -0.02     0.01   0.11   0.01    -0.04   0.00   0.03
     4   6    -0.05  -0.00  -0.01     0.03   0.07   0.06     0.06  -0.03   0.06
     5   6    -0.03   0.01   0.01     0.10   0.11   0.13     0.12  -0.00   0.13
     6   6    -0.02   0.01   0.02     0.08   0.09   0.09     0.09  -0.01   0.11
     7   6    -0.02   0.00   0.01    -0.00   0.04  -0.01     0.01  -0.04   0.01
     8   6    -0.04  -0.01  -0.01    -0.08   0.01  -0.08    -0.05  -0.07  -0.07
     9   6    -0.06  -0.01  -0.02    -0.07   0.02  -0.05    -0.03  -0.06  -0.05
    10   1    -0.07  -0.01  -0.02     0.04   0.08   0.09     0.08  -0.02   0.07
    11   1    -0.03   0.01   0.01     0.16   0.15   0.21     0.19   0.02   0.21
    12   1    -0.00   0.02   0.03     0.13   0.12   0.14     0.14   0.01   0.17
    13   1    -0.05  -0.02  -0.01    -0.14  -0.03  -0.16    -0.12  -0.09  -0.15
    14   1    -0.08  -0.02  -0.03    -0.13  -0.01  -0.11    -0.08  -0.08  -0.12
    15   6     0.08  -0.02  -0.08     0.12  -0.12   0.05    -0.09   0.05   0.02
    16   6     0.03   0.03  -0.05     0.06  -0.09   0.03    -0.07   0.04   0.02
    17   6    -0.01   0.04  -0.02     0.00  -0.01   0.02    -0.03  -0.01   0.02
    18   6    -0.00   0.00  -0.02    -0.01   0.02   0.03    -0.01  -0.04   0.01
    19   6     0.04  -0.05  -0.06     0.04  -0.00   0.05    -0.02  -0.03   0.01
    20   6     0.08  -0.06  -0.09     0.10  -0.07   0.06    -0.06   0.01   0.01
    21   1     0.11  -0.03  -0.10     0.17  -0.18   0.05    -0.12   0.08   0.02
    22   1     0.03   0.07  -0.04     0.07  -0.12   0.02    -0.09   0.06   0.03
    23   1    -0.04   0.08   0.01    -0.03   0.00   0.01    -0.02  -0.01   0.03
    24   1     0.05  -0.08  -0.07     0.04   0.03   0.05    -0.00  -0.05   0.01
    25   1     0.12  -0.10  -0.12     0.14  -0.10   0.07    -0.07   0.02   0.01
    26   6    -0.03  -0.04   0.03    -0.07  -0.10  -0.09     0.07   0.10  -0.09
    27   6    -0.02  -0.03   0.00    -0.01  -0.08  -0.09     0.05   0.10  -0.10
    28   6    -0.01  -0.01  -0.02     0.02  -0.03  -0.06     0.02   0.04  -0.05
    29   6    -0.02  -0.01  -0.01    -0.03   0.00  -0.03     0.01  -0.02   0.02
    30   6    -0.03  -0.03   0.02    -0.09  -0.01  -0.02     0.02  -0.03   0.04
    31   6    -0.04  -0.04   0.04    -0.12  -0.06  -0.05     0.05   0.03  -0.01
    32   1    -0.04  -0.06   0.05    -0.09  -0.13  -0.11     0.09   0.14  -0.14
    33   1    -0.02  -0.02  -0.01     0.03  -0.11  -0.12     0.06   0.15  -0.16
    34   1    -0.00   0.00  -0.03     0.07  -0.02  -0.07     0.01   0.05  -0.07
    35   1    -0.03  -0.03   0.03    -0.12   0.01   0.01     0.01  -0.07   0.09
    36   1    -0.05  -0.06   0.06    -0.17  -0.08  -0.04     0.06   0.02   0.00
    37   6     0.03   0.03   0.05    -0.01   0.04  -0.01    -0.03  -0.01  -0.03
    38   6     0.11   0.13   0.09    -0.02   0.02  -0.01    -0.05   0.10  -0.03
    39   8     0.01   0.05   0.08    -0.03  -0.01  -0.02    -0.02  -0.04  -0.06
    40   1     0.55   0.28   0.17    -0.29  -0.07  -0.09     0.29   0.22   0.01
    41   1    -0.19   0.49   0.11     0.17  -0.21   0.02    -0.29   0.39  -0.04
    42   1     0.03  -0.22   0.01     0.05   0.27   0.03    -0.15  -0.17  -0.04
                      7                      8                      9
                      A                      A                      A
 Frequencies --     66.4728                70.5793                81.9011
 Red. masses --      4.5036                 3.0903                 2.0318
 Frc consts  --      0.0117                 0.0091                 0.0080
 IR Inten    --      1.3301                 3.0942                 1.8853
  Atom  AN      X      Y      Z        X      Y      Z        X      Y      Z
     1   6     0.06   0.00  -0.09    -0.00  -0.02  -0.03    -0.00   0.01   0.01
     2  15     0.03  -0.00  -0.10    -0.05  -0.02  -0.04     0.01  -0.03   0.01
     3   1     0.08   0.04  -0.10     0.03  -0.04  -0.07     0.01   0.11   0.04
     4   6    -0.00   0.12   0.14     0.12  -0.00   0.05    -0.06  -0.01   0.03
     5   6     0.01   0.15   0.07     0.10  -0.02   0.06    -0.05  -0.00   0.01
     6   6    -0.01   0.10  -0.04     0.03  -0.03   0.01    -0.02  -0.01   0.00
     7   6    -0.02   0.02  -0.07    -0.02  -0.03  -0.05    -0.00  -0.03   0.02
     8   6    -0.03  -0.01  -0.01    -0.01  -0.01  -0.06    -0.01  -0.04   0.05
     9   6    -0.03   0.04   0.10     0.07   0.00  -0.02    -0.03  -0.03   0.05
    10   1     0.01   0.16   0.22     0.19   0.01   0.09    -0.08  -0.01   0.03
    11   1     0.02   0.21   0.10     0.15  -0.03   0.10    -0.07   0.01  -0.01
    12   1     0.01   0.12  -0.09     0.01  -0.05   0.02    -0.02   0.00  -0.02
    13   1    -0.04  -0.06  -0.03    -0.05  -0.00  -0.10     0.01  -0.05   0.06
    14   1    -0.03   0.02   0.15     0.08   0.02  -0.03    -0.04  -0.04   0.07
    15   6    -0.12  -0.04   0.07    -0.02  -0.04  -0.05    -0.01   0.04  -0.04
    16   6    -0.12  -0.08   0.01    -0.05  -0.02  -0.04     0.01   0.04  -0.01
    17   6    -0.05  -0.08  -0.06    -0.06  -0.02  -0.04     0.02   0.01   0.00
    18   6     0.01  -0.04  -0.05    -0.05  -0.03  -0.04     0.02  -0.02  -0.00
    19   6     0.01  -0.00   0.02    -0.03  -0.05  -0.05     0.01  -0.02  -0.02
    20   6    -0.06  -0.00   0.08    -0.02  -0.05  -0.05    -0.01   0.01  -0.04
    21   1    -0.18  -0.03   0.12    -0.01  -0.05  -0.05    -0.02   0.07  -0.05
    22   1    -0.17  -0.11   0.00    -0.05  -0.01  -0.04     0.01   0.07  -0.01
    23   1    -0.05  -0.10  -0.11    -0.07  -0.00  -0.03     0.03   0.01   0.02
    24   1     0.05   0.03   0.02    -0.02  -0.06  -0.05     0.00  -0.04  -0.03
    25   1    -0.06   0.03   0.13     0.00  -0.07  -0.06    -0.02   0.01  -0.06
    26   6    -0.01  -0.07   0.17    -0.00   0.09   0.04     0.03  -0.01  -0.02
    27   6    -0.03  -0.04   0.12    -0.05   0.10   0.02     0.02  -0.02  -0.00
    28   6    -0.00   0.00  -0.01    -0.07   0.06  -0.01     0.02  -0.02   0.01
    29   6     0.04   0.02  -0.08    -0.04   0.01  -0.02     0.01  -0.03   0.01
    30   6     0.06  -0.00  -0.04     0.01   0.00   0.01     0.02  -0.02   0.00
    31   6     0.03  -0.05   0.09     0.03   0.05   0.04     0.02  -0.01  -0.01
    32   1    -0.04  -0.11   0.28     0.01   0.13   0.07     0.03   0.00  -0.03
    33   1    -0.06  -0.06   0.18    -0.07   0.14   0.02     0.02  -0.01  -0.01
    34   1    -0.02   0.02  -0.04    -0.11   0.06  -0.03     0.01  -0.03   0.02
    35   1     0.09   0.01  -0.09     0.03  -0.03   0.00     0.02  -0.02   0.01
    36   1     0.05  -0.06   0.13     0.07   0.04   0.06     0.03  -0.01  -0.02
    37   6     0.06  -0.02  -0.07     0.03   0.02   0.07     0.00   0.05  -0.02
    38   6     0.11   0.06  -0.05     0.12  -0.03   0.09     0.03   0.21   0.00
    39   8     0.02  -0.08  -0.07    -0.02   0.07   0.13    -0.02  -0.06  -0.05
    40   1     0.32   0.13  -0.03    -0.25  -0.16   0.03    -0.36   0.14  -0.24
    41   1    -0.03   0.23  -0.01     0.41  -0.37   0.19     0.31  -0.12   0.18
    42   1     0.08  -0.09  -0.09     0.28   0.32   0.09     0.15   0.68   0.09
                     10                     11                     12
                      A                      A                      A
 Frequencies --    114.5179               154.9753               191.3351
 Red. masses --      6.9879                 6.7948                 4.6161
 Frc consts  --      0.0540                 0.0961                 0.0996
 IR Inten    --     19.1911                21.3065                 1.8070
  Atom  AN      X      Y      Z        X      Y      Z        X      Y      Z
     1   6     0.00  -0.10  -0.01     0.18  -0.14   0.11    -0.03  -0.09  -0.04
     2  15     0.02  -0.05  -0.00    -0.05   0.00   0.04     0.01  -0.01  -0.03
     3   1    -0.11  -0.35  -0.02     0.20  -0.16   0.08    -0.04  -0.10  -0.04
     4   6    -0.12   0.01   0.05     0.05  -0.03  -0.04    -0.11  -0.04  -0.09
     5   6    -0.06   0.04   0.07     0.02  -0.08   0.04     0.01   0.03  -0.00
     6   6    -0.02   0.03   0.06    -0.06  -0.04   0.10     0.15   0.05   0.10
     7   6    -0.02  -0.02   0.04    -0.10   0.03   0.07     0.17   0.02   0.12
     8   6    -0.07  -0.05   0.03    -0.06   0.08  -0.01     0.14  -0.01   0.13
     9   6    -0.12  -0.04   0.04     0.01   0.05  -0.06    -0.02  -0.04   0.01
    10   1    -0.16   0.01   0.05     0.10  -0.06  -0.08    -0.26  -0.08  -0.22
    11   1    -0.06   0.08   0.08     0.05  -0.15   0.06    -0.03   0.05  -0.04
    12   1     0.03   0.06   0.06    -0.08  -0.07   0.15     0.21   0.09   0.13
    13   1    -0.08  -0.08   0.01    -0.09   0.15  -0.03     0.18  -0.03   0.17
    14   1    -0.16  -0.07   0.03     0.04   0.08  -0.12    -0.08  -0.08  -0.02
    15   6    -0.05  -0.02   0.00     0.06  -0.02  -0.04     0.07  -0.11   0.04
    16   6    -0.04  -0.02  -0.00     0.03   0.03   0.02    -0.05  -0.05  -0.02
    17   6    -0.01  -0.05  -0.02    -0.06   0.05   0.08    -0.13   0.09  -0.07
    18   6     0.02  -0.06  -0.02    -0.10   0.03   0.07    -0.09   0.15  -0.06
    19   6     0.02  -0.05  -0.01    -0.10   0.00   0.02    -0.06   0.16   0.01
    20   6    -0.02  -0.03  -0.00    -0.02  -0.02  -0.04     0.03   0.02   0.06
    21   1    -0.08   0.00   0.01     0.14  -0.06  -0.08     0.17  -0.25   0.06
    22   1    -0.06  -0.01  -0.00     0.09   0.04   0.02    -0.06  -0.13  -0.03
    23   1    -0.00  -0.05  -0.02    -0.07   0.08   0.11    -0.18   0.11  -0.11
    24   1     0.04  -0.08  -0.02    -0.15  -0.01   0.02    -0.06   0.25   0.02
    25   1    -0.02  -0.03   0.00    -0.01  -0.05  -0.08     0.09  -0.00   0.11
    26   6     0.05  -0.01   0.00    -0.08   0.01   0.09     0.02   0.07   0.01
    27   6     0.03  -0.01  -0.01    -0.09   0.05   0.02    -0.06   0.05   0.01
    28   6     0.03  -0.03  -0.01    -0.07   0.07  -0.08    -0.10  -0.03  -0.02
    29   6     0.03  -0.04  -0.01    -0.04   0.06  -0.11    -0.05  -0.10  -0.03
    30   6     0.05  -0.05   0.00    -0.02   0.05  -0.09     0.02  -0.10  -0.01
    31   6     0.05  -0.03   0.01    -0.04   0.03   0.02     0.06  -0.01   0.01
    32   1     0.05  -0.00   0.01    -0.10  -0.03   0.19     0.06   0.14   0.01
    33   1     0.03   0.01  -0.01    -0.11   0.04   0.06    -0.10   0.11   0.01
    34   1     0.01  -0.03  -0.02    -0.09   0.09  -0.12    -0.16  -0.03  -0.03
    35   1     0.05  -0.06   0.01    -0.01   0.05  -0.11     0.04  -0.14  -0.02
    36   1     0.06  -0.04   0.02    -0.02   0.01   0.06     0.14  -0.01   0.02
    37   6     0.07   0.15  -0.04     0.19  -0.09   0.01    -0.01  -0.03  -0.03
    38   6    -0.10  -0.04  -0.11    -0.01   0.05  -0.06     0.03   0.03  -0.01
    39   8     0.23   0.47  -0.04     0.34  -0.14  -0.16    -0.02  -0.01  -0.01
    40   1    -0.33  -0.14  -0.08    -0.08   0.08  -0.23     0.01   0.03  -0.05
    41   1     0.02  -0.20  -0.30     0.01   0.03  -0.10     0.05   0.00   0.06
    42   1    -0.15   0.02  -0.04    -0.09   0.16   0.08     0.06   0.09  -0.02
                     13                     14                     15
                      A                      A                      A
 Frequencies --    199.2431               228.4117               247.1229
 Red. masses --      4.5262                 5.0001                 4.8921
 Frc consts  --      0.1059                 0.1537                 0.1760
 IR Inten    --      3.3484                 6.2331                 0.5493
  Atom  AN      X      Y      Z        X      Y      Z        X      Y      Z
     1   6     0.11   0.24   0.02     0.08  -0.01   0.01    -0.03  -0.10   0.00
     2  15     0.01  -0.01  -0.00    -0.01   0.02  -0.01    -0.00   0.01   0.01
     3   1     0.12   0.27   0.03     0.09  -0.09  -0.04    -0.03  -0.12  -0.00
     4   6    -0.02   0.03   0.09    -0.02   0.06  -0.05     0.08   0.06   0.03
     5   6    -0.01   0.07  -0.03    -0.00   0.06  -0.02    -0.02  -0.00  -0.01
     6   6     0.01   0.00  -0.15     0.01   0.07   0.00    -0.12  -0.00  -0.03
     7   6     0.04  -0.08  -0.14     0.01   0.05  -0.00    -0.11   0.04  -0.02
     8   6     0.01  -0.13  -0.06     0.02   0.07  -0.00    -0.10   0.08  -0.08
     9   6    -0.03  -0.08   0.06     0.00   0.07  -0.02     0.01   0.08  -0.05
    10   1    -0.01   0.08   0.20    -0.04   0.05  -0.07     0.18   0.07   0.09
    11   1    -0.02   0.15  -0.02    -0.00   0.06  -0.02     0.00  -0.05   0.01
    12   1     0.03   0.03  -0.22     0.02   0.07   0.01    -0.16  -0.03  -0.04
    13   1     0.02  -0.21  -0.06     0.03   0.08   0.01    -0.14   0.11  -0.12
    14   1    -0.04  -0.11   0.14    -0.00   0.06  -0.02     0.04   0.11  -0.06
    15   6     0.10  -0.01  -0.05    -0.09   0.02  -0.00     0.06  -0.13  -0.04
    16   6     0.06   0.06   0.03    -0.04  -0.04  -0.04    -0.06  -0.03  -0.04
    17   6    -0.06   0.08   0.12     0.05  -0.08  -0.08    -0.16   0.08  -0.04
    18   6    -0.11   0.03   0.10     0.07  -0.04  -0.07    -0.09   0.09  -0.04
    19   6    -0.13   0.01   0.04     0.09  -0.05  -0.05    -0.13   0.12  -0.03
    20   6    -0.03  -0.01  -0.05     0.01  -0.01  -0.01    -0.03   0.00  -0.02
    21   1     0.21  -0.06  -0.11    -0.19   0.08   0.04     0.20  -0.26  -0.05
    22   1     0.13   0.09   0.04    -0.07  -0.04  -0.04    -0.06  -0.06  -0.05
    23   1    -0.08   0.12   0.18     0.07  -0.11  -0.11    -0.24   0.12  -0.07
    24   1    -0.20  -0.02   0.04     0.13  -0.06  -0.05    -0.18   0.18  -0.02
    25   1    -0.03  -0.05  -0.12     0.00   0.01   0.03     0.00  -0.01   0.01
    26   6     0.03   0.06  -0.02    -0.02   0.12  -0.17     0.15  -0.05  -0.06
    27   6    -0.04   0.03   0.01    -0.05   0.02   0.01     0.16  -0.09   0.01
    28   6    -0.08  -0.06   0.04    -0.10  -0.09   0.21     0.15  -0.08   0.11
    29   6    -0.05  -0.10   0.03    -0.09  -0.07   0.18     0.09   0.00   0.11
    30   6    -0.00  -0.10   0.04    -0.13  -0.08   0.20     0.08  -0.02   0.12
    31   6     0.04  -0.01   0.01    -0.09   0.01   0.02     0.08  -0.03   0.03
    32   1     0.07   0.14  -0.07     0.05   0.25  -0.40     0.17  -0.03  -0.17
    33   1    -0.06   0.07   0.01    -0.02   0.03  -0.06     0.19  -0.10  -0.01
    34   1    -0.13  -0.08   0.06    -0.13  -0.14   0.30     0.21  -0.10   0.17
    35   1     0.01  -0.14   0.05    -0.17  -0.10   0.27     0.06  -0.02   0.15
    36   1     0.10   0.00   0.00    -0.09   0.03  -0.02     0.02  -0.03   0.00
    37   6     0.06   0.07  -0.01     0.09  -0.03   0.00    -0.01  -0.04   0.01
    38   6     0.01  -0.06  -0.04     0.07  -0.02  -0.01    -0.02   0.02   0.01
    39   8     0.04  -0.01  -0.04     0.14  -0.06  -0.06     0.01  -0.01   0.01
    40   1     0.07  -0.07   0.08     0.07  -0.01  -0.02    -0.03   0.04  -0.05
    41   1    -0.04  -0.00  -0.17     0.06  -0.01  -0.01    -0.01   0.01   0.05
    42   1    -0.04  -0.21  -0.06     0.06  -0.01  -0.00    -0.02   0.07   0.04
                     16                     17                     18
                      A                      A                      A
 Frequencies --    257.8064               273.1646               293.7372
 Red. masses --      5.2182                 5.2689                 4.9811
 Frc consts  --      0.2043                 0.2316                 0.2532
 IR Inten    --      1.1892                 2.7614                 6.7033
  Atom  AN      X      Y      Z        X      Y      Z        X      Y      Z
     1   6    -0.01  -0.08  -0.05     0.07   0.15  -0.00     0.07   0.30  -0.02
     2  15     0.01   0.00  -0.03     0.01   0.03  -0.01    -0.01   0.03  -0.02
     3   1    -0.03  -0.14  -0.06     0.07   0.13  -0.02     0.02   0.24  -0.01
     4   6     0.06  -0.09   0.15    -0.06  -0.13   0.04     0.00  -0.09  -0.03
     5   6    -0.03  -0.12   0.03     0.01  -0.08   0.04    -0.01  -0.13   0.10
     6   6    -0.11  -0.14  -0.07     0.07  -0.08   0.05    -0.11  -0.06   0.18
     7   6    -0.08  -0.08  -0.04     0.06  -0.06   0.02    -0.14   0.06   0.13
     8   6    -0.13  -0.12  -0.06     0.04  -0.12   0.09    -0.09   0.12   0.11
     9   6    -0.04  -0.10   0.04    -0.03  -0.13   0.07    -0.02   0.05  -0.01
    10   1     0.17  -0.05   0.28    -0.12  -0.14   0.00     0.04  -0.14  -0.12
    11   1    -0.02  -0.10   0.04    -0.00  -0.02   0.04     0.02  -0.22   0.12
    12   1    -0.16  -0.18  -0.09     0.09  -0.07   0.07    -0.16  -0.13   0.26
    13   1    -0.17  -0.16  -0.11     0.07  -0.16   0.11    -0.09   0.21   0.12
    14   1    -0.01  -0.08   0.05    -0.04  -0.14   0.07     0.03   0.12  -0.10
    15   6     0.09   0.05   0.12    -0.03  -0.10  -0.06    -0.02   0.01  -0.00
    16   6     0.03   0.04   0.01    -0.08  -0.06  -0.07    -0.01  -0.01  -0.02
    17   6     0.06   0.11  -0.09    -0.09  -0.01  -0.09     0.01  -0.01  -0.04
    18   6     0.09   0.14  -0.08    -0.02   0.02  -0.07     0.01   0.01  -0.03
    19   6     0.14   0.19   0.03    -0.05   0.03  -0.07     0.03   0.00  -0.02
    20   6     0.12   0.13   0.13    -0.04  -0.02  -0.05     0.01   0.00  -0.01
    21   1     0.08   0.00   0.19     0.01  -0.16  -0.05    -0.05   0.02   0.01
    22   1    -0.04  -0.05  -0.01    -0.09  -0.08  -0.07    -0.02  -0.03  -0.03
    23   1     0.02   0.10  -0.14    -0.13  -0.01  -0.13     0.01  -0.02  -0.05
    24   1     0.21   0.28   0.05    -0.07   0.05  -0.07     0.04   0.00  -0.02
    25   1     0.15   0.15   0.20    -0.02  -0.01  -0.01     0.01   0.01   0.01
    26   6    -0.05   0.05  -0.02    -0.08  -0.04  -0.01     0.08  -0.00  -0.00
    27   6    -0.06   0.03   0.00     0.07  -0.01   0.01     0.00  -0.01  -0.01
    28   6    -0.07   0.00   0.02     0.13   0.12   0.07    -0.03  -0.07  -0.03
    29   6    -0.04  -0.01   0.01     0.06   0.18   0.11    -0.01  -0.08  -0.05
    30   6    -0.06  -0.01   0.01    -0.07   0.21   0.06     0.06  -0.10  -0.02
    31   6    -0.05   0.01   0.00    -0.14   0.09  -0.01     0.09  -0.05   0.01
    32   1    -0.04   0.07  -0.05    -0.13  -0.14  -0.04     0.10   0.05  -0.00
    33   1    -0.06   0.04  -0.01     0.15  -0.11  -0.02    -0.03   0.04   0.00
    34   1    -0.09  -0.00   0.03     0.23   0.13   0.08    -0.06  -0.08  -0.02
    35   1    -0.06  -0.01   0.02    -0.13   0.30   0.08     0.09  -0.14  -0.03
    36   1    -0.03   0.01   0.01    -0.25   0.08  -0.04     0.13  -0.06   0.03
    37   6     0.01  -0.02  -0.04     0.05   0.05  -0.02     0.02   0.12  -0.07
    38   6     0.05   0.00  -0.03     0.06  -0.03  -0.03     0.11  -0.07  -0.06
    39   8     0.02   0.02  -0.03     0.04  -0.01  -0.04    -0.06  -0.01  -0.05
    40   1     0.05   0.00  -0.04     0.07  -0.05   0.06     0.15  -0.12   0.16
    41   1     0.07  -0.01   0.02     0.05  -0.02  -0.08     0.10  -0.06  -0.11
    42   1     0.08   0.03  -0.05     0.06  -0.10  -0.07     0.16  -0.21  -0.18
                     19                     20                     21
                      A                      A                      A
 Frequencies --    307.7308               403.8884               404.5767
 Red. masses --      4.1623                 2.8423                 2.8379
 Frc consts  --      0.2322                 0.2732                 0.2737
 IR Inten    --      7.9932                 0.5109                 0.2460
  Atom  AN      X      Y      Z        X      Y      Z        X      Y      Z
     1   6    -0.09  -0.15  -0.13     0.00   0.01   0.00    -0.00   0.01   0.00
     2  15     0.01  -0.02  -0.04    -0.00   0.00  -0.00     0.00  -0.00   0.00
     3   1    -0.13  -0.08  -0.07    -0.00  -0.01   0.00    -0.01  -0.01  -0.00
     4   6    -0.01  -0.01  -0.03    -0.01  -0.00  -0.00     0.00   0.00   0.00
     5   6    -0.00  -0.01   0.01    -0.09  -0.04  -0.10    -0.05  -0.02  -0.06
     6   6    -0.00   0.01   0.04     0.10   0.04   0.12     0.04   0.02   0.06
     7   6    -0.02   0.01   0.02    -0.00  -0.00  -0.00     0.00   0.00   0.00
     8   6    -0.00   0.03   0.02    -0.09  -0.04  -0.10    -0.05  -0.02  -0.06
     9   6     0.01   0.02   0.00     0.09   0.04   0.11     0.05   0.02   0.05
    10   1    -0.03  -0.02  -0.07    -0.01  -0.01  -0.02     0.01   0.00   0.00
    11   1    -0.00  -0.03   0.00    -0.20  -0.08  -0.23    -0.11  -0.05  -0.12
    12   1     0.00   0.01   0.06     0.22   0.09   0.26     0.11   0.05   0.13
    13   1    -0.00   0.05   0.02    -0.20  -0.09  -0.24    -0.11  -0.04  -0.13
    14   1     0.02   0.03  -0.00     0.21   0.08   0.25     0.10   0.04   0.12
    15   6     0.07   0.03   0.01    -0.00  -0.00   0.00    -0.00   0.00  -0.00
    16   6     0.06   0.07   0.08     0.01  -0.01  -0.00    -0.14   0.11   0.02
    17   6     0.00   0.03   0.15    -0.01   0.01   0.00     0.13  -0.11  -0.02
    18   6    -0.04  -0.06   0.12    -0.00  -0.00  -0.00    -0.00   0.00   0.00
    19   6    -0.08  -0.06   0.09     0.01  -0.01  -0.00    -0.14   0.11   0.02
    20   6    -0.03  -0.02   0.01    -0.02   0.01   0.00     0.14  -0.11  -0.02
    21   1     0.12   0.04  -0.05     0.00  -0.00   0.00    -0.00   0.00   0.00
    22   1     0.10   0.11   0.09     0.03  -0.03  -0.01    -0.29   0.24   0.05
    23   1     0.02   0.05   0.23    -0.03   0.03   0.01     0.32  -0.26  -0.06
    24   1    -0.12  -0.08   0.08     0.03  -0.03  -0.01    -0.31   0.26   0.05
    25   1    -0.06  -0.03  -0.07    -0.03   0.02   0.01     0.30  -0.25  -0.05
    26   6    -0.03   0.02  -0.04     0.00  -0.00   0.01     0.00   0.00  -0.00
    27   6     0.01  -0.00   0.01     0.04   0.07  -0.12    -0.02  -0.03   0.05
    28   6     0.02   0.02   0.06    -0.04  -0.07   0.11     0.02   0.03  -0.05
    29   6     0.01   0.05   0.04    -0.00   0.00  -0.00     0.00   0.00  -0.00
    30   6    -0.04   0.04   0.05     0.04   0.07  -0.12    -0.02  -0.03   0.05
    31   6    -0.06   0.02   0.01    -0.04  -0.07   0.11     0.02   0.03  -0.05
    32   1    -0.03   0.02  -0.09    -0.00  -0.01   0.02     0.00   0.00  -0.01
    33   1     0.03  -0.04   0.00     0.08   0.16  -0.24    -0.04  -0.07   0.11
    34   1     0.03   0.01   0.08    -0.09  -0.16   0.26     0.04   0.07  -0.11
    35   1    -0.07   0.06   0.07     0.09   0.16  -0.26    -0.04  -0.07   0.11
    36   1    -0.09   0.02   0.00    -0.08  -0.16   0.25     0.04   0.06  -0.10
    37   6    -0.04  -0.03  -0.17     0.00   0.00   0.00     0.00   0.01   0.00
    38   6     0.25  -0.04  -0.09    -0.00   0.00  -0.00     0.00  -0.00  -0.00
    39   8    -0.07   0.07  -0.11    -0.00  -0.00   0.00    -0.00  -0.00  -0.00
    40   1     0.31  -0.06   0.03    -0.01   0.00  -0.00     0.00  -0.01   0.01
    41   1     0.29  -0.08   0.14    -0.01   0.00  -0.01     0.00  -0.00  -0.01
    42   1     0.45  -0.02  -0.31    -0.01  -0.00   0.01     0.01  -0.01  -0.01
                     22                     23                     24
                      A                      A                      A
 Frequencies --    408.1133               428.8059               449.3114
 Red. masses --      2.8492                 4.2497                 5.6704
 Frc consts  --      0.2796                 0.4604                 0.6745
 IR Inten    --      0.1402                16.9785                26.8482
  Atom  AN      X      Y      Z        X      Y      Z        X      Y      Z
     1   6     0.00   0.01   0.00    -0.06   0.01   0.12     0.06   0.03  -0.02
     2  15    -0.00   0.00   0.00     0.03  -0.02   0.18     0.21  -0.10   0.01
     3   1     0.01   0.03   0.01    -0.16  -0.03   0.18    -0.03  -0.04   0.03
     4   6     0.00  -0.00   0.00     0.08   0.09   0.07     0.05   0.04   0.00
     5   6    -0.07  -0.03  -0.08    -0.05   0.03  -0.06    -0.03  -0.00  -0.02
     6   6     0.07   0.03   0.09    -0.03   0.02  -0.05    -0.06   0.02   0.03
     7   6     0.01   0.00   0.01     0.10   0.01   0.11    -0.00   0.02   0.09
     8   6    -0.08  -0.03  -0.09     0.00  -0.01  -0.07    -0.04   0.05  -0.01
     9   6     0.07   0.03   0.08    -0.03   0.00  -0.07     0.00   0.03  -0.05
    10   1     0.00  -0.00  -0.00     0.15   0.13   0.17     0.10   0.05   0.02
    11   1    -0.16  -0.07  -0.19    -0.11  -0.01  -0.13    -0.04  -0.08  -0.05
    12   1     0.16   0.07   0.19    -0.07   0.01  -0.16    -0.09   0.01   0.01
    13   1    -0.17  -0.07  -0.20    -0.07  -0.01  -0.15    -0.08   0.08  -0.04
    14   1     0.15   0.06   0.18    -0.12  -0.05  -0.12    -0.01   0.04  -0.09
    15   6    -0.01  -0.00  -0.00    -0.07  -0.05  -0.04     0.12  -0.14  -0.05
    16   6     0.07  -0.07  -0.02    -0.04  -0.06  -0.02    -0.10   0.05   0.02
    17   6    -0.07   0.06   0.01    -0.02  -0.02  -0.04    -0.06   0.02   0.02
    18   6    -0.00   0.01  -0.00     0.02   0.05  -0.01     0.22  -0.17  -0.02
    19   6     0.08  -0.06  -0.02     0.02   0.02  -0.07    -0.04   0.03  -0.01
    20   6    -0.07   0.06   0.01    -0.00  -0.01  -0.03    -0.10   0.07  -0.01
    21   1    -0.01   0.00   0.00    -0.08  -0.05  -0.02     0.26  -0.26  -0.08
    22   1     0.15  -0.14  -0.03    -0.02  -0.06  -0.03    -0.24   0.20   0.05
    23   1    -0.16   0.13   0.02    -0.03  -0.05  -0.11    -0.21   0.13   0.03
    24   1     0.17  -0.14  -0.03     0.01  -0.01  -0.07    -0.20   0.12   0.01
    25   1    -0.15   0.13   0.03     0.03  -0.00   0.02    -0.25   0.20   0.03
    26   6     0.00   0.00  -0.00    -0.05  -0.04   0.09    -0.13   0.08  -0.03
    27   6    -0.04  -0.07   0.11    -0.00   0.05  -0.06    -0.07   0.06   0.04
    28   6     0.04   0.07  -0.11    -0.02   0.01  -0.04    -0.04   0.06   0.03
    29   6    -0.00  -0.00  -0.00    -0.04  -0.09   0.09     0.07  -0.02  -0.04
    30   6    -0.04  -0.08   0.12     0.00   0.00  -0.07    -0.07  -0.04  -0.03
    31   6     0.04   0.07  -0.11     0.01   0.02  -0.05    -0.09  -0.02  -0.02
    32   1     0.01   0.01  -0.02    -0.08  -0.09   0.20    -0.12   0.10  -0.04
    33   1    -0.08  -0.15   0.24     0.02   0.12  -0.15    -0.04  -0.01   0.05
    34   1     0.09   0.16  -0.26    -0.02   0.05  -0.12    -0.15   0.04   0.02
    35   1    -0.09  -0.17   0.26     0.04   0.05  -0.15    -0.12   0.00   0.01
    36   1     0.09   0.15  -0.25     0.07   0.07  -0.11    -0.02  -0.03   0.03
    37   6     0.00   0.00  -0.00    -0.07   0.04  -0.05     0.04   0.02  -0.01
    38   6     0.01  -0.00  -0.00     0.13  -0.04   0.01    -0.05   0.02  -0.04
    39   8     0.00   0.00  -0.00     0.01   0.02  -0.13    -0.08  -0.00   0.10
    40   1     0.01  -0.00   0.01     0.20  -0.09   0.22    -0.09   0.03  -0.12
    41   1     0.01  -0.00  -0.00     0.17  -0.09   0.18    -0.07   0.04  -0.17
    42   1     0.01  -0.01  -0.01     0.32  -0.08  -0.23    -0.16   0.01   0.08
                     25                     26                     27
                      A                      A                      A
 Frequencies --    461.5627               505.1155               515.0694
 Red. masses --      4.8243                 3.8920                 4.9437
 Frc consts  --      0.6055                 0.5851                 0.7727
 IR Inten    --     22.9079                83.4628                99.6907
  Atom  AN      X      Y      Z        X      Y      Z        X      Y      Z
     1   6     0.01  -0.06  -0.02     0.07   0.00  -0.10    -0.03  -0.00  -0.05
     2  15     0.10   0.15   0.00     0.04  -0.06  -0.09    -0.06   0.19  -0.08
     3   1     0.00   0.00   0.01     0.08  -0.02  -0.12    -0.00  -0.20  -0.17
     4   6     0.08  -0.05   0.14     0.05   0.02   0.04     0.02  -0.08   0.10
     5   6    -0.03  -0.07  -0.06    -0.03  -0.02  -0.03    -0.00  -0.06  -0.04
     6   6     0.00  -0.04  -0.03    -0.04   0.01   0.02     0.06  -0.04  -0.02
     7   6     0.13   0.10   0.13     0.04   0.04   0.10     0.09   0.11   0.04
     8   6    -0.05  -0.02   0.01    -0.03   0.03   0.01    -0.03   0.00   0.03
     9   6    -0.08  -0.05  -0.03    -0.02   0.01  -0.04    -0.07  -0.02   0.01
    10   1     0.16  -0.01   0.24     0.09   0.03   0.06     0.04  -0.07   0.13
    11   1    -0.14  -0.07  -0.18    -0.09  -0.07  -0.10    -0.09  -0.01  -0.13
    12   1    -0.11  -0.11  -0.10    -0.09  -0.02  -0.02    -0.03  -0.11  -0.04
    13   1    -0.12  -0.11  -0.08    -0.08   0.03  -0.05    -0.07  -0.11  -0.03
    14   1    -0.16  -0.07  -0.18    -0.07  -0.00  -0.13    -0.11  -0.02  -0.11
    15   6    -0.12   0.01  -0.06    -0.05   0.08   0.03     0.10  -0.08  -0.03
    16   6     0.02  -0.07   0.00     0.06  -0.03  -0.01    -0.06   0.06   0.02
    17   6    -0.01  -0.07   0.05     0.00   0.00   0.01     0.00  -0.03   0.05
    18   6    -0.09   0.10   0.08    -0.14   0.08   0.02     0.16  -0.17   0.00
    19   6    -0.02  -0.04  -0.02    -0.02  -0.02   0.03    -0.01  -0.04   0.03
    20   6     0.01  -0.06  -0.07     0.04  -0.05   0.00    -0.08   0.05  -0.00
    21   1    -0.18   0.07  -0.06    -0.09   0.12   0.02     0.15  -0.10  -0.05
    22   1     0.16  -0.08  -0.00     0.18  -0.13  -0.03    -0.20   0.24   0.06
    23   1     0.05  -0.14   0.01     0.11  -0.07   0.02    -0.13   0.09   0.09
    24   1     0.01  -0.18  -0.05     0.09  -0.10   0.01    -0.17   0.07   0.05
    25   1     0.11  -0.14  -0.07     0.15  -0.16  -0.04    -0.26   0.19  -0.01
    26   6     0.03   0.08  -0.10    -0.07  -0.06   0.10     0.04  -0.08   0.09
    27   6    -0.03  -0.02   0.07     0.03   0.06  -0.06     0.02   0.00  -0.08
    28   6    -0.03  -0.03   0.02     0.02   0.03   0.03    -0.02  -0.05  -0.04
    29   6     0.05   0.08  -0.17    -0.03  -0.11   0.20    -0.12  -0.08   0.13
    30   6    -0.02  -0.03  -0.00    -0.01   0.01   0.01     0.02  -0.01   0.02
    31   6    -0.02  -0.05   0.08    -0.00   0.05  -0.09     0.06   0.04  -0.04
    32   1     0.07   0.15  -0.20    -0.10  -0.11   0.16     0.03  -0.10   0.14
    33   1    -0.08  -0.09   0.20     0.12   0.14  -0.25     0.02   0.14  -0.20
    34   1    -0.09  -0.11   0.14     0.06   0.13  -0.12     0.06   0.02  -0.15
    35   1    -0.05  -0.10   0.09     0.01   0.13  -0.11     0.10   0.01  -0.12
    36   1    -0.04  -0.13   0.21     0.06   0.17  -0.26     0.09   0.13  -0.20
    37   6     0.00  -0.05  -0.03     0.10  -0.01  -0.02    -0.00  -0.06   0.02
    38   6    -0.01   0.02  -0.03    -0.03   0.02  -0.09    -0.01   0.00   0.03
    39   8    -0.04   0.02   0.05    -0.05  -0.02   0.12     0.05  -0.00  -0.01
    40   1    -0.01   0.06  -0.15    -0.09   0.05  -0.24     0.01   0.04  -0.07
    41   1    -0.03   0.04   0.00    -0.07   0.06  -0.27    -0.03   0.02   0.12
    42   1    -0.05   0.08   0.03    -0.20   0.03   0.10    -0.01   0.07   0.06
                     28                     29                     30
                      A                      A                      A
 Frequencies --    526.5516               566.3530               601.1601
 Red. masses --      4.9984                 1.3083                 5.0331
 Frc consts  --      0.8165                 0.2472                 1.0717
 IR Inten    --     88.9235                91.6774                17.7775
  Atom  AN      X      Y      Z        X      Y      Z        X      Y      Z
     1   6     0.01  -0.06   0.01    -0.04  -0.12  -0.02    -0.11   0.08  -0.05
     2  15     0.15   0.12   0.06     0.01   0.01  -0.00     0.11  -0.03  -0.13
     3   1    -0.06  -0.11   0.04     0.31   0.88   0.13    -0.05   0.09  -0.08
     4   6    -0.11  -0.10  -0.09    -0.00  -0.01   0.01     0.03  -0.04   0.01
     5   6     0.09  -0.00   0.08     0.00  -0.01   0.00     0.03  -0.00  -0.04
     6   6     0.00  -0.02  -0.02     0.00  -0.00  -0.00    -0.02   0.04   0.02
     7   6    -0.17  -0.02  -0.22    -0.00   0.01  -0.00    -0.02   0.05   0.02
     8   6    -0.05   0.01   0.01    -0.01   0.01   0.01    -0.07   0.01   0.06
     9   6     0.05   0.03   0.10    -0.01   0.00   0.00    -0.00  -0.03  -0.00
    10   1    -0.15  -0.12  -0.15     0.00  -0.01   0.00    -0.00  -0.02   0.03
    11   1     0.25   0.10   0.28     0.00   0.00  -0.00     0.02  -0.03  -0.06
    12   1     0.11   0.00   0.17    -0.00  -0.01   0.01    -0.06   0.00   0.05
    13   1     0.09   0.03   0.17    -0.01  -0.00   0.00    -0.07   0.00   0.04
    14   1     0.25   0.13   0.28     0.00   0.01  -0.00     0.03   0.01  -0.07
    15   6    -0.09  -0.04  -0.07    -0.00  -0.01  -0.01    -0.01   0.05   0.00
    16   6    -0.02  -0.06   0.01    -0.01  -0.00   0.00     0.02  -0.01  -0.05
    17   6    -0.04  -0.04   0.05     0.00  -0.01   0.00    -0.04  -0.01   0.01
    18   6     0.01   0.10   0.08     0.01  -0.00   0.00    -0.06   0.00   0.01
    19   6     0.00   0.03  -0.05     0.00   0.00  -0.01    -0.02  -0.01   0.06
    20   6     0.02  -0.00  -0.07    -0.00   0.01  -0.01     0.03   0.00   0.00
    21   1    -0.10  -0.04  -0.06     0.00  -0.02  -0.01    -0.01   0.03   0.03
    22   1     0.08  -0.03   0.01    -0.02   0.02   0.00     0.10  -0.05  -0.06
    23   1    -0.02  -0.10  -0.04    -0.01  -0.01  -0.01     0.03  -0.04   0.05
    24   1    -0.02  -0.08  -0.07    -0.00   0.01  -0.01     0.03  -0.05   0.06
    25   1     0.10  -0.03  -0.01    -0.00   0.02   0.00     0.08  -0.07  -0.06
    26   6    -0.06  -0.00   0.07    -0.00  -0.00   0.01    -0.08   0.02   0.00
    27   6     0.00   0.06  -0.02     0.00   0.00  -0.01    -0.00   0.04   0.01
    28   6    -0.02  -0.01  -0.01    -0.01  -0.01   0.00     0.02   0.06   0.05
    29   6    -0.01  -0.11   0.08    -0.01  -0.01   0.01     0.08  -0.04   0.03
    30   6    -0.03  -0.06  -0.03    -0.00  -0.00  -0.00     0.00  -0.04  -0.02
    31   6     0.01   0.02  -0.05     0.00   0.00  -0.00    -0.02  -0.05  -0.04
    32   1    -0.06  -0.02   0.10    -0.00   0.00   0.00    -0.07   0.05   0.00
    33   1     0.03   0.12  -0.13     0.01   0.02  -0.03     0.07  -0.01  -0.04
    34   1    -0.04   0.04  -0.11     0.01   0.00  -0.02    -0.03   0.07   0.00
    35   1    -0.01  -0.00  -0.10     0.01   0.00  -0.02    -0.04   0.04  -0.03
    36   1     0.11   0.09  -0.15     0.01   0.01  -0.02     0.05  -0.03  -0.06
    37   6    -0.03  -0.09  -0.03     0.03   0.08   0.02    -0.14  -0.01   0.09
    38   6     0.01   0.01  -0.03    -0.00   0.00   0.00    -0.10  -0.03   0.31
    39   8    -0.02   0.03   0.03     0.01  -0.01  -0.00     0.14   0.01  -0.18
    40   1     0.05   0.08  -0.18    -0.06  -0.08   0.16    -0.01  -0.04   0.48
    41   1    -0.02   0.04   0.12     0.03  -0.04  -0.18    -0.06  -0.07   0.57
    42   1     0.03   0.11   0.00    -0.04  -0.13  -0.01     0.09  -0.02   0.10
                     31                     32                     33
                      A                      A                      A
 Frequencies --    623.0704               625.2919               626.1186
 Red. masses --      5.9979                 6.2783                 6.3847
 Frc consts  --      1.3719                 1.4463                 1.4747
 IR Inten    --      0.0460                 0.2220                 1.2240
  Atom  AN      X      Y      Z        X      Y      Z        X      Y      Z
     1   6     0.00   0.03  -0.01    -0.00  -0.01  -0.00    -0.02   0.02  -0.03
     2  15     0.00   0.00  -0.01    -0.01  -0.01  -0.00     0.03  -0.01  -0.04
     3   1     0.07   0.21   0.01    -0.03  -0.11  -0.02    -0.00   0.01  -0.05
     4   6     0.04  -0.03  -0.02     0.04  -0.01  -0.03    -0.09   0.04   0.07
     5   6     0.08   0.04  -0.08     0.08   0.06  -0.09    -0.18  -0.12   0.19
     6   6    -0.04   0.09   0.00    -0.06   0.11   0.01     0.11  -0.24  -0.00
     7   6    -0.04   0.03   0.02    -0.04   0.01   0.03     0.09  -0.04  -0.06
     8   6    -0.07  -0.03   0.08    -0.07  -0.05   0.08     0.16   0.12  -0.17
     9   6     0.04  -0.10  -0.00     0.06  -0.12  -0.01    -0.13   0.27   0.01
    10   1    -0.06   0.02   0.06    -0.08   0.05   0.05     0.18  -0.09  -0.12
    11   1     0.09  -0.01  -0.08     0.10  -0.02  -0.08    -0.23   0.01   0.17
    12   1    -0.07   0.05   0.04    -0.08   0.08   0.04     0.17  -0.17  -0.09
    13   1    -0.09  -0.00   0.07    -0.10   0.01   0.07     0.20  -0.01  -0.15
    14   1     0.08  -0.06  -0.05     0.09  -0.09  -0.05    -0.20   0.19   0.09
    15   6    -0.04  -0.07   0.10     0.01   0.01   0.00    -0.01  -0.01   0.04
    16   6     0.06   0.01   0.31    -0.00   0.01  -0.03     0.03   0.01   0.11
    17   6     0.18   0.22  -0.02    -0.01  -0.01  -0.01     0.06   0.08  -0.01
    18   6     0.04   0.06  -0.09    -0.01  -0.02  -0.00    -0.00   0.02  -0.04
    19   6    -0.06  -0.01  -0.28     0.00  -0.01   0.03    -0.03  -0.01  -0.09
    20   6    -0.19  -0.24   0.03     0.01   0.01   0.01    -0.07  -0.10   0.02
    21   1     0.08   0.12  -0.19     0.01   0.00   0.02     0.03   0.06  -0.07
    22   1    -0.04  -0.10   0.29    -0.01   0.01  -0.03     0.01  -0.05   0.10
    23   1     0.13   0.18  -0.16    -0.00  -0.00   0.02     0.06   0.06  -0.05
    24   1     0.03   0.09  -0.26     0.00  -0.00   0.03     0.02   0.03  -0.08
    25   1    -0.13  -0.20   0.18    -0.01   0.01  -0.02    -0.04  -0.10   0.05
    26   6    -0.00  -0.01  -0.00     0.05   0.09   0.08    -0.01   0.06   0.03
    27   6    -0.02  -0.00  -0.01     0.28   0.05   0.13     0.13   0.04   0.07
    28   6    -0.01   0.01   0.01     0.12  -0.24  -0.11     0.07  -0.08  -0.03
    29   6     0.00   0.00   0.01    -0.05  -0.09  -0.07     0.01  -0.06  -0.03
    30   6     0.02   0.00   0.01    -0.26  -0.04  -0.12    -0.11  -0.04  -0.06
    31   6     0.01  -0.02  -0.01    -0.13   0.27   0.13    -0.06   0.09   0.04
    32   1     0.01   0.01   0.01    -0.08  -0.19  -0.16    -0.07  -0.06  -0.08
    33   1    -0.01  -0.00  -0.03     0.18   0.18   0.17     0.11   0.07   0.07
    34   1     0.00   0.02   0.01    -0.01  -0.24  -0.16    -0.02  -0.08  -0.07
    35   1     0.01   0.01   0.01    -0.16  -0.16  -0.16    -0.09  -0.06  -0.08
    36   1     0.00  -0.01  -0.02     0.01   0.27   0.17     0.03   0.10   0.06
    37   6    -0.03  -0.07  -0.01     0.01   0.04   0.01    -0.03  -0.00   0.02
    38   6    -0.01  -0.01   0.02     0.00   0.00   0.00    -0.03  -0.01   0.07
    39   8     0.02   0.03  -0.00    -0.00  -0.02  -0.01     0.03  -0.00  -0.03
    40   1     0.04   0.05  -0.08    -0.03  -0.03   0.06    -0.01  -0.01   0.10
    41   1    -0.03   0.02   0.15     0.01  -0.02  -0.07    -0.02  -0.01   0.13
    42   1     0.02   0.06   0.02    -0.01  -0.03  -0.00     0.01  -0.00   0.04
                     34                     35                     36
                      A                      A                      A
 Frequencies --    633.4794               699.5717               707.0670
 Red. masses --      2.1869                 5.9204                 2.0503
 Frc consts  --      0.5171                 1.7071                 0.6039
 IR Inten    --      7.7261                 5.0086                37.2632
  Atom  AN      X      Y      Z        X      Y      Z        X      Y      Z
     1   6    -0.04  -0.08  -0.01    -0.02   0.02  -0.12    -0.00   0.00  -0.00
     2  15     0.02   0.02  -0.01     0.02  -0.01  -0.08     0.01   0.00  -0.00
     3   1    -0.23  -0.62  -0.09     0.02  -0.05  -0.20     0.01   0.05   0.01
     4   6    -0.01  -0.03   0.00     0.04   0.16  -0.05     0.00   0.01  -0.01
     5   6     0.02   0.00  -0.00    -0.14   0.00   0.07    -0.01   0.00   0.01
     6   6     0.01  -0.00  -0.02    -0.10   0.01   0.12    -0.01  -0.00   0.01
     7   6    -0.00   0.02  -0.02    -0.04  -0.15   0.05     0.00  -0.01   0.01
     8   6    -0.02   0.00   0.00     0.11  -0.08  -0.03     0.01  -0.01  -0.01
     9   6    -0.00   0.00   0.02     0.08  -0.09  -0.08     0.01  -0.01  -0.00
    10   1    -0.02  -0.02   0.00     0.09   0.18  -0.01    -0.01   0.01  -0.03
    11   1     0.03   0.03   0.01    -0.08  -0.20   0.10    -0.01  -0.02  -0.00
    12   1     0.01  -0.01  -0.00     0.01   0.12   0.07    -0.02   0.00  -0.02
    13   1    -0.01  -0.01   0.01     0.11   0.08   0.00    -0.01  -0.00  -0.02
    14   1     0.02   0.02   0.02    -0.02  -0.21   0.05    -0.01  -0.02  -0.00
    15   6    -0.02  -0.00   0.00    -0.10  -0.12  -0.12    -0.05   0.04   0.01
    16   6     0.02  -0.01   0.04    -0.04  -0.04   0.17     0.08  -0.07  -0.01
    17   6     0.01   0.02   0.02    -0.00  -0.06   0.16    -0.05   0.04   0.01
    18   6     0.01   0.01   0.00     0.09   0.12   0.12     0.07  -0.06  -0.01
    19   6    -0.01  -0.00  -0.03     0.08   0.09  -0.09    -0.05   0.04   0.01
    20   6    -0.01  -0.03  -0.01     0.05   0.12  -0.10     0.08  -0.07  -0.01
    21   1    -0.02   0.03  -0.03    -0.03  -0.17  -0.14    -0.29   0.24   0.05
    22   1     0.03  -0.01   0.04     0.16   0.11   0.20    -0.03   0.03   0.01
    23   1    -0.01   0.02   0.00    -0.01  -0.15  -0.00    -0.27   0.22   0.05
    24   1    -0.02   0.02  -0.02     0.03  -0.09  -0.12    -0.26   0.23   0.04
    25   1    -0.01  -0.03   0.01     0.18   0.14   0.11    -0.04   0.03   0.00
    26   6    -0.01  -0.00  -0.00     0.11  -0.05   0.01     0.00  -0.04   0.05
    27   6    -0.01   0.00  -0.01    -0.05  -0.06  -0.05     0.02   0.05  -0.10
    28   6    -0.00   0.02   0.01    -0.06  -0.05  -0.05    -0.03  -0.04   0.04
    29   6     0.01   0.00   0.00    -0.10   0.05   0.00     0.01   0.05  -0.07
    30   6     0.01  -0.00   0.01     0.00   0.08   0.06    -0.02  -0.02   0.06
    31   6     0.01  -0.02  -0.01     0.01   0.08   0.06     0.03   0.07  -0.08
    32   1    -0.00   0.01   0.02     0.12  -0.03  -0.04    -0.10  -0.23   0.36
    33   1    -0.01  -0.01  -0.01    -0.12   0.07  -0.06    -0.05  -0.04   0.07
    34   1    -0.01   0.01   0.01     0.06  -0.03  -0.06    -0.11  -0.21   0.31
    35   1     0.00   0.00   0.01     0.07   0.03  -0.01    -0.09  -0.20   0.32
    36   1     0.01  -0.02  -0.01    -0.12   0.11  -0.02    -0.05  -0.03   0.08
    37   6     0.07   0.24   0.05     0.00   0.01   0.02    -0.00  -0.01  -0.00
    38   6     0.01   0.03   0.02    -0.03   0.00   0.08    -0.00  -0.00   0.01
    39   8    -0.03  -0.11  -0.03     0.03  -0.01  -0.02     0.00   0.00  -0.00
    40   1    -0.17  -0.16   0.40    -0.05  -0.01   0.10     0.00   0.00  -0.00
    41   1     0.09  -0.10  -0.40    -0.03  -0.01   0.05    -0.01   0.00   0.02
    42   1    -0.06  -0.21  -0.01    -0.05  -0.01   0.09     0.00   0.00   0.00
                     37                     38                     39
                      A                      A                      A
 Frequencies --    707.7144               712.3672               726.9216
 Red. masses --      2.0436                 2.2268                 5.2499
 Frc consts  --      0.6031                 0.6658                 1.6345
 IR Inten    --     54.0657                45.8621                55.6493
  Atom  AN      X      Y      Z        X      Y      Z        X      Y      Z
     1   6     0.00  -0.00   0.01    -0.00   0.01  -0.01     0.02  -0.00   0.02
     2  15    -0.01  -0.00  -0.00     0.01  -0.00  -0.01     0.15  -0.06   0.02
     3   1    -0.01  -0.02   0.01     0.01   0.02  -0.01    -0.05   0.01   0.08
     4   6     0.00  -0.01   0.01    -0.06  -0.01  -0.08    -0.01  -0.06   0.02
     5   6    -0.00  -0.01  -0.01     0.09   0.04   0.13     0.03  -0.01  -0.03
     6   6     0.01   0.00   0.00    -0.08  -0.03  -0.07     0.03  -0.01  -0.03
     7   6    -0.01   0.00  -0.01     0.09   0.03   0.12     0.00   0.04  -0.02
     8   6     0.00   0.01   0.01    -0.06  -0.03  -0.08    -0.04   0.04   0.01
     9   6    -0.01  -0.00  -0.01     0.11   0.04   0.11    -0.05   0.05   0.01
    10   1     0.03   0.01   0.04    -0.35  -0.13  -0.42     0.08  -0.03   0.10
    11   1     0.01   0.01   0.00    -0.06  -0.04  -0.05     0.09   0.09   0.06
    12   1     0.04   0.01   0.04    -0.33  -0.13  -0.39     0.07  -0.01   0.07
    13   1     0.03   0.01   0.04    -0.32  -0.14  -0.39     0.03   0.02   0.09
    14   1     0.00   0.01   0.00    -0.06  -0.04  -0.06     0.07   0.14   0.06
    15   6     0.06  -0.04  -0.01     0.01  -0.01  -0.01     0.03   0.07   0.06
    16   6    -0.08   0.07   0.01    -0.01   0.01   0.01    -0.00   0.04  -0.08
    17   6     0.06  -0.04  -0.01     0.01  -0.01   0.00    -0.01   0.04  -0.07
    18   6    -0.08   0.06   0.01    -0.01   0.01   0.01    -0.04  -0.04  -0.05
    19   6     0.06  -0.05  -0.01     0.01  -0.01  -0.00    -0.05  -0.04   0.04
    20   6    -0.08   0.07   0.02    -0.01   0.01  -0.00    -0.06  -0.05   0.05
    21   1     0.30  -0.25  -0.05     0.04  -0.04  -0.01     0.21  -0.08   0.02
    22   1     0.03  -0.03  -0.01     0.00   0.01   0.01     0.10  -0.21  -0.13
    23   1     0.28  -0.23  -0.05     0.03  -0.03  -0.01     0.17  -0.07  -0.03
    24   1     0.27  -0.24  -0.04     0.04  -0.04  -0.01     0.14  -0.10   0.03
    25   1     0.04  -0.03  -0.00     0.00   0.00   0.00     0.08  -0.23  -0.09
    26   6    -0.03  -0.02   0.05     0.01  -0.01   0.00     0.20  -0.10   0.01
    27   6     0.04   0.06  -0.08    -0.01  -0.01  -0.01    -0.14  -0.12  -0.12
    28   6    -0.01  -0.02   0.06    -0.01  -0.01  -0.00    -0.13  -0.10  -0.10
    29   6     0.03   0.04  -0.07    -0.01   0.01  -0.00    -0.17   0.08   0.00
    30   6    -0.02  -0.04   0.05    -0.00   0.01   0.01     0.00   0.16   0.10
    31   6     0.03   0.05  -0.09     0.00   0.01   0.00     0.01   0.17   0.12
    32   1    -0.13  -0.21   0.34     0.01  -0.02   0.01     0.21  -0.07  -0.02
    33   1    -0.01  -0.06   0.08    -0.02   0.00  -0.00    -0.31   0.11  -0.07
    34   1    -0.11  -0.19   0.31     0.00  -0.02   0.01     0.06  -0.08  -0.08
    35   1    -0.11  -0.19   0.30     0.00  -0.00   0.02     0.11   0.05   0.05
    36   1    -0.01  -0.06   0.07    -0.02   0.01   0.01    -0.26   0.19   0.01
    37   6    -0.00   0.01  -0.00    -0.00  -0.00   0.00    -0.01   0.01  -0.01
    38   6    -0.00   0.00   0.00    -0.00  -0.00   0.01    -0.02  -0.00   0.04
    39   8    -0.00  -0.00  -0.00     0.00   0.00  -0.00    -0.01   0.01  -0.02
    40   1    -0.00  -0.00   0.02     0.00   0.00   0.00    -0.01  -0.01   0.08
    41   1     0.00  -0.00  -0.00    -0.01   0.00   0.02    -0.01  -0.01   0.06
    42   1     0.00  -0.00  -0.00    -0.00   0.00   0.01     0.00  -0.01   0.01
                     40                     41                     42
                      A                      A                      A
 Frequencies --    731.6780               764.1419               768.3490
 Red. masses --      5.9645                 1.7165                 1.5441
 Frc consts  --      1.8813                 0.5905                 0.5371
 IR Inten    --     72.0182                50.0735                24.8422
  Atom  AN      X      Y      Z        X      Y      Z        X      Y      Z
     1   6    -0.01  -0.04  -0.01    -0.01   0.00  -0.03    -0.00  -0.00   0.00
     2  15     0.07   0.17   0.01     0.01   0.02  -0.00    -0.01   0.02   0.01
     3   1     0.00  -0.00  -0.01     0.01   0.02  -0.05     0.01   0.00  -0.01
     4   6     0.01   0.17  -0.10    -0.01   0.01  -0.02     0.03   0.02   0.03
     5   6    -0.15   0.01   0.12    -0.01  -0.00   0.01    -0.00   0.00   0.01
     6   6    -0.14  -0.00   0.09    -0.02  -0.00  -0.00     0.02   0.01   0.03
     7   6    -0.02  -0.14   0.08     0.01   0.00   0.02    -0.04  -0.02  -0.04
     8   6     0.10  -0.13  -0.07    -0.01  -0.01  -0.01     0.03   0.00   0.02
     9   6     0.13  -0.14  -0.07     0.01  -0.01  -0.01     0.01  -0.01   0.00
    10   1     0.10   0.21   0.01     0.06   0.03   0.06    -0.13  -0.04  -0.16
    11   1     0.02  -0.20   0.28     0.07   0.01   0.10    -0.16  -0.08  -0.18
    12   1     0.01   0.13   0.09     0.02   0.02   0.04    -0.06  -0.02  -0.07
    13   1     0.13   0.06  -0.00     0.02   0.02   0.03    -0.05  -0.03  -0.07
    14   1     0.10  -0.25   0.21     0.07   0.02   0.09    -0.16  -0.09  -0.18
    15   6     0.10   0.09   0.10     0.00   0.01   0.00    -0.07   0.06   0.01
    16   6     0.01   0.06  -0.14     0.00   0.00  -0.01    -0.00   0.01   0.00
    17   6     0.02   0.04  -0.13    -0.00   0.00  -0.00    -0.06   0.05   0.01
    18   6    -0.09  -0.07  -0.08    -0.00  -0.00  -0.00     0.10  -0.09  -0.02
    19   6    -0.07  -0.12   0.07    -0.01  -0.01   0.00    -0.06   0.05   0.01
    20   6    -0.10  -0.12   0.09    -0.01  -0.01   0.00    -0.01   0.01   0.00
    21   1     0.12   0.09   0.07     0.01   0.00  -0.00     0.31  -0.26  -0.05
    22   1    -0.13  -0.10  -0.17     0.01  -0.01  -0.01     0.39  -0.32  -0.07
    23   1     0.09   0.05  -0.02     0.01  -0.00   0.00     0.14  -0.12  -0.02
    24   1     0.03  -0.01   0.09     0.00  -0.00   0.01     0.13  -0.11  -0.02
    25   1    -0.20  -0.16  -0.12    -0.00  -0.02  -0.01     0.39  -0.32  -0.06
    26   6    -0.03  -0.00   0.03     0.03   0.06  -0.09    -0.01   0.01  -0.00
    27   6    -0.01   0.01   0.00    -0.00  -0.00   0.01     0.01   0.01   0.01
    28   6    -0.01  -0.01   0.03     0.03   0.05  -0.08     0.01   0.00  -0.00
    29   6     0.02   0.00  -0.02    -0.05  -0.09   0.14     0.00  -0.01   0.01
    30   6     0.00  -0.04   0.01     0.02   0.05  -0.08     0.00  -0.01  -0.01
    31   6     0.01  -0.03  -0.02     0.00  -0.00   0.00     0.00  -0.01  -0.01
    32   1     0.02   0.09  -0.08    -0.12  -0.22   0.36    -0.02  -0.00   0.02
    33   1     0.05   0.08  -0.14    -0.16  -0.29   0.47     0.01  -0.02   0.03
    34   1     0.01   0.04  -0.06    -0.05  -0.08   0.12    -0.01  -0.00   0.01
    35   1     0.02   0.03  -0.07    -0.04  -0.08   0.12    -0.01  -0.01  -0.00
    36   1     0.10   0.05  -0.15    -0.16  -0.29   0.46     0.02  -0.03   0.02
    37   6     0.00   0.02   0.00     0.01  -0.00   0.00     0.00  -0.00   0.00
    38   6    -0.00   0.01   0.01     0.00  -0.00   0.00     0.00   0.00  -0.01
    39   8    -0.00  -0.01  -0.00     0.01  -0.00   0.00     0.00  -0.00   0.00
    40   1    -0.02  -0.01   0.04    -0.00   0.00  -0.02     0.00   0.00  -0.01
    41   1     0.01  -0.01  -0.03    -0.00   0.01  -0.01     0.00   0.00  -0.02
    42   1    -0.01  -0.02   0.01    -0.01   0.00   0.02     0.00   0.00  -0.01
                     43                     44                     45
                      A                      A                      A
 Frequencies --    775.4494               871.7625               875.3994
 Red. masses --      1.6550                 1.2527                 1.2525
 Frc consts  --      0.5864                 0.5609                 0.5655
 IR Inten    --     33.7622                 0.0846                 0.8716
  Atom  AN      X      Y      Z        X      Y      Z        X      Y      Z
     1   6    -0.00   0.01  -0.01     0.00  -0.00   0.01     0.00  -0.00   0.01
     2  15    -0.03  -0.01  -0.01     0.00  -0.00  -0.00    -0.00  -0.00  -0.00
     3   1     0.02   0.02  -0.02    -0.00   0.01   0.02     0.00   0.01   0.02
     4   6    -0.06  -0.03  -0.06     0.00  -0.00   0.00     0.00   0.00   0.00
     5   6    -0.00  -0.00  -0.01    -0.00  -0.00  -0.00    -0.01  -0.00  -0.01
     6   6    -0.04  -0.02  -0.06    -0.00  -0.00  -0.00    -0.01  -0.00  -0.01
     7   6     0.09   0.04   0.11     0.00   0.00  -0.00     0.00   0.00  -0.00
     8   6    -0.05  -0.02  -0.05     0.00   0.00   0.00     0.01   0.00   0.01
     9   6    -0.01   0.00  -0.00     0.00   0.00   0.00     0.01   0.00   0.01
    10   1     0.26   0.10   0.31    -0.00  -0.00  -0.00    -0.01  -0.00  -0.01
    11   1     0.33   0.15   0.38     0.00   0.00   0.00     0.05   0.02   0.06
    12   1     0.12   0.05   0.13     0.00   0.00   0.00     0.07   0.03   0.08
    13   1     0.08   0.04   0.10    -0.00  -0.00  -0.00    -0.05  -0.03  -0.06
    14   1     0.32   0.14   0.36    -0.00  -0.00  -0.00    -0.07  -0.03  -0.08
    15   6    -0.04   0.02  -0.01    -0.00  -0.00  -0.00     0.00  -0.00  -0.00
    16   6    -0.00  -0.00   0.02     0.00  -0.00   0.00    -0.05   0.04   0.01
    17   6    -0.03   0.02   0.02     0.00  -0.00  -0.00    -0.06   0.05   0.01
    18   6     0.06  -0.05  -0.01     0.00  -0.00   0.00    -0.00   0.00  -0.00
    19   6    -0.02   0.03   0.00    -0.00   0.00   0.00     0.06  -0.05  -0.01
    20   6     0.01   0.02  -0.01    -0.00   0.00   0.00     0.06  -0.04  -0.01
    21   1     0.14  -0.13  -0.04    -0.00   0.00   0.00    -0.01   0.01  -0.00
    22   1     0.21  -0.14  -0.01    -0.02   0.02   0.00     0.36  -0.29  -0.06
    23   1     0.05  -0.05   0.00    -0.02   0.02   0.00     0.39  -0.32  -0.07
    24   1     0.05  -0.05  -0.01     0.02  -0.02  -0.00    -0.35   0.31   0.06
    25   1     0.20  -0.14  -0.02     0.02  -0.02  -0.00    -0.37   0.31   0.05
    26   6    -0.02  -0.00   0.01     0.00  -0.00   0.00     0.00  -0.00   0.00
    27   6     0.01   0.01   0.01     0.02   0.03  -0.06     0.00   0.00  -0.00
    28   6     0.01  -0.00   0.02     0.02   0.04  -0.07     0.00   0.00  -0.00
    29   6     0.02   0.01  -0.03    -0.00  -0.00   0.00    -0.00  -0.00   0.00
    30   6    -0.00  -0.02   0.01    -0.02  -0.04   0.06    -0.00  -0.00   0.00
    31   6    -0.00  -0.01  -0.01    -0.02  -0.04   0.06    -0.00  -0.00   0.00
    32   1     0.00   0.04  -0.06     0.01   0.01  -0.02     0.00   0.00  -0.00
    33   1     0.05   0.04  -0.07    -0.13  -0.24   0.38    -0.01  -0.01   0.02
    34   1     0.00   0.01  -0.01    -0.15  -0.27   0.43    -0.01  -0.01   0.02
    35   1     0.00   0.00  -0.02     0.13   0.25  -0.39     0.00   0.01  -0.02
    36   1     0.04   0.03  -0.07     0.14   0.25  -0.40     0.01   0.01  -0.02
    37   6     0.00  -0.01   0.00    -0.00  -0.00  -0.00    -0.00  -0.00   0.00
    38   6     0.00  -0.00  -0.01    -0.00  -0.00  -0.00    -0.00  -0.00  -0.00
    39   8     0.00   0.00   0.00    -0.00   0.00  -0.00    -0.00   0.00  -0.00
    40   1     0.00   0.00  -0.02     0.00  -0.00   0.00     0.00   0.00  -0.01
    41   1    -0.00   0.00  -0.01     0.00  -0.00   0.00    -0.00   0.00   0.01
    42   1    -0.00   0.00   0.00     0.00  -0.00  -0.00     0.00   0.00  -0.00
                     46                     47                     48
                      A                      A                      A
 Frequencies --    882.1103               895.9780               954.3849
 Red. masses --      1.2462                 4.9409                 1.3628
 Frc consts  --      0.5713                 2.3370                 0.7313
 IR Inten    --      0.8063               134.5899                 1.1065
  Atom  AN      X      Y      Z        X      Y      Z        X      Y      Z
     1   6    -0.00   0.00  -0.01     0.17  -0.11   0.43    -0.00  -0.00   0.02
     2  15    -0.00   0.00   0.00     0.01   0.01  -0.17     0.00   0.00  -0.01
     3   1     0.00   0.00  -0.02     0.02  -0.02   0.63    -0.01   0.01   0.04
     4   6    -0.00  -0.00  -0.00    -0.00   0.03  -0.02     0.00   0.00  -0.00
     5   6     0.04   0.02   0.05    -0.03  -0.01   0.03    -0.01  -0.00   0.00
     6   6     0.04   0.02   0.06     0.00  -0.01   0.02     0.00  -0.00   0.00
     7   6     0.00  -0.00   0.00     0.01   0.02  -0.00     0.00   0.00  -0.00
     8   6    -0.04  -0.02  -0.05     0.00  -0.01   0.00    -0.00  -0.00   0.00
     9   6    -0.05  -0.02  -0.05     0.01  -0.03  -0.02     0.00  -0.00  -0.00
    10   1     0.02   0.01   0.03     0.05   0.04   0.03     0.01   0.00  -0.00
    11   1    -0.29  -0.12  -0.35    -0.04  -0.06   0.01    -0.00  -0.01   0.01
    12   1    -0.31  -0.13  -0.37    -0.05  -0.03  -0.07    -0.00  -0.00  -0.01
    13   1     0.28   0.13   0.33     0.02  -0.01   0.02    -0.01  -0.01  -0.00
    14   1     0.33   0.14   0.38     0.07  -0.03   0.09     0.00  -0.00  -0.00
    15   6    -0.00   0.00   0.00    -0.02  -0.01  -0.02    -0.01   0.00  -0.00
    16   6    -0.01   0.01   0.00     0.01  -0.01   0.05    -0.00   0.00   0.00
    17   6    -0.01   0.01   0.00     0.01   0.00   0.01     0.01  -0.00  -0.00
    18   6     0.00   0.00   0.00    -0.01  -0.02  -0.01    -0.00   0.00  -0.00
    19   6     0.01  -0.01  -0.00     0.01   0.01   0.01     0.01  -0.01   0.00
    20   6     0.01  -0.01  -0.00     0.01   0.03  -0.02    -0.00   0.00  -0.00
    21   1     0.01  -0.01  -0.00     0.01  -0.03  -0.03     0.03  -0.03  -0.01
    22   1     0.08  -0.07  -0.02     0.02   0.03   0.06     0.01  -0.01   0.00
    23   1     0.07  -0.06  -0.01    -0.03   0.03  -0.01    -0.04   0.03   0.00
    24   1    -0.07   0.07   0.01     0.02   0.01   0.00    -0.03   0.03   0.01
    25   1    -0.07   0.06   0.01     0.07   0.00   0.01     0.01  -0.01  -0.00
    26   6    -0.00  -0.00   0.00     0.01   0.01  -0.02    -0.03  -0.05   0.07
    27   6     0.00   0.00  -0.00     0.00  -0.00  -0.00    -0.01  -0.01   0.02
    28   6     0.00   0.00  -0.00     0.00   0.00   0.01     0.03   0.05  -0.08
    29   6     0.00   0.00  -0.00    -0.01  -0.03   0.04    -0.01  -0.03   0.04
    30   6    -0.00  -0.00   0.00    -0.00   0.01   0.01     0.03   0.05  -0.08
    31   6    -0.00  -0.00   0.00    -0.00   0.02  -0.00    -0.00  -0.00   0.01
    32   1     0.00   0.00  -0.00    -0.05  -0.10   0.10     0.15   0.27  -0.44
    33   1    -0.00  -0.00   0.01    -0.00  -0.03   0.04     0.04   0.08  -0.12
    34   1    -0.00  -0.01   0.01     0.03   0.07  -0.10    -0.16  -0.28   0.45
    35   1     0.00   0.00  -0.01     0.02   0.04  -0.05    -0.16  -0.30   0.47
    36   1     0.01   0.01  -0.01    -0.06  -0.04   0.09     0.02   0.04  -0.06
    37   6    -0.00   0.00   0.00    -0.02   0.01  -0.05    -0.00   0.00   0.00
    38   6     0.00   0.00  -0.00    -0.04   0.01  -0.02    -0.00  -0.00  -0.01
    39   8     0.00  -0.00   0.00    -0.13   0.05  -0.03    -0.00   0.00   0.00
    40   1    -0.00   0.00  -0.00     0.06  -0.03   0.22     0.01   0.00  -0.00
    41   1    -0.00   0.00  -0.01     0.04  -0.07   0.22     0.00  -0.00   0.01
    42   1    -0.00  -0.00   0.00     0.17  -0.01  -0.26     0.01   0.00  -0.02
                     49                     50                     51
                      A                      A                      A
 Frequencies --    959.8061               968.0473               973.0780
 Red. masses --      1.3407                 1.3382                 4.7730
 Frc consts  --      0.7277                 0.7389                 2.6628
 IR Inten    --      0.1391                 0.9478                23.7972
  Atom  AN      X      Y      Z        X      Y      Z        X      Y      Z
     1   6    -0.01   0.00   0.01     0.02  -0.00  -0.00     0.31  -0.09  -0.12
     2  15    -0.00   0.00  -0.00    -0.00  -0.00  -0.00    -0.04   0.01   0.07
     3   1    -0.00   0.00   0.01     0.02  -0.00  -0.00     0.41  -0.10  -0.22
     4   6     0.01   0.00   0.01     0.05   0.02   0.07    -0.02  -0.03   0.01
     5   6     0.00   0.00   0.01     0.02   0.01   0.02     0.01   0.01  -0.02
     6   6    -0.01  -0.00  -0.01    -0.06  -0.02  -0.07     0.00   0.02   0.01
     7   6     0.00   0.00   0.00     0.03   0.01   0.04    -0.01  -0.02   0.01
     8   6    -0.01  -0.00  -0.01    -0.05  -0.02  -0.07     0.02   0.01  -0.01
     9   6     0.00  -0.00  -0.00     0.00   0.00   0.00    -0.01   0.01   0.01
    10   1    -0.03  -0.01  -0.04    -0.33  -0.14  -0.37     0.02   0.01   0.08
    11   1    -0.03  -0.01  -0.03    -0.13  -0.05  -0.16     0.04   0.04   0.01
    12   1     0.04   0.02   0.04     0.37   0.16   0.45    -0.07  -0.02  -0.06
    13   1     0.03   0.01   0.04     0.33   0.16   0.39    -0.03   0.04  -0.07
    14   1     0.01   0.00   0.01    -0.02  -0.01  -0.02    -0.02  -0.00   0.00
    15   6     0.07  -0.06  -0.01    -0.01   0.00  -0.00     0.01  -0.00   0.01
    16   6     0.02  -0.02   0.00     0.00  -0.00   0.00    -0.00   0.00  -0.02
    17   6    -0.08   0.06   0.01     0.01  -0.00  -0.00    -0.01   0.01  -0.00
    18   6     0.03  -0.03  -0.01    -0.00  -0.00  -0.00     0.02  -0.01   0.01
    19   6    -0.07   0.06   0.01     0.01  -0.01   0.00    -0.01   0.01  -0.01
    20   6     0.01  -0.01  -0.00    -0.00   0.00  -0.00     0.00  -0.01   0.00
    21   1    -0.39   0.33   0.07     0.04  -0.04  -0.01    -0.04   0.03   0.03
    22   1    -0.14   0.11   0.03     0.00   0.00   0.00    -0.01  -0.02  -0.02
    23   1     0.44  -0.36  -0.08    -0.04   0.04   0.01     0.05  -0.04  -0.01
    24   1     0.41  -0.37  -0.07    -0.05   0.04   0.01     0.03  -0.06  -0.02
    25   1    -0.07   0.07   0.01     0.02  -0.02  -0.00    -0.02   0.01   0.01
    26   6    -0.00  -0.00   0.01    -0.00   0.00  -0.00    -0.02   0.01   0.01
    27   6     0.00  -0.00   0.00     0.00   0.00   0.00     0.02   0.01   0.01
    28   6     0.00   0.00  -0.01     0.00   0.00  -0.00     0.01  -0.01  -0.02
    29   6    -0.00  -0.00   0.00    -0.00   0.00   0.00    -0.02   0.00   0.01
    30   6     0.00   0.00  -0.01     0.00   0.00   0.00     0.02   0.01   0.00
    31   6     0.00  -0.00  -0.00    -0.00  -0.00  -0.00     0.00  -0.02  -0.01
    32   1     0.01   0.03  -0.04    -0.00   0.00  -0.00    -0.01   0.04  -0.04
    33   1     0.00   0.01  -0.01     0.01  -0.00   0.00     0.02   0.00   0.01
    34   1    -0.01  -0.03   0.04    -0.00  -0.00   0.00    -0.01  -0.04   0.04
    35   1    -0.02  -0.02   0.04     0.00  -0.00   0.00    -0.01  -0.01   0.06
    36   1     0.00  -0.00  -0.00    -0.00  -0.00  -0.00     0.02  -0.02  -0.02
    37   6    -0.01  -0.00   0.01     0.00  -0.00  -0.01     0.09   0.02  -0.24
    38   6     0.00   0.00  -0.01    -0.00   0.00   0.01    -0.07  -0.02   0.25
    39   8     0.00  -0.00   0.00    -0.01   0.00  -0.00    -0.17   0.07  -0.10
    40   1     0.00  -0.00   0.01    -0.01  -0.00   0.02    -0.12  -0.03   0.23
    41   1     0.01  -0.01  -0.01    -0.00  -0.00   0.01    -0.12   0.02   0.27
    42   1     0.01  -0.00  -0.03    -0.00  -0.00   0.01    -0.22  -0.00   0.45
                     52                     53                     54
                      A                      A                      A
 Frequencies --   1001.6332              1009.5629              1011.4456
 Red. masses --      1.5405                 1.4018                 3.1527
 Frc consts  --      0.9106                 0.8418                 1.9003
 IR Inten    --     51.0969                 0.0382                 1.1633
  Atom  AN      X      Y      Z        X      Y      Z        X      Y      Z
     1   6    -0.06   0.02   0.04     0.00  -0.00  -0.00    -0.02   0.00   0.01
     2  15     0.00   0.00  -0.01    -0.00   0.00   0.00     0.01   0.01  -0.00
     3   1    -0.29   0.06   0.27     0.01  -0.01  -0.01    -0.06   0.00   0.04
     4   6     0.01   0.04  -0.02     0.00   0.01  -0.01    -0.02  -0.12   0.06
     5   6    -0.01   0.00   0.02    -0.00   0.00   0.01     0.01  -0.01  -0.06
     6   6     0.02  -0.04  -0.02     0.01  -0.01  -0.01    -0.08   0.12   0.07
     7   6    -0.00   0.01  -0.01     0.00   0.00  -0.00    -0.01  -0.03   0.01
     8   6    -0.03  -0.00   0.04    -0.01  -0.00   0.01     0.10  -0.00  -0.14
     9   6     0.00  -0.02  -0.02     0.00  -0.00  -0.00    -0.00   0.04   0.04
    10   1     0.00   0.04  -0.02     0.00   0.01  -0.00    -0.04  -0.13   0.05
    11   1    -0.05  -0.01  -0.04    -0.02  -0.00  -0.01     0.17   0.02   0.14
    12   1     0.07  -0.01   0.02     0.02  -0.01   0.01    -0.24   0.05  -0.08
    13   1    -0.07  -0.03  -0.01    -0.02  -0.01  -0.00     0.26   0.07   0.05
    14   1     0.06   0.01   0.04     0.01   0.00   0.01    -0.18  -0.06  -0.11
    15   6    -0.02  -0.02  -0.02    -0.00  -0.00  -0.00    -0.08  -0.09  -0.09
    16   6     0.00  -0.01   0.02     0.00  -0.00   0.00    -0.05   0.02   0.07
    17   6     0.01   0.03  -0.02    -0.00   0.01  -0.00     0.13   0.10  -0.09
    18   6    -0.01  -0.01  -0.01    -0.00  -0.00  -0.00    -0.03  -0.03  -0.03
    19   6     0.00  -0.01   0.03     0.00  -0.00   0.00    -0.06  -0.00   0.18
    20   6     0.00   0.02  -0.01    -0.00   0.00  -0.00     0.08   0.00  -0.04
    21   1    -0.03  -0.01  -0.01    -0.00   0.00  -0.00    -0.12  -0.06  -0.09
    22   1    -0.03   0.01   0.02    -0.02   0.02   0.01     0.22  -0.26   0.01
    23   1     0.04   0.00  -0.03     0.02  -0.01  -0.01    -0.14   0.30  -0.09
    24   1    -0.02  -0.00   0.03    -0.02   0.01   0.01     0.23  -0.29   0.14
    25   1     0.03  -0.01  -0.02     0.02  -0.02  -0.01    -0.23   0.23  -0.05
    26   6     0.01  -0.00  -0.00     0.01  -0.01   0.00     0.01  -0.00   0.00
    27   6    -0.00  -0.00   0.00     0.02   0.04  -0.08    -0.00   0.00  -0.01
    28   6     0.00   0.01   0.00    -0.02  -0.03   0.08    -0.00   0.00   0.01
    29   6     0.00  -0.00  -0.00     0.00  -0.00   0.00     0.00  -0.00   0.00
    30   6    -0.01  -0.00  -0.00     0.01   0.04  -0.08    -0.01  -0.00  -0.01
    31   6     0.00   0.00  -0.00    -0.03  -0.04   0.08    -0.00  -0.00   0.01
    32   1     0.00  -0.01   0.00     0.01   0.00  -0.01     0.01   0.00   0.00
    33   1     0.01   0.01  -0.02    -0.14  -0.27   0.41    -0.02  -0.03   0.03
    34   1    -0.00   0.00   0.01     0.13   0.24  -0.36     0.01   0.03  -0.03
    35   1     0.00   0.00  -0.02    -0.15  -0.26   0.39    -0.02  -0.03   0.04
    36   1    -0.01  -0.01   0.02     0.15   0.26  -0.40     0.02   0.03  -0.03
    37   6     0.03  -0.01  -0.03     0.00  -0.00  -0.00    -0.00   0.00   0.00
    38   6     0.12  -0.05   0.08     0.00   0.00   0.00     0.02  -0.01   0.00
    39   8    -0.02   0.01  -0.05    -0.00   0.00  -0.00     0.00  -0.00  -0.00
    40   1    -0.09   0.02  -0.36    -0.00  -0.00   0.00    -0.01   0.00  -0.06
    41   1    -0.06   0.14  -0.31     0.00  -0.00  -0.00    -0.01   0.02  -0.04
    42   1    -0.34   0.00   0.62    -0.00  -0.00   0.00    -0.04   0.00   0.07
                     55                     56                     57
                      A                      A                      A
 Frequencies --   1011.9523              1012.7309              1014.4672
 Red. masses --      1.7084                 4.7774                 3.9593
 Frc consts  --      1.0308                 2.8869                 2.4007
 IR Inten    --      0.2488                 5.7150                 6.7872
  Atom  AN      X      Y      Z        X      Y      Z        X      Y      Z
     1   6    -0.00  -0.00   0.00    -0.00  -0.00   0.03     0.05  -0.01  -0.06
     2  15     0.00   0.00  -0.00    -0.01   0.01  -0.01    -0.01   0.00   0.03
     3   1    -0.01   0.01   0.01    -0.05   0.02   0.08     0.18  -0.04  -0.19
     4   6    -0.01  -0.07   0.03    -0.01  -0.06   0.04     0.01   0.11  -0.06
     5   6     0.01  -0.00  -0.02     0.00  -0.01  -0.03    -0.00   0.01   0.06
     6   6    -0.05   0.07   0.03    -0.04   0.06   0.03     0.07  -0.11  -0.07
     7   6    -0.00  -0.02   0.01     0.00  -0.01   0.01    -0.00   0.03  -0.02
     8   6     0.06   0.00  -0.06     0.05  -0.00  -0.07    -0.08   0.00   0.13
     9   6    -0.01   0.02   0.02    -0.00   0.02   0.02     0.00  -0.04  -0.04
    10   1     0.00  -0.07   0.05    -0.04  -0.07   0.01     0.05   0.13  -0.02
    11   1     0.05  -0.00   0.02     0.09   0.02   0.07    -0.18  -0.03  -0.16
    12   1    -0.10   0.04  -0.02    -0.10   0.03  -0.01     0.22  -0.05   0.09
    13   1     0.09   0.02  -0.03     0.14   0.04   0.04    -0.27  -0.08  -0.09
    14   1    -0.06  -0.01  -0.02    -0.08  -0.03  -0.04     0.17   0.06   0.12
    15   6    -0.02  -0.02  -0.02     0.08   0.08   0.09    -0.09  -0.09  -0.09
    16   6     0.07  -0.06  -0.00    -0.03   0.04  -0.04    -0.00  -0.02   0.05
    17   6    -0.05   0.07  -0.00    -0.06  -0.14   0.07     0.09   0.13  -0.08
    18   6    -0.01  -0.01  -0.01     0.03   0.02   0.02    -0.02  -0.03  -0.03
    19   6     0.07  -0.06   0.02    -0.03   0.07  -0.15    -0.00  -0.04   0.17
    20   6    -0.07   0.06   0.01     0.01  -0.06   0.02     0.02   0.04  -0.03
    21   1    -0.02  -0.01  -0.03     0.08   0.08   0.09    -0.10  -0.08  -0.09
    22   1    -0.35   0.30   0.07     0.18  -0.09  -0.07    -0.05  -0.04   0.04
    23   1     0.35  -0.25  -0.08    -0.21   0.00   0.13     0.10   0.11  -0.11
    24   1    -0.35   0.32   0.09     0.19  -0.11  -0.19    -0.04  -0.04   0.18
    25   1     0.37  -0.31  -0.06    -0.18   0.12   0.09     0.03   0.00  -0.07
    26   6     0.03  -0.02   0.00     0.22  -0.11   0.00     0.14  -0.07   0.00
    27   6    -0.01  -0.01  -0.00    -0.06  -0.04  -0.04    -0.04  -0.04  -0.01
    28   6    -0.00   0.04   0.02    -0.02   0.24   0.14    -0.01   0.15   0.08
    29   6     0.01  -0.01   0.00     0.06  -0.04   0.00     0.04  -0.02  -0.01
    30   6    -0.03  -0.02  -0.02    -0.20  -0.13  -0.15    -0.13  -0.09  -0.08
    31   6     0.00   0.01   0.00     0.00   0.08   0.04     0.01   0.05   0.02
    32   1     0.03  -0.02   0.00     0.22  -0.12  -0.00     0.14  -0.07   0.02
    33   1     0.00  -0.00  -0.02    -0.00  -0.07  -0.08     0.01  -0.00  -0.12
    34   1    -0.00   0.03   0.04     0.01   0.23   0.18    -0.01   0.11   0.16
    35   1    -0.03  -0.02  -0.03    -0.17  -0.18  -0.17    -0.09  -0.05  -0.18
    36   1     0.01   0.00   0.02     0.05   0.06   0.08     0.02  -0.00   0.10
    37   6     0.00   0.01   0.00     0.00  -0.01  -0.02     0.00   0.01  -0.00
    38   6     0.00  -0.01   0.00     0.03  -0.01   0.03    -0.07   0.02  -0.02
    39   8    -0.00   0.00  -0.00    -0.01   0.01  -0.02    -0.00  -0.00   0.02
    40   1     0.01   0.01  -0.04    -0.04  -0.00  -0.07     0.04  -0.01   0.19
    41   1    -0.01   0.01   0.01    -0.01   0.03  -0.10     0.02  -0.06   0.18
    42   1    -0.01   0.01   0.02    -0.09  -0.01   0.17     0.14   0.00  -0.25
                     58                     59                     60
                      A                      A                      A
 Frequencies --   1018.8158              1031.6623              1037.4700
 Red. masses --      1.5899                 1.3170                 1.3119
 Frc consts  --      0.9723                 0.8259                 0.8320
 IR Inten    --      0.7377                 0.0387                 0.2260
  Atom  AN      X      Y      Z        X      Y      Z        X      Y      Z
     1   6     0.01   0.00  -0.01     0.00  -0.00   0.00     0.00   0.00   0.00
     2  15    -0.00  -0.00   0.00     0.00   0.00  -0.00    -0.00   0.00   0.00
     3   1     0.01  -0.00  -0.01    -0.00   0.00   0.00    -0.00  -0.00  -0.00
     4   6     0.02   0.07  -0.01     0.00  -0.00   0.00    -0.00  -0.00  -0.00
     5   6    -0.07  -0.02  -0.05    -0.00  -0.00   0.00     0.00   0.00   0.00
     6   6     0.10  -0.04   0.03    -0.00   0.00   0.00     0.00   0.00   0.00
     7   6     0.01   0.02  -0.00     0.00   0.00  -0.00    -0.00   0.00  -0.00
     8   6    -0.12  -0.03  -0.02     0.00   0.00  -0.00    -0.00  -0.00  -0.00
     9   6     0.06   0.00   0.05     0.00  -0.00  -0.00     0.00   0.00   0.00
    10   1    -0.08   0.04  -0.13    -0.00  -0.00  -0.00     0.02   0.01   0.03
    11   1     0.29   0.15   0.37     0.00   0.00   0.00    -0.01  -0.00  -0.01
    12   1    -0.21  -0.17  -0.34     0.00   0.00  -0.00    -0.00  -0.00  -0.00
    13   1     0.27   0.16   0.46    -0.00  -0.00  -0.00     0.01   0.00   0.01
    14   1    -0.24  -0.12  -0.31     0.00   0.00   0.00    -0.02  -0.01  -0.02
    15   6    -0.00  -0.01  -0.00     0.00  -0.00   0.00    -0.09   0.07   0.02
    16   6     0.01  -0.01   0.00    -0.00   0.00   0.00     0.06  -0.05  -0.01
    17   6    -0.00   0.01  -0.00    -0.00  -0.00   0.00    -0.02   0.02   0.00
    18   6    -0.00  -0.00  -0.00     0.00  -0.00  -0.00    -0.00   0.00  -0.00
    19   6     0.01  -0.01   0.01     0.00   0.00  -0.00    -0.02   0.01   0.01
    20   6    -0.01   0.01  -0.00    -0.00   0.00  -0.00     0.06  -0.05  -0.01
    21   1    -0.02   0.01  -0.00    -0.01   0.01   0.00     0.50  -0.42  -0.08
    22   1    -0.03   0.02   0.01     0.01  -0.00  -0.00    -0.38   0.30   0.07
    23   1     0.05  -0.03  -0.02    -0.00  -0.00   0.00     0.15  -0.13  -0.04
    24   1    -0.04   0.03   0.01     0.00   0.00  -0.00     0.14  -0.14  -0.02
    25   1     0.04  -0.03  -0.01     0.00  -0.00  -0.00    -0.35   0.30   0.04
    26   6     0.01  -0.00  -0.00     0.03   0.06  -0.09     0.00   0.00  -0.00
    27   6    -0.00  -0.00  -0.00    -0.02  -0.04   0.07     0.00   0.00   0.00
    28   6    -0.00   0.01   0.00     0.01   0.01  -0.03    -0.00  -0.00  -0.00
    29   6     0.00  -0.00  -0.00     0.00   0.00  -0.00    -0.00   0.00   0.00
    30   6    -0.01  -0.00  -0.00     0.01   0.02  -0.02    -0.00   0.00  -0.00
    31   6     0.00   0.00   0.00    -0.02  -0.04   0.07    -0.00  -0.00   0.00
    32   1     0.01  -0.01   0.00    -0.17  -0.31   0.52    -0.00  -0.00   0.01
    33   1     0.00   0.00  -0.01     0.13   0.25  -0.40     0.00   0.01  -0.00
    34   1    -0.00   0.00   0.01    -0.05  -0.11   0.17    -0.00  -0.00   0.00
    35   1    -0.00   0.00  -0.01    -0.06  -0.11   0.18    -0.01   0.00   0.01
    36   1     0.00   0.00   0.01     0.15   0.25  -0.40     0.00   0.00  -0.01
    37   6    -0.00  -0.01  -0.00     0.00   0.00   0.00    -0.00  -0.01  -0.00
    38   6    -0.00   0.01   0.00    -0.00  -0.00  -0.00     0.00   0.01   0.00
    39   8    -0.00   0.00   0.00    -0.00  -0.00   0.00     0.00   0.00   0.00
    40   1    -0.01  -0.01   0.03     0.00   0.00  -0.00    -0.02  -0.01   0.03
    41   1     0.01  -0.01  -0.01    -0.00   0.00   0.01     0.02  -0.01  -0.04
    42   1    -0.00  -0.01  -0.00     0.00   0.00  -0.00    -0.01  -0.02   0.00
                     61                     62                     63
                      A                      A                      A
 Frequencies --   1039.2337              1042.2536              1060.9587
 Red. masses --      1.3121                 1.7624                 2.5829
 Frc consts  --      0.8349                 1.1280                 1.7130
 IR Inten    --      0.0739                 7.8753                 1.5710
  Atom  AN      X      Y      Z        X      Y      Z        X      Y      Z
     1   6     0.00   0.00   0.00    -0.02  -0.03  -0.01    -0.00  -0.00  -0.01
     2  15    -0.00   0.00  -0.00    -0.00  -0.00  -0.00     0.01   0.01   0.01
     3   1    -0.00  -0.00   0.00    -0.01   0.02   0.01     0.01   0.00  -0.01
     4   6    -0.07  -0.02  -0.08    -0.01  -0.00  -0.01    -0.00  -0.00   0.00
     5   6     0.05   0.02   0.05     0.00   0.00   0.01    -0.00   0.00   0.00
     6   6    -0.01  -0.01  -0.02     0.00  -0.01  -0.00     0.00   0.00   0.00
     7   6    -0.00  -0.00  -0.00     0.00   0.00   0.00     0.00   0.00  -0.00
     8   6    -0.03  -0.01  -0.03    -0.01  -0.00  -0.00     0.00   0.00  -0.00
     9   6     0.05   0.02   0.07     0.01  -0.00   0.01     0.00  -0.01  -0.00
    10   1     0.40   0.17   0.47     0.05   0.03   0.07    -0.01  -0.00   0.00
    11   1    -0.27  -0.11  -0.33    -0.04  -0.00  -0.04    -0.01   0.01   0.00
    12   1     0.11   0.04   0.13     0.02   0.00   0.01     0.00   0.00   0.00
    13   1     0.16   0.08   0.20     0.03   0.04   0.06    -0.00   0.01  -0.01
    14   1    -0.33  -0.14  -0.36    -0.05  -0.03  -0.07     0.01  -0.00  -0.00
    15   6     0.01  -0.00   0.00    -0.01   0.01  -0.00     0.10   0.10   0.11
    16   6    -0.00   0.00   0.00     0.00  -0.00  -0.00    -0.04  -0.09   0.19
    17   6     0.00  -0.00   0.00    -0.00  -0.00   0.00    -0.03  -0.03  -0.05
    18   6    -0.00  -0.00  -0.00     0.00   0.00  -0.00    -0.05  -0.04  -0.04
    19   6     0.00  -0.00  -0.00    -0.00   0.01  -0.00    -0.04  -0.05  -0.04
    20   6    -0.00   0.00   0.00     0.00  -0.01   0.00     0.09   0.14  -0.14
    21   1    -0.03   0.03   0.01     0.04  -0.03  -0.01     0.10   0.11   0.14
    22   1     0.03  -0.02  -0.00    -0.01   0.03   0.00    -0.30  -0.39   0.15
    23   1    -0.02   0.01   0.00     0.00  -0.01   0.01    -0.14  -0.09  -0.30
    24   1    -0.01   0.01  -0.00     0.06  -0.01  -0.01    -0.30  -0.26  -0.08
    25   1     0.02  -0.02  -0.00    -0.05   0.03   0.01     0.00   0.03  -0.50
    26   6     0.00   0.00  -0.00     0.00  -0.00   0.00    -0.02   0.01   0.00
    27   6     0.00  -0.00   0.00     0.00   0.00  -0.00    -0.02  -0.02  -0.02
    28   6    -0.00   0.00  -0.00    -0.00   0.00   0.00     0.01  -0.00   0.00
    29   6    -0.00  -0.00   0.00     0.00   0.00  -0.00     0.01  -0.00   0.00
    30   6     0.00   0.00  -0.00    -0.00  -0.00   0.00     0.00  -0.01  -0.00
    31   6    -0.00  -0.00   0.00    -0.00  -0.00  -0.00     0.00   0.02   0.01
    32   1    -0.00  -0.00   0.00     0.00  -0.00  -0.01    -0.01   0.02   0.00
    33   1     0.00   0.00  -0.00    -0.00  -0.00   0.01     0.01  -0.04  -0.03
    34   1    -0.00  -0.00   0.00    -0.00   0.01  -0.01     0.04  -0.01   0.01
    35   1    -0.00  -0.00   0.00    -0.00   0.00  -0.00     0.02  -0.02  -0.01
    36   1    -0.00   0.00  -0.00    -0.00  -0.00  -0.00     0.04   0.02   0.03
    37   6    -0.01  -0.02  -0.00     0.06   0.18   0.03     0.00   0.01  -0.00
    38   6     0.01   0.02   0.00    -0.05  -0.16  -0.03    -0.01  -0.00  -0.00
    39   8     0.00   0.00   0.00    -0.01  -0.03  -0.00     0.00  -0.00   0.00
    40   1    -0.04  -0.02   0.05     0.33   0.16  -0.50     0.01   0.01  -0.01
    41   1     0.03  -0.01  -0.07    -0.24   0.13   0.56    -0.01   0.00   0.03
    42   1    -0.01  -0.04   0.00     0.10   0.32   0.04     0.01   0.01  -0.01
                     64                     65                     66
                      A                      A                      A
 Frequencies --   1063.3590              1064.1460              1114.4801
 Red. masses --      2.7006                 2.7421                 1.5317
 Frc consts  --      1.7992                 1.8295                 1.1209
 IR Inten    --      1.8960                 1.8200                 3.4211
  Atom  AN      X      Y      Z        X      Y      Z        X      Y      Z
     1   6     0.00   0.00  -0.00    -0.00  -0.00   0.01    -0.00  -0.00  -0.00
     2  15    -0.02   0.00   0.00     0.00   0.02  -0.01    -0.00   0.00  -0.01
     3   1     0.02  -0.01  -0.02     0.00  -0.00   0.01    -0.02  -0.01   0.01
     4   6    -0.01  -0.03   0.01     0.03   0.16  -0.07     0.01  -0.00  -0.01
     5   6    -0.03   0.01   0.03     0.17  -0.04  -0.14    -0.01  -0.01   0.01
     6   6     0.01   0.01  -0.01    -0.03  -0.05   0.04    -0.01   0.02  -0.00
     7   6     0.00   0.02  -0.01    -0.01  -0.09   0.04     0.01   0.01  -0.01
     8   6    -0.00   0.01  -0.00     0.01  -0.07   0.02    -0.01  -0.02   0.01
     9   6     0.03  -0.03  -0.02    -0.16   0.12   0.09    -0.01   0.01   0.00
    10   1    -0.01  -0.03   0.03     0.02   0.17  -0.10     0.08  -0.04  -0.06
    11   1    -0.06   0.08   0.01     0.30  -0.41  -0.10     0.01  -0.09   0.02
    12   1     0.03   0.04  -0.03    -0.16  -0.23   0.22     0.02   0.06  -0.04
    13   1    -0.01   0.07  -0.01     0.08  -0.31   0.05     0.03  -0.10   0.03
    14   1     0.07   0.01  -0.07    -0.36  -0.09   0.37    -0.00   0.02  -0.01
    15   6    -0.01  -0.01  -0.01     0.00   0.00  -0.00    -0.02  -0.04   0.05
    16   6     0.01   0.01  -0.02     0.00  -0.00   0.00    -0.02  -0.00  -0.09
    17   6     0.00   0.00   0.01    -0.00  -0.00  -0.00     0.07   0.09   0.02
    18   6     0.00   0.00   0.00     0.00   0.00   0.00     0.00  -0.01   0.05
    19   6     0.00   0.01   0.00    -0.00   0.00   0.00    -0.04  -0.04  -0.08
    20   6    -0.01  -0.02   0.02    -0.00  -0.00  -0.00     0.04   0.05   0.00
    21   1    -0.01  -0.02  -0.02     0.01   0.01  -0.01    -0.15  -0.27   0.39
    22   1     0.03   0.05  -0.02    -0.00   0.01   0.00    -0.20  -0.21  -0.13
    23   1     0.02   0.01   0.04     0.00  -0.01  -0.02     0.20   0.16   0.33
    24   1     0.04   0.03   0.01     0.01  -0.00   0.00    -0.36  -0.36  -0.14
    25   1    -0.00   0.00   0.07    -0.01  -0.00  -0.01     0.15   0.12   0.26
    26   6    -0.16   0.08   0.00    -0.03   0.02   0.00    -0.00  -0.00  -0.00
    27   6    -0.12  -0.14  -0.13    -0.02  -0.03  -0.02     0.01   0.00   0.00
    28   6     0.07  -0.02   0.01     0.02  -0.00   0.00    -0.01   0.01   0.00
    29   6     0.08  -0.04   0.01     0.01  -0.01   0.00    -0.00  -0.00  -0.00
    30   6     0.06  -0.05  -0.01     0.01  -0.01  -0.00     0.01  -0.00   0.00
    31   6     0.03   0.18   0.12     0.01   0.03   0.02    -0.00   0.01   0.00
    32   1    -0.17   0.11   0.01    -0.03   0.02   0.01    -0.02  -0.04  -0.03
    33   1     0.10  -0.43  -0.24     0.02  -0.08  -0.05     0.02  -0.02  -0.00
    34   1     0.35  -0.04   0.11     0.07  -0.01   0.03    -0.04   0.01  -0.01
    35   1     0.22  -0.23  -0.08     0.04  -0.05  -0.01     0.03  -0.03  -0.00
    36   1     0.40   0.17   0.27     0.09   0.03   0.05    -0.02   0.01  -0.00
    37   6     0.00  -0.00  -0.00     0.00   0.01   0.00     0.01   0.00   0.00
    38   6     0.00  -0.00   0.00     0.00  -0.01  -0.00    -0.00  -0.00  -0.00
    39   8    -0.00   0.00  -0.00    -0.00   0.00  -0.00     0.00  -0.00   0.00
    40   1    -0.00  -0.00  -0.00     0.01   0.01  -0.02     0.01   0.00   0.00
    41   1    -0.00   0.00  -0.00    -0.01   0.01   0.01    -0.00  -0.00   0.02
    42   1    -0.00  -0.00   0.01    -0.00   0.01   0.01     0.01   0.01  -0.01
                     67                     68                     69
                      A                      A                      A
 Frequencies --   1117.9144              1120.8394              1138.3053
 Red. masses --      1.5582                 1.5745                 2.8741
 Frc consts  --      1.1473                 1.1654                 2.1942
 IR Inten    --      3.2513                 1.5982                61.5930
  Atom  AN      X      Y      Z        X      Y      Z        X      Y      Z
     1   6     0.00   0.00   0.01     0.01  -0.00   0.00    -0.01   0.00   0.02
     2  15     0.00  -0.00  -0.01    -0.00   0.00   0.01    -0.02  -0.02  -0.04
     3   1    -0.00  -0.00   0.00     0.06  -0.02  -0.05     0.02  -0.01  -0.01
     4   6    -0.00  -0.00   0.00     0.06  -0.03  -0.04    -0.00  -0.01   0.00
     5   6     0.00   0.00  -0.00    -0.05  -0.03   0.05     0.01   0.01  -0.01
     6   6     0.00  -0.00  -0.00    -0.02   0.11  -0.02     0.01  -0.01  -0.00
     7   6    -0.00  -0.00   0.01     0.04  -0.03  -0.03    -0.01  -0.04   0.02
     8   6    -0.00   0.00  -0.00    -0.05  -0.08   0.06    -0.01   0.00   0.00
     9   6     0.00  -0.00  -0.00    -0.03   0.08   0.01     0.00   0.01  -0.00
    10   1    -0.01   0.00   0.01     0.43  -0.21  -0.29    -0.02   0.00   0.01
    11   1    -0.00   0.02  -0.00     0.01  -0.29   0.09    -0.02   0.09  -0.02
    12   1     0.01  -0.00  -0.00     0.17   0.35  -0.27     0.03   0.01  -0.02
    13   1    -0.00   0.02   0.00     0.06  -0.40   0.14    -0.02   0.06   0.00
    14   1     0.00   0.00  -0.00     0.08   0.24  -0.18     0.03   0.05  -0.05
    15   6    -0.00  -0.01   0.00     0.01   0.01  -0.01     0.02   0.02   0.01
    16   6     0.00   0.00  -0.00     0.00  -0.00   0.02    -0.04  -0.02  -0.09
    17   6     0.01   0.00   0.01    -0.01  -0.02  -0.01     0.02   0.04  -0.04
    18   6    -0.01  -0.01  -0.01     0.00   0.00  -0.01     0.21   0.19   0.20
    19   6    -0.00  -0.00  -0.02     0.01   0.01   0.02    -0.00  -0.02   0.08
    20   6     0.01   0.01   0.00    -0.01  -0.01  -0.00    -0.08  -0.09  -0.01
    21   1    -0.02  -0.03   0.04     0.03   0.05  -0.08     0.04   0.06  -0.04
    22   1     0.00   0.00  -0.00     0.03   0.03   0.02    -0.23  -0.26  -0.14
    23   1     0.02   0.03   0.07    -0.04  -0.03  -0.07    -0.13  -0.07  -0.49
    24   1    -0.02  -0.01  -0.02     0.06   0.06   0.03    -0.28  -0.33   0.05
    25   1     0.03   0.03   0.06    -0.03  -0.03  -0.06    -0.20  -0.19  -0.36
    26   6     0.03   0.06   0.05    -0.00   0.00   0.00     0.00   0.01   0.00
    27   6    -0.06  -0.01  -0.03     0.00  -0.00  -0.00    -0.00  -0.00  -0.00
    28   6     0.08  -0.07  -0.02     0.00   0.00   0.00     0.01  -0.00  -0.00
    29   6     0.00   0.05   0.03    -0.01   0.01  -0.00    -0.01   0.01   0.00
    30   6    -0.11   0.01  -0.03    -0.01  -0.00  -0.00    -0.01   0.00  -0.00
    31   6     0.03  -0.07  -0.04     0.01  -0.01  -0.00     0.01  -0.01  -0.00
    32   1     0.22   0.46   0.34     0.01   0.02   0.01     0.02   0.05   0.03
    33   1    -0.22   0.16   0.04     0.01  -0.02  -0.00    -0.01   0.00  -0.00
    34   1     0.45  -0.09   0.10     0.04   0.00   0.01     0.06  -0.01   0.02
    35   1    -0.33   0.26   0.06    -0.00  -0.00  -0.01    -0.03   0.02   0.01
    36   1     0.26  -0.09   0.05     0.04  -0.01   0.01     0.05  -0.01   0.01
    37   6     0.00   0.00   0.00    -0.00   0.00   0.00    -0.00   0.00   0.01
    38   6     0.00  -0.00  -0.00     0.00  -0.00   0.00     0.00  -0.00  -0.00
    39   8    -0.00   0.00  -0.00    -0.01   0.00  -0.01    -0.00   0.00  -0.00
    40   1     0.00   0.00  -0.00    -0.00   0.00  -0.01     0.00   0.00  -0.02
    41   1    -0.00   0.00   0.00    -0.00   0.01  -0.01    -0.00   0.00  -0.01
    42   1    -0.00   0.00   0.00    -0.01   0.00   0.01     0.00   0.00   0.00
                     70                     71                     72
                      A                      A                      A
 Frequencies --   1145.6337              1146.3487              1176.0690
 Red. masses --      2.8320                 2.8408                 1.4042
 Frc consts  --      2.1900                 2.1995                 1.1443
 IR Inten    --     66.6265                61.9698                47.1520
  Atom  AN      X      Y      Z        X      Y      Z        X      Y      Z
     1   6     0.01   0.00  -0.01     0.00  -0.00   0.01    -0.00  -0.01   0.08
     2  15    -0.03  -0.03   0.02    -0.03   0.04  -0.01     0.02  -0.01  -0.00
     3   1     0.05  -0.02  -0.06     0.09  -0.02  -0.08     0.68  -0.14  -0.58
     4   6     0.01   0.03  -0.02     0.00  -0.02   0.01    -0.00   0.00   0.00
     5   6    -0.04  -0.06   0.06     0.02   0.03  -0.03    -0.00   0.00  -0.00
     6   6    -0.05   0.04   0.02     0.02  -0.01  -0.01    -0.00  -0.01   0.00
     7   6     0.05   0.28  -0.13    -0.02  -0.14   0.06     0.00   0.00  -0.00
     8   6     0.04  -0.01  -0.04    -0.03  -0.00   0.02     0.00   0.01  -0.00
     9   6     0.02  -0.09   0.02    -0.01   0.05  -0.01     0.00  -0.00  -0.00
    10   1     0.03   0.02  -0.04     0.02  -0.03  -0.01    -0.02   0.01   0.01
    11   1     0.05  -0.42   0.10    -0.02   0.17  -0.04    -0.01   0.04  -0.00
    12   1    -0.21  -0.15   0.27     0.13   0.11  -0.15    -0.03  -0.04   0.04
    13   1     0.16  -0.35   0.01    -0.07   0.14   0.01     0.00   0.01  -0.00
    14   1    -0.15  -0.29   0.24     0.08   0.15  -0.12     0.00  -0.01  -0.00
    15   6     0.00   0.01  -0.00    -0.00  -0.00   0.00     0.00   0.00  -0.01
    16   6    -0.00  -0.00  -0.01     0.00   0.00   0.00    -0.00  -0.01   0.00
    17   6    -0.00  -0.00  -0.01     0.00   0.00   0.00     0.00   0.00   0.01
    18   6     0.03   0.03   0.02    -0.00  -0.01  -0.01    -0.01   0.00  -0.01
    19   6     0.00   0.00   0.02    -0.00  -0.00  -0.00    -0.00  -0.00  -0.00
    20   6    -0.01  -0.01   0.00     0.00   0.00   0.00     0.00   0.00   0.00
    21   1     0.01   0.03  -0.03    -0.00  -0.01   0.01     0.01   0.03  -0.04
    22   1     0.00  -0.00  -0.01     0.00   0.01   0.00    -0.05  -0.05  -0.01
    23   1    -0.04  -0.02  -0.10     0.01   0.01   0.03     0.02   0.02   0.06
    24   1    -0.01  -0.01   0.02    -0.00  -0.01  -0.01    -0.01  -0.01  -0.00
    25   1    -0.03  -0.03  -0.05     0.01   0.01   0.03     0.02   0.01   0.04
    26   6     0.02   0.00   0.01     0.04  -0.01   0.01    -0.00  -0.00  -0.00
    27   6    -0.05  -0.00  -0.02    -0.09  -0.00  -0.03     0.00   0.00   0.00
    28   6     0.00  -0.04  -0.02    -0.01  -0.06  -0.04    -0.00   0.01   0.00
    29   6     0.14  -0.05   0.01     0.29  -0.13   0.02    -0.02   0.01  -0.00
    30   6     0.01   0.01   0.01     0.03   0.03   0.03     0.00  -0.00  -0.00
    31   6    -0.03   0.03   0.01    -0.07   0.06   0.02     0.00  -0.00  -0.00
    32   1     0.05   0.05   0.05     0.06   0.04   0.05    -0.02  -0.05  -0.04
    33   1    -0.17   0.14   0.03    -0.32   0.27   0.06    -0.01   0.02   0.01
    34   1    -0.14  -0.04  -0.08    -0.36  -0.07  -0.17     0.04  -0.00   0.03
    35   1    -0.11   0.17   0.06    -0.18   0.31   0.13     0.01  -0.02  -0.01
    36   1    -0.18   0.03  -0.05    -0.41   0.08  -0.10     0.03  -0.00   0.01
    37   6    -0.00   0.00  -0.00    -0.01   0.00   0.01    -0.09   0.01   0.09
    38   6     0.00  -0.00   0.00     0.01  -0.00  -0.00     0.06  -0.02  -0.01
    39   8    -0.00   0.00  -0.00    -0.01   0.00  -0.01    -0.04   0.02  -0.06
    40   1    -0.00   0.00  -0.01    -0.01   0.00  -0.03    -0.04   0.02  -0.24
    41   1    -0.00   0.00  -0.00    -0.00   0.01  -0.03    -0.03   0.08  -0.21
    42   1    -0.00   0.00   0.01    -0.01  -0.00   0.02    -0.03   0.00   0.09
                     73                     74                     75
                      A                      A                      A
 Frequencies --   1179.2473              1179.3446              1184.2762
 Red. masses --      1.1064                 1.1160                 1.1179
 Frc consts  --      0.9065                 0.9145                 0.9238
 IR Inten    --      0.5356                 1.6807                 0.3361
  Atom  AN      X      Y      Z        X      Y      Z        X      Y      Z
     1   6     0.00  -0.00   0.00     0.00  -0.00   0.01    -0.00  -0.00   0.00
     2  15     0.00  -0.00  -0.00     0.00  -0.00  -0.00    -0.00   0.00  -0.00
     3   1     0.02  -0.00  -0.02     0.06  -0.01  -0.05    -0.01   0.00   0.01
     4   6    -0.00   0.00   0.00    -0.00   0.00   0.00     0.05  -0.03  -0.04
     5   6     0.00  -0.00  -0.00     0.00  -0.00  -0.00    -0.02   0.05  -0.00
     6   6     0.00  -0.00   0.00     0.00  -0.00   0.00    -0.01  -0.00   0.01
     7   6    -0.00  -0.00   0.00     0.00  -0.00   0.00     0.00  -0.00  -0.00
     8   6     0.00   0.00  -0.00     0.00   0.00  -0.00    -0.01   0.01   0.00
     9   6     0.00   0.00  -0.00     0.00   0.00  -0.00    -0.02  -0.03   0.03
    10   1    -0.01   0.01   0.01    -0.01   0.01   0.01     0.52  -0.25  -0.36
    11   1     0.00  -0.01   0.00     0.00  -0.01   0.00    -0.14   0.49  -0.05
    12   1     0.00   0.00  -0.00     0.00  -0.00   0.00    -0.09  -0.09   0.11
    13   1    -0.00   0.00  -0.00     0.00  -0.00   0.00    -0.05   0.13  -0.01
    14   1     0.00   0.00  -0.00     0.01   0.01  -0.01    -0.23  -0.27   0.30
    15   6     0.01   0.01  -0.02    -0.02  -0.04   0.05    -0.00  -0.00   0.00
    16   6    -0.01  -0.01   0.00     0.02   0.03  -0.00     0.00   0.00  -0.00
    17   6    -0.00  -0.00   0.00     0.01   0.01  -0.01     0.00   0.00  -0.00
    18   6    -0.00   0.00  -0.00    -0.00  -0.00   0.01     0.00   0.00   0.00
    19   6    -0.00  -0.00   0.00     0.01   0.01  -0.01    -0.00  -0.00  -0.00
    20   6     0.00   0.00   0.01    -0.01  -0.01  -0.04    -0.00   0.00  -0.00
    21   1     0.06   0.11  -0.16    -0.21  -0.36   0.54    -0.00  -0.01   0.01
    22   1    -0.08  -0.09  -0.01     0.26   0.31   0.04     0.01   0.01   0.00
    23   1     0.01   0.00   0.03    -0.02  -0.01  -0.08    -0.00  -0.00  -0.00
    24   1    -0.03  -0.04  -0.00     0.11   0.13   0.01    -0.00  -0.00  -0.00
    25   1     0.05   0.03   0.13    -0.16  -0.11  -0.45    -0.00  -0.00  -0.00
    26   6     0.02   0.04   0.03     0.01   0.01   0.01     0.00   0.00   0.00
    27   6     0.03  -0.03  -0.01     0.01  -0.01  -0.00     0.00  -0.00  -0.00
    28   6    -0.01   0.00  -0.00    -0.00   0.00  -0.00     0.00   0.00  -0.00
    29   6    -0.01   0.01  -0.00    -0.00   0.00  -0.00    -0.00  -0.00  -0.00
    30   6     0.00  -0.01  -0.01     0.00  -0.00  -0.00    -0.00   0.00  -0.00
    31   6    -0.04   0.00  -0.01    -0.01  -0.00  -0.00    -0.00   0.00  -0.00
    32   1     0.22   0.47   0.36     0.06   0.14   0.11     0.01   0.01   0.01
    33   1     0.31  -0.37  -0.13     0.09  -0.11  -0.04     0.01  -0.01  -0.00
    34   1    -0.17   0.00  -0.05    -0.05   0.00  -0.01    -0.00  -0.00  -0.00
    35   1     0.10  -0.13  -0.05     0.03  -0.04  -0.02     0.00  -0.00  -0.00
    36   1    -0.42   0.01  -0.14    -0.13   0.00  -0.04    -0.01   0.00  -0.00
    37   6    -0.00   0.00   0.00    -0.01   0.00   0.01    -0.00  -0.00  -0.00
    38   6     0.00  -0.00  -0.00     0.01  -0.00  -0.00     0.00   0.00  -0.00
    39   8    -0.00   0.00  -0.00    -0.00   0.00  -0.01     0.00  -0.00   0.00
    40   1    -0.00   0.00  -0.01    -0.00   0.00  -0.02    -0.00  -0.00   0.00
    41   1    -0.00   0.00  -0.01    -0.00   0.01  -0.02     0.00  -0.00  -0.00
    42   1    -0.00   0.00   0.00    -0.00  -0.00   0.01    -0.00  -0.00   0.00
                     76                     77                     78
                      A                      A                      A
 Frequencies --   1204.4778              1214.5380              1218.2103
 Red. masses --      1.1274                 1.1248                 1.1334
 Frc consts  --      0.9636                 0.9776                 0.9910
 IR Inten    --      6.0851                 9.5910                 8.3905
  Atom  AN      X      Y      Z        X      Y      Z        X      Y      Z
     1   6     0.00   0.00  -0.00    -0.00   0.00  -0.00    -0.00   0.00   0.00
     2  15    -0.00  -0.00  -0.00    -0.00   0.00   0.00     0.00  -0.00  -0.00
     3   1    -0.03   0.01   0.03    -0.02  -0.00   0.01     0.03  -0.00  -0.02
     4   6     0.00  -0.00   0.00    -0.00   0.00  -0.00    -0.00  -0.01   0.00
     5   6     0.00  -0.00   0.00    -0.00   0.01  -0.00     0.01  -0.04   0.01
     6   6     0.00   0.00  -0.00    -0.00  -0.00   0.01     0.03   0.03  -0.04
     7   6    -0.00   0.00   0.00     0.00   0.00  -0.00    -0.01  -0.01   0.01
     8   6    -0.00   0.01  -0.00     0.00  -0.01   0.00    -0.02   0.06  -0.00
     9   6    -0.00  -0.00   0.00     0.00   0.01  -0.00    -0.02  -0.03   0.02
    10   1     0.00  -0.00  -0.00     0.00   0.00  -0.00     0.01  -0.02   0.00
    11   1     0.01  -0.04   0.01    -0.02   0.07  -0.01     0.11  -0.42   0.05
    12   1     0.02   0.02  -0.03    -0.04  -0.04   0.05     0.26   0.30  -0.33
    13   1    -0.01   0.04  -0.01     0.02  -0.08   0.01    -0.15   0.48  -0.07
    14   1    -0.03  -0.03   0.03     0.04   0.05  -0.05    -0.24  -0.30   0.32
    15   6    -0.01  -0.00  -0.01     0.00   0.00   0.00     0.00   0.00   0.00
    16   6    -0.03  -0.04  -0.01     0.00   0.00  -0.00     0.00   0.00   0.00
    17   6     0.02   0.01   0.06    -0.00   0.00  -0.00    -0.00  -0.00  -0.01
    18   6     0.01   0.00   0.01    -0.00   0.00   0.00     0.00   0.00   0.00
    19   6     0.03   0.04   0.00    -0.00  -0.00   0.00    -0.00  -0.00   0.00
    20   6    -0.01  -0.01  -0.04     0.00  -0.00   0.00     0.00   0.00   0.00
    21   1     0.00   0.01  -0.04     0.00  -0.00   0.00     0.00   0.00   0.00
    22   1    -0.36  -0.41  -0.08     0.00   0.01   0.00     0.03   0.04   0.01
    23   1     0.18   0.11   0.46    -0.00  -0.01  -0.02    -0.02  -0.01  -0.05
    24   1     0.32   0.35   0.05    -0.01  -0.01  -0.00    -0.03  -0.04  -0.00
    25   1    -0.14  -0.10  -0.39     0.00   0.00   0.01     0.01   0.01   0.03
    26   6    -0.00   0.00   0.00    -0.01   0.01   0.00    -0.00   0.00   0.00
    27   6    -0.00   0.00   0.00    -0.03   0.03   0.01    -0.00   0.00   0.00
    28   6     0.00  -0.00   0.00     0.05   0.01   0.02     0.01   0.00   0.00
    29   6     0.00  -0.00   0.00    -0.01  -0.00  -0.00    -0.00   0.00   0.00
    30   6     0.00  -0.00  -0.00     0.04  -0.05  -0.02     0.00  -0.01  -0.00
    31   6    -0.00   0.00  -0.00    -0.04   0.00  -0.01    -0.01   0.00  -0.00
    32   1     0.00   0.00   0.00    -0.01   0.01   0.01    -0.00   0.00  -0.00
    33   1    -0.01   0.01   0.01    -0.27   0.33   0.12    -0.04   0.05   0.02
    34   1     0.02  -0.00   0.00     0.49  -0.00   0.17     0.08   0.00   0.03
    35   1     0.01  -0.01  -0.00     0.31  -0.38  -0.13     0.05  -0.06  -0.02
    36   1    -0.02   0.00  -0.01    -0.47   0.02  -0.16    -0.07   0.00  -0.02
    37   6     0.00  -0.00  -0.00     0.01  -0.00  -0.00    -0.00  -0.00   0.00
    38   6    -0.00   0.00   0.00    -0.00   0.00   0.00     0.00  -0.00  -0.00
    39   8     0.00  -0.00   0.00     0.00  -0.00   0.00     0.00   0.00  -0.00
    40   1    -0.00  -0.00   0.01     0.00  -0.00   0.01    -0.00   0.00  -0.01
    41   1     0.00  -0.00   0.00     0.00  -0.00   0.01    -0.00   0.00  -0.01
    42   1    -0.00  -0.00  -0.00     0.00   0.00  -0.00    -0.00  -0.00   0.00
                     79                     80                     81
                      A                      A                      A
 Frequencies --   1329.7887              1330.2214              1336.3204
 Red. masses --      2.1920                 2.8534                 3.0064
 Frc consts  --      2.2838                 2.9748                 3.1632
 IR Inten    --      3.7107                 3.9282                 2.5533
  Atom  AN      X      Y      Z        X      Y      Z        X      Y      Z
     1   6    -0.00  -0.00  -0.00     0.00  -0.00  -0.00     0.00  -0.00   0.00
     2  15     0.00   0.00  -0.01    -0.00   0.01   0.00    -0.00  -0.00  -0.00
     3   1     0.02  -0.01  -0.02    -0.02  -0.01   0.01    -0.01  -0.01   0.01
     4   6    -0.02   0.01   0.02     0.05  -0.03  -0.04     0.06  -0.03  -0.04
     5   6     0.02  -0.04   0.00    -0.04   0.10  -0.00    -0.04   0.11  -0.00
     6   6     0.02   0.02  -0.02    -0.05  -0.03   0.05    -0.05  -0.04   0.06
     7   6    -0.06   0.03   0.05     0.15  -0.07  -0.10     0.15  -0.07  -0.10
     8   6     0.02  -0.03  -0.00    -0.04   0.08   0.01    -0.04   0.08   0.00
     9   6     0.03   0.02  -0.03    -0.06  -0.05   0.07    -0.07  -0.06   0.08
    10   1     0.01  -0.01  -0.01    -0.02   0.01   0.02    -0.02   0.01   0.01
    11   1    -0.03   0.12  -0.02     0.07  -0.29   0.05     0.07  -0.30   0.05
    12   1     0.06   0.05  -0.05    -0.13  -0.13   0.16    -0.13  -0.13   0.16
    13   1     0.04  -0.09   0.01    -0.09   0.25  -0.02    -0.09   0.25  -0.02
    14   1    -0.06  -0.08   0.08     0.13   0.17  -0.17     0.14   0.19  -0.19
    15   6    -0.01  -0.02   0.04    -0.01  -0.01   0.02     0.00   0.00  -0.00
    16   6     0.07   0.09  -0.01     0.03   0.04  -0.00     0.00   0.00  -0.00
    17   6    -0.00   0.01  -0.06     0.00   0.01  -0.03     0.00   0.00   0.00
    18   6    -0.07  -0.11   0.18    -0.03  -0.06   0.08    -0.01  -0.01   0.01
    19   6     0.03   0.04  -0.02     0.01   0.02  -0.01    -0.00  -0.00  -0.00
    20   6    -0.03  -0.01  -0.11    -0.01  -0.00  -0.05    -0.00  -0.00  -0.01
    21   1    -0.03  -0.05   0.07    -0.01  -0.03   0.04    -0.01  -0.01   0.02
    22   1    -0.26  -0.31  -0.08    -0.13  -0.15  -0.04    -0.03  -0.03  -0.01
    23   1    -0.15  -0.08  -0.46    -0.07  -0.04  -0.22    -0.02  -0.01  -0.05
    24   1     0.30   0.35   0.03     0.15   0.17   0.01     0.04   0.05   0.00
    25   1     0.15   0.12   0.38     0.07   0.06   0.18     0.01   0.01   0.03
    26   6     0.01   0.01   0.01    -0.02  -0.05  -0.04     0.03   0.05   0.04
    27   6     0.02  -0.02  -0.01    -0.05   0.08   0.03     0.06  -0.09  -0.04
    28   6    -0.02  -0.00  -0.01     0.07   0.01   0.03    -0.07  -0.01  -0.03
    29   6     0.02   0.04   0.03    -0.05  -0.14  -0.11     0.06   0.17   0.12
    30   6     0.01  -0.02  -0.01    -0.02   0.06   0.03     0.02  -0.07  -0.03
    31   6    -0.03  -0.00  -0.01     0.09   0.02   0.04    -0.11  -0.02  -0.05
    32   1    -0.00  -0.00  -0.00     0.00   0.01   0.01     0.01   0.01   0.01
    33   1    -0.05   0.06   0.02     0.18  -0.20  -0.07    -0.21   0.25   0.08
    34   1    -0.08  -0.00  -0.03     0.25   0.01   0.09    -0.29  -0.01  -0.11
    35   1     0.05  -0.07  -0.03    -0.17   0.25   0.10     0.21  -0.30  -0.12
    36   1     0.08  -0.01   0.03    -0.28   0.03  -0.08     0.34  -0.03   0.10
    37   6    -0.00  -0.00   0.01    -0.01   0.00   0.00    -0.00   0.00  -0.01
    38   6     0.00   0.00   0.00     0.00   0.00   0.00     0.00   0.00  -0.00
    39   8    -0.00   0.00  -0.00     0.00  -0.00   0.00     0.00  -0.00   0.00
    40   1    -0.00   0.00  -0.01    -0.00   0.00  -0.01    -0.00  -0.00   0.01
    41   1    -0.00   0.00  -0.01    -0.00   0.00  -0.02    -0.00   0.00   0.01
    42   1     0.01  -0.00  -0.01     0.01  -0.00  -0.01    -0.01   0.00   0.01
                     82                     83                     84
                      A                      A                      A
 Frequencies --   1356.1697              1363.4833              1367.1346
 Red. masses --      2.3704                 1.7454                 1.5792
 Frc consts  --      2.5686                 1.9118                 1.7390
 IR Inten    --      2.5008                 1.9395                 5.8813
  Atom  AN      X      Y      Z        X      Y      Z        X      Y      Z
     1   6    -0.01  -0.00   0.00    -0.01   0.00   0.00    -0.00   0.00   0.00
     2  15     0.00   0.00  -0.00     0.00  -0.00  -0.00     0.00   0.00  -0.00
     3   1     0.01  -0.00  -0.01     0.00  -0.00  -0.01     0.01  -0.00  -0.01
     4   6     0.01  -0.00  -0.00    -0.00   0.00   0.00    -0.10   0.04   0.06
     5   6    -0.00   0.01  -0.00    -0.00   0.00   0.00     0.00  -0.04   0.01
     6   6    -0.01  -0.01   0.01     0.00   0.00  -0.00     0.06   0.09  -0.08
     7   6     0.01  -0.00  -0.00     0.00  -0.00  -0.00     0.01  -0.01  -0.00
     8   6    -0.00   0.01  -0.00    -0.00  -0.00   0.00     0.02  -0.12   0.03
     9   6    -0.00  -0.00   0.00    -0.00  -0.00   0.00     0.02   0.03  -0.03
    10   1    -0.01   0.01   0.01     0.01  -0.00  -0.00     0.26  -0.13  -0.18
    11   1     0.00   0.00   0.00     0.00  -0.01   0.00     0.05  -0.23   0.04
    12   1     0.00   0.00  -0.01    -0.01  -0.01   0.01    -0.30  -0.34   0.38
    13   1     0.01  -0.02   0.00    -0.01   0.02  -0.00    -0.19   0.58  -0.06
    14   1     0.00   0.00  -0.00     0.00   0.01  -0.01     0.10   0.14  -0.14
    15   6    -0.05  -0.09   0.13     0.00   0.00  -0.00    -0.00  -0.00   0.00
    16   6     0.07   0.08   0.03    -0.00  -0.00  -0.00     0.00   0.00   0.00
    17   6    -0.07  -0.05  -0.16     0.00   0.00   0.00    -0.00  -0.00  -0.00
    18   6    -0.02  -0.03   0.04     0.00   0.00  -0.00    -0.00   0.00  -0.00
    19   6     0.13   0.14   0.04    -0.00  -0.00  -0.00     0.00   0.00   0.00
    20   6    -0.04  -0.03  -0.09     0.00   0.00   0.00    -0.00  -0.00  -0.00
    21   1     0.12   0.20  -0.31    -0.00  -0.01   0.01     0.00   0.01  -0.01
    22   1     0.09   0.10   0.03    -0.00  -0.00  -0.00     0.01   0.01   0.00
    23   1     0.20   0.12   0.55    -0.01  -0.00  -0.01     0.01   0.00   0.02
    24   1    -0.38  -0.42  -0.04     0.02   0.02   0.00    -0.02  -0.02  -0.00
    25   1    -0.07  -0.05  -0.15     0.00   0.00   0.01    -0.00  -0.00  -0.01
    26   6     0.00   0.00   0.00     0.05   0.10   0.08    -0.00  -0.00  -0.00
    27   6     0.00  -0.00  -0.00     0.04  -0.04  -0.01    -0.00  -0.00  -0.00
    28   6    -0.01   0.00  -0.00    -0.14   0.02  -0.04     0.00  -0.00   0.00
    29   6     0.00   0.00   0.00     0.00   0.01   0.01     0.00   0.00   0.00
    30   6     0.00  -0.00  -0.00     0.09  -0.10  -0.03    -0.00   0.00   0.00
    31   6    -0.00   0.00  -0.00    -0.06   0.01  -0.02    -0.00   0.00  -0.00
    32   1    -0.00  -0.01  -0.01    -0.12  -0.27  -0.21     0.00   0.01   0.01
    33   1     0.00  -0.00  -0.00     0.16  -0.18  -0.06    -0.01   0.01   0.00
    34   1     0.01  -0.00   0.01     0.54   0.00   0.19    -0.02   0.00  -0.01
    35   1    -0.01   0.01   0.00    -0.36   0.45   0.16     0.01  -0.01  -0.00
    36   1    -0.00  -0.00   0.00    -0.21   0.01  -0.07     0.01   0.00   0.00
    37   6     0.01  -0.00  -0.00     0.01  -0.00  -0.01    -0.01   0.00  -0.01
    38   6    -0.00   0.00  -0.00     0.00   0.00  -0.01     0.00   0.00  -0.00
    39   8     0.00  -0.00   0.00     0.00  -0.00   0.00     0.00  -0.00   0.00
    40   1    -0.00  -0.01   0.02    -0.00  -0.01   0.03    -0.01  -0.01   0.01
    41   1     0.00   0.00   0.02    -0.00   0.00   0.03    -0.00   0.01   0.01
    42   1    -0.01   0.00   0.01    -0.02   0.00   0.02    -0.01  -0.00   0.01
                     85                     86                     87
                      A                      A                      A
 Frequencies --   1377.8671              1426.8481              1469.7846
 Red. masses --      1.2823                 2.3731                 1.0607
 Frc consts  --      1.4344                 2.8465                 1.3500
 IR Inten    --     23.1854               580.0945                15.1694
  Atom  AN      X      Y      Z        X      Y      Z        X      Y      Z
     1   6    -0.06   0.01   0.04     0.19  -0.05  -0.12    -0.02   0.01   0.01
     2  15     0.00  -0.00  -0.00    -0.01   0.00   0.00     0.00  -0.00  -0.00
     3   1     0.12  -0.02  -0.14    -0.27   0.04   0.37     0.02   0.01  -0.03
     4   6     0.00  -0.00  -0.00    -0.00   0.00  -0.00     0.00  -0.00  -0.00
     5   6    -0.00   0.00  -0.00     0.00  -0.00  -0.00    -0.00  -0.00   0.00
     6   6    -0.00  -0.00   0.00     0.00  -0.00  -0.00    -0.00   0.00   0.00
     7   6    -0.00   0.00  -0.00    -0.00   0.00   0.01     0.00  -0.00  -0.00
     8   6    -0.00   0.00  -0.00     0.00  -0.00   0.00    -0.00   0.00   0.00
     9   6     0.00  -0.00   0.00    -0.00  -0.00   0.00     0.00   0.00  -0.00
    10   1    -0.01   0.00   0.01     0.01   0.00  -0.00    -0.00   0.00   0.00
    11   1    -0.00   0.01  -0.00    -0.00   0.01  -0.00    -0.00   0.00   0.00
    12   1     0.00   0.01  -0.01     0.01   0.01  -0.01    -0.00  -0.00   0.00
    13   1     0.01  -0.01   0.00    -0.01   0.00  -0.01    -0.00  -0.00   0.00
    14   1    -0.00  -0.01   0.00     0.01   0.01  -0.01    -0.00  -0.00   0.00
    15   6     0.00   0.00  -0.00    -0.00  -0.00   0.00     0.00   0.00  -0.00
    16   6     0.00   0.00  -0.00    -0.00  -0.00  -0.00    -0.00  -0.00  -0.00
    17   6     0.00   0.00   0.00    -0.00  -0.00  -0.00     0.00   0.00   0.00
    18   6    -0.00  -0.00   0.00     0.00   0.00   0.00    -0.00  -0.00  -0.00
    19   6    -0.00  -0.00  -0.00     0.00  -0.00   0.00     0.00   0.00  -0.00
    20   6    -0.00  -0.00  -0.00     0.00   0.00   0.00     0.00  -0.00   0.00
    21   1    -0.00  -0.01   0.01     0.01   0.01  -0.01    -0.00  -0.00   0.00
    22   1    -0.01  -0.01  -0.00     0.01   0.01   0.00    -0.00  -0.00  -0.00
    23   1    -0.01  -0.00  -0.01     0.01   0.00   0.01    -0.00  -0.00  -0.00
    24   1     0.02   0.02   0.00    -0.02  -0.02  -0.00     0.00   0.00   0.00
    25   1     0.00   0.00   0.01    -0.00  -0.00  -0.00    -0.00  -0.00  -0.00
    26   6    -0.00  -0.01  -0.00     0.00   0.00   0.00    -0.00  -0.00  -0.00
    27   6    -0.00   0.00   0.00     0.00  -0.00  -0.00    -0.00   0.00   0.00
    28   6     0.01  -0.00   0.00    -0.00   0.00   0.00     0.00  -0.00  -0.00
    29   6    -0.00  -0.00  -0.00    -0.00  -0.00   0.01     0.00   0.00  -0.00
    30   6    -0.00   0.00   0.00     0.00  -0.00  -0.00    -0.00   0.00   0.00
    31   6     0.00  -0.00   0.00    -0.01  -0.00  -0.00     0.00  -0.00   0.00
    32   1     0.00   0.01   0.01    -0.00  -0.00  -0.00     0.00  -0.00  -0.00
    33   1    -0.00   0.00   0.00    -0.00   0.00   0.00     0.00  -0.00  -0.00
    34   1    -0.02  -0.00  -0.01     0.02   0.00   0.01    -0.00  -0.00  -0.00
    35   1     0.01  -0.01  -0.01    -0.00   0.00   0.00     0.00  -0.00  -0.00
    36   1     0.00   0.00   0.00     0.00  -0.00  -0.00     0.00  -0.00   0.00
    37   6     0.03  -0.00  -0.03    -0.18   0.03   0.16     0.01  -0.02  -0.03
    38   6     0.05   0.01  -0.12     0.09  -0.02  -0.05    -0.01  -0.05   0.00
    39   8     0.01  -0.01   0.02     0.00   0.00  -0.03     0.01   0.00   0.01
    40   1    -0.22  -0.27   0.45    -0.51  -0.25  -0.03     0.13  -0.11   0.40
    41   1    -0.08   0.18   0.56    -0.33   0.47   0.08    -0.28   0.26  -0.39
    42   1    -0.36   0.02   0.36     0.08   0.01  -0.06     0.25   0.67   0.06
                     88                     89                     90
                      A                      A                      A
 Frequencies --   1483.0810              1483.9253              1485.5850
 Red. masses --      2.2625                 2.1914                 1.4252
 Frc consts  --      2.9321                 2.8431                 1.8532
 IR Inten    --     35.1646                15.7168                97.6749
  Atom  AN      X      Y      Z        X      Y      Z        X      Y      Z
     1   6     0.00   0.00  -0.00    -0.02   0.00   0.01     0.07  -0.01  -0.04
     2  15     0.00  -0.00  -0.00    -0.00  -0.00   0.00    -0.00   0.00   0.00
     3   1     0.00   0.01   0.01     0.02   0.01  -0.02    -0.07   0.02   0.11
     4   6    -0.05   0.02   0.03     0.00   0.00  -0.00    -0.02   0.01   0.01
     5   6     0.01   0.07  -0.03     0.00  -0.00   0.00     0.00   0.03  -0.01
     6   6     0.02  -0.05   0.00    -0.00   0.00   0.00     0.01  -0.02   0.00
     7   6    -0.06   0.03   0.04    -0.00  -0.00  -0.00    -0.03   0.01   0.02
     8   6     0.03   0.02  -0.04    -0.00  -0.00   0.00     0.01   0.01  -0.01
     9   6    -0.01  -0.07   0.04    -0.00   0.00  -0.00    -0.00  -0.03   0.01
    10   1     0.25  -0.12  -0.17    -0.01   0.01   0.01     0.10  -0.05  -0.07
    11   1     0.09  -0.20  -0.01    -0.00   0.01  -0.00     0.04  -0.08  -0.00
    12   1     0.08   0.01  -0.07    -0.00   0.00  -0.00     0.03   0.01  -0.03
    13   1     0.07  -0.08  -0.03    -0.00   0.00  -0.00     0.03  -0.03  -0.01
    14   1     0.14   0.10  -0.16    -0.00  -0.00   0.00     0.05   0.04  -0.06
    15   6     0.01   0.01  -0.02     0.04   0.07  -0.10     0.01   0.01  -0.01
    16   6     0.02   0.01   0.02     0.08   0.08   0.09     0.01   0.01   0.01
    17   6    -0.01  -0.02   0.00    -0.07  -0.08   0.00    -0.01  -0.01  -0.00
    18   6     0.01   0.02  -0.02     0.05   0.08  -0.12     0.01   0.01  -0.02
    19   6     0.01   0.00   0.02     0.03   0.01   0.10     0.00   0.00   0.01
    20   6    -0.02  -0.02  -0.02    -0.08  -0.08  -0.08    -0.01  -0.01  -0.01
    21   1    -0.04  -0.06   0.10    -0.19  -0.33   0.49    -0.03  -0.05   0.07
    22   1    -0.05  -0.06   0.01    -0.25  -0.32   0.04    -0.03  -0.04   0.01
    23   1    -0.00  -0.01   0.04    -0.01  -0.05   0.19     0.00  -0.01   0.03
    24   1    -0.02  -0.02   0.02    -0.10  -0.13   0.09    -0.02  -0.02   0.01
    25   1     0.02   0.00   0.08     0.08   0.02   0.38     0.01   0.00   0.06
    26   6     0.03   0.07   0.06    -0.01  -0.02  -0.01    -0.01  -0.02  -0.01
    27   6    -0.12   0.06  -0.00     0.03  -0.01   0.00     0.03  -0.01   0.00
    28   6     0.04  -0.07  -0.03    -0.01   0.02   0.01    -0.01   0.02   0.01
    29   6     0.05   0.09   0.08    -0.01  -0.02  -0.02    -0.01  -0.02  -0.02
    30   6    -0.10   0.00  -0.03     0.02  -0.00   0.01     0.02  -0.00   0.01
    31   6     0.12  -0.06   0.00    -0.03   0.01   0.00    -0.03   0.01  -0.00
    32   1    -0.18  -0.38  -0.30     0.04   0.09   0.07     0.04   0.09   0.07
    33   1     0.16  -0.31  -0.14    -0.04   0.07   0.03    -0.04   0.07   0.03
    34   1    -0.12  -0.09  -0.09     0.02   0.02   0.02     0.03   0.02   0.02
    35   1     0.05  -0.19  -0.10    -0.01   0.04   0.02    -0.01   0.04   0.02
    36   1    -0.31  -0.07  -0.15     0.07   0.01   0.03     0.07   0.01   0.03
    37   6     0.00  -0.00   0.01     0.01   0.00  -0.03    -0.06  -0.00   0.10
    38   6    -0.00  -0.00  -0.00     0.01  -0.00   0.02    -0.02   0.00  -0.07
    39   8    -0.00   0.00  -0.00     0.01  -0.01   0.01    -0.02   0.01  -0.03
    40   1     0.03   0.01   0.01    -0.16  -0.03  -0.07     0.56   0.12   0.23
    41   1     0.01  -0.02  -0.01    -0.09   0.11   0.01     0.30  -0.36  -0.05
    42   1    -0.01   0.02   0.02     0.09  -0.06  -0.10    -0.30   0.20   0.36
                     91                     92                     93
                      A                      A                      A
 Frequencies --   1487.0143              1528.8355              1533.1870
 Red. masses --      2.1220                 2.2071                 2.1388
 Frc consts  --      2.7646                 3.0395                 2.9622
 IR Inten    --     76.0822                 5.9395                 8.3998
  Atom  AN      X      Y      Z        X      Y      Z        X      Y      Z
     1   6    -0.03   0.01   0.02     0.00  -0.00  -0.00    -0.00   0.00   0.01
     2  15     0.01   0.00  -0.00     0.00   0.00   0.00    -0.00  -0.00   0.00
     3   1     0.04  -0.00  -0.06    -0.00   0.00   0.00     0.01  -0.01  -0.01
     4   6    -0.08   0.04   0.05    -0.00  -0.00   0.00     0.01   0.08  -0.04
     5   6     0.02   0.11  -0.05    -0.00   0.00  -0.00     0.06  -0.11  -0.01
     6   6     0.03  -0.08   0.00     0.00   0.00  -0.00    -0.08  -0.03   0.08
     7   6    -0.10   0.05   0.07    -0.00  -0.00   0.00     0.02   0.10  -0.05
     8   6     0.05   0.04  -0.06    -0.00   0.00   0.00     0.06  -0.10  -0.01
     9   6    -0.02  -0.11   0.05     0.00   0.00  -0.00    -0.08  -0.04   0.08
    10   1     0.39  -0.19  -0.27     0.00  -0.00  -0.00     0.01   0.09  -0.05
    11   1     0.14  -0.31  -0.01     0.00  -0.01   0.00    -0.07   0.38  -0.08
    12   1     0.13   0.02  -0.12    -0.00  -0.01   0.01     0.18   0.28  -0.24
    13   1     0.12  -0.14  -0.05     0.00  -0.01   0.00    -0.09   0.43  -0.09
    14   1     0.21   0.14  -0.23    -0.00  -0.01   0.01     0.17   0.27  -0.24
    15   6    -0.01  -0.01   0.01    -0.06  -0.05  -0.07    -0.00  -0.00   0.00
    16   6    -0.01  -0.01  -0.01     0.09   0.11  -0.03     0.00   0.00  -0.00
    17   6     0.01   0.01  -0.00     0.02  -0.01   0.14     0.00   0.00   0.00
    18   6    -0.01  -0.01   0.02    -0.08  -0.07  -0.07    -0.00  -0.00   0.00
    19   6    -0.00  -0.00  -0.01     0.08   0.11  -0.04    -0.00  -0.00  -0.00
    20   6     0.01   0.01   0.01     0.02  -0.00   0.15     0.00   0.00  -0.00
    21   1     0.03   0.05  -0.07    -0.07  -0.07  -0.07     0.00   0.00  -0.01
    22   1     0.04   0.05  -0.01    -0.29  -0.33  -0.11     0.00   0.00  -0.00
    23   1    -0.00   0.01  -0.03    -0.21  -0.15  -0.42    -0.00   0.00  -0.00
    24   1     0.02   0.02  -0.01    -0.31  -0.33  -0.12     0.00   0.00  -0.00
    25   1    -0.01  -0.00  -0.05    -0.18  -0.15  -0.39    -0.00   0.00  -0.00
    26   6    -0.02  -0.04  -0.03     0.00  -0.00   0.00     0.04  -0.03  -0.00
    27   6     0.06  -0.03   0.00    -0.00   0.00   0.00    -0.02   0.06   0.03
    28   6    -0.02   0.04   0.02    -0.01  -0.00  -0.00    -0.06  -0.02  -0.03
    29   6    -0.03  -0.05  -0.04     0.01  -0.00  -0.00     0.05  -0.03   0.00
    30   6     0.05  -0.00   0.02    -0.00   0.01   0.00    -0.02   0.05   0.03
    31   6    -0.06   0.03   0.00    -0.01  -0.00  -0.00    -0.06  -0.01  -0.03
    32   1     0.09   0.20   0.16     0.00  -0.00  -0.00     0.06  -0.01   0.01
    33   1    -0.08   0.16   0.07     0.01  -0.01  -0.00     0.15  -0.15  -0.04
    34   1     0.06   0.04   0.05     0.02  -0.00   0.01     0.23  -0.03   0.06
    35   1    -0.03   0.11   0.06     0.01  -0.01  -0.00     0.16  -0.15  -0.04
    36   1     0.16   0.04   0.08     0.02  -0.00   0.01     0.21  -0.02   0.06
    37   6     0.03  -0.00  -0.04     0.00  -0.00   0.01    -0.01   0.01  -0.02
    38   6     0.01  -0.00   0.03     0.00  -0.00  -0.00     0.00  -0.00   0.00
    39   8     0.00  -0.00   0.01    -0.00   0.00  -0.00     0.01  -0.00   0.01
    40   1    -0.23  -0.05  -0.08    -0.00  -0.00  -0.00     0.01   0.01  -0.00
    41   1    -0.13   0.15   0.02    -0.00   0.00   0.00     0.01  -0.01  -0.01
    42   1     0.13  -0.07  -0.15     0.00  -0.00  -0.00    -0.01   0.00   0.01
                     94                     95                     96
                      A                      A                      A
 Frequencies --   1533.8014              1616.3446              1659.5250
 Red. masses --      2.1557                 8.3165                 5.8424
 Frc consts  --      2.9879                12.8014                 9.4800
 IR Inten    --     18.3393               686.2774                 0.9737
  Atom  AN      X      Y      Z        X      Y      Z        X      Y      Z
     1   6    -0.00   0.00  -0.00    -0.08   0.03  -0.05    -0.00  -0.00  -0.00
     2  15    -0.00   0.01  -0.00     0.00  -0.00   0.02    -0.00   0.00   0.00
     3   1    -0.01  -0.00   0.00    -0.23   0.05   0.07    -0.01  -0.00   0.00
     4   6    -0.01  -0.04   0.02    -0.01   0.02  -0.00    -0.21   0.09   0.14
     5   6    -0.03   0.06   0.01     0.02  -0.03  -0.00     0.11  -0.09  -0.06
     6   6     0.04   0.02  -0.04    -0.02   0.01   0.01    -0.11  -0.03   0.10
     7   6    -0.01  -0.05   0.03     0.02   0.00  -0.03     0.15  -0.06  -0.10
     8   6    -0.03   0.06   0.01     0.01  -0.01  -0.01    -0.08   0.10   0.03
     9   6     0.05   0.02  -0.05    -0.01  -0.01   0.01     0.12  -0.01  -0.10
    10   1    -0.00  -0.06   0.02     0.01   0.02  -0.01     0.27  -0.13  -0.18
    11   1     0.04  -0.21   0.04    -0.02   0.08  -0.01     0.06   0.11  -0.10
    12   1    -0.10  -0.16   0.14    -0.01   0.04  -0.02     0.06   0.18  -0.11
    13   1     0.05  -0.24   0.05    -0.02   0.15   0.01    -0.01  -0.18   0.08
    14   1    -0.09  -0.15   0.13     0.03   0.04  -0.04     0.01  -0.16   0.04
    15   6     0.00   0.00   0.00     0.02   0.03  -0.03     0.01   0.01  -0.01
    16   6    -0.00  -0.01   0.00    -0.02  -0.03   0.01    -0.01  -0.02   0.00
    17   6    -0.00   0.00  -0.01     0.00   0.01  -0.01     0.01   0.01  -0.00
    18   6     0.00   0.00   0.00    -0.01  -0.01   0.01    -0.00  -0.01   0.00
    19   6    -0.00  -0.00   0.00     0.02   0.02   0.00     0.01   0.01   0.00
    20   6    -0.00  -0.00  -0.01    -0.01  -0.02   0.00    -0.01  -0.01  -0.00
    21   1     0.00   0.00   0.01    -0.01  -0.03   0.06    -0.00  -0.01   0.02
    22   1     0.01   0.02   0.01     0.02   0.02   0.02     0.02   0.02   0.01
    23   1     0.01   0.01   0.02     0.02   0.01   0.03     0.01   0.01   0.00
    24   1     0.02   0.02   0.01     0.00  -0.02  -0.01    -0.01  -0.02  -0.00
    25   1     0.01   0.01   0.02    -0.01  -0.01   0.03    -0.00  -0.01   0.01
    26   6     0.07  -0.05  -0.01    -0.01  -0.02  -0.01     0.11   0.21   0.17
    27   6    -0.04   0.11   0.06     0.01   0.01   0.01    -0.02  -0.13  -0.09
    28   6    -0.10  -0.03  -0.06    -0.01  -0.00  -0.01     0.12   0.06   0.08
    29   6     0.10  -0.05  -0.00     0.01   0.01  -0.00    -0.07  -0.16  -0.13
    30   6    -0.03   0.10   0.05     0.00  -0.01  -0.00    -0.02   0.14   0.08
    31   6    -0.11  -0.03  -0.05     0.01   0.01   0.01    -0.12  -0.09  -0.10
    32   1     0.11  -0.02   0.02     0.01   0.03   0.02    -0.11  -0.27  -0.21
    33   1     0.28  -0.26  -0.07     0.01   0.00   0.01    -0.16   0.02  -0.04
    34   1     0.41  -0.05   0.11     0.01  -0.00  -0.00    -0.20   0.08  -0.02
    35   1     0.29  -0.28  -0.08    -0.01   0.02   0.00     0.21  -0.12  -0.01
    36   1     0.38  -0.04   0.11    -0.01   0.01   0.00     0.16  -0.12  -0.02
    37   6     0.01  -0.00   0.01     0.47  -0.22   0.41     0.00  -0.00   0.00
    38   6    -0.00   0.00  -0.00    -0.03   0.02  -0.03    -0.00   0.00   0.00
    39   8    -0.01   0.00  -0.01    -0.25   0.12  -0.26    -0.00  -0.00  -0.00
    40   1    -0.01  -0.00   0.00    -0.20  -0.10   0.10    -0.00  -0.00   0.00
    41   1    -0.01   0.01   0.00    -0.13   0.15   0.12    -0.00   0.00   0.00
    42   1     0.01  -0.00  -0.01     0.23  -0.00  -0.33     0.00  -0.00  -0.00
                     97                     98                     99
                      A                      A                      A
 Frequencies --   1661.8374              1663.5670              1672.4323
 Red. masses --      5.9131                 6.0114                 5.9375
 Frc consts  --      9.6215                 9.8018                 9.7847
 IR Inten    --      9.0789                 6.5737                 1.0764
  Atom  AN      X      Y      Z        X      Y      Z        X      Y      Z
     1   6    -0.01   0.00  -0.00    -0.00   0.01  -0.00    -0.00   0.00  -0.00
     2  15     0.00   0.00   0.00    -0.00  -0.00   0.01    -0.00  -0.00  -0.00
     3   1     0.00   0.01  -0.01    -0.02   0.01   0.01    -0.01   0.00   0.00
     4   6     0.23  -0.10  -0.16     0.01  -0.01  -0.00     0.00  -0.03   0.01
     5   6    -0.12   0.09   0.06    -0.01   0.02  -0.00    -0.01   0.06  -0.02
     6   6     0.12   0.03  -0.12     0.00  -0.01   0.00    -0.02  -0.05   0.03
     7   6    -0.17   0.07   0.12    -0.01   0.01  -0.00     0.00   0.03  -0.01
     8   6     0.10  -0.11  -0.04     0.00  -0.02   0.00     0.01  -0.06   0.02
     9   6    -0.14   0.00   0.11     0.00   0.01  -0.00     0.02   0.05  -0.03
    10   1    -0.29   0.14   0.20    -0.01  -0.00   0.01    -0.01  -0.03   0.02
    11   1    -0.07  -0.12   0.10     0.00  -0.02   0.00     0.03  -0.07  -0.00
    12   1    -0.06  -0.20   0.12     0.01  -0.00  -0.01     0.05   0.03  -0.05
    13   1     0.02   0.20  -0.09    -0.01   0.02  -0.00    -0.04   0.08   0.00
    14   1    -0.01   0.18  -0.05    -0.01  -0.00   0.01    -0.05  -0.02   0.05
    15   6     0.01   0.02  -0.02    -0.12  -0.21   0.31    -0.09  -0.08  -0.10
    16   6    -0.02  -0.02   0.00     0.11   0.16  -0.13     0.19   0.21   0.11
    17   6     0.01   0.01  -0.01     0.01  -0.04   0.22    -0.14  -0.12  -0.24
    18   6    -0.01  -0.02   0.01     0.09   0.16  -0.24     0.10   0.09   0.11
    19   6     0.02   0.02  -0.00    -0.12  -0.16   0.09    -0.19  -0.21  -0.11
    20   6    -0.01  -0.01   0.00     0.03   0.07  -0.21     0.14   0.12   0.25
    21   1    -0.01  -0.01   0.03     0.15   0.26  -0.40    -0.10  -0.10  -0.11
    22   1     0.02   0.02   0.01    -0.12  -0.10  -0.20    -0.21  -0.26   0.05
    23   1     0.01   0.01  -0.00    -0.17  -0.16  -0.21     0.08   0.02   0.35
    24   1    -0.02  -0.02  -0.01     0.17   0.16   0.15     0.23   0.27  -0.05
    25   1    -0.01  -0.01   0.01     0.15   0.17   0.07    -0.06  -0.01  -0.34
    26   6     0.10   0.18   0.15     0.01   0.02   0.02     0.00   0.02   0.01
    27   6    -0.02  -0.11  -0.08    -0.00  -0.01  -0.01     0.01  -0.02  -0.01
    28   6     0.12   0.05   0.07     0.01   0.01   0.01     0.00   0.01   0.00
    29   6    -0.07  -0.15  -0.11    -0.01  -0.02  -0.01    -0.00  -0.02  -0.01
    30   6    -0.01   0.12   0.07    -0.00   0.01   0.01    -0.01   0.02   0.01
    31   6    -0.12  -0.08  -0.09    -0.01  -0.01  -0.01     0.00  -0.01  -0.01
    32   1    -0.09  -0.24  -0.18    -0.01  -0.03  -0.02    -0.01  -0.02  -0.02
    33   1    -0.14   0.00  -0.04    -0.02   0.00  -0.00    -0.02   0.01   0.00
    34   1    -0.18   0.06  -0.02    -0.02   0.01  -0.00    -0.01   0.01   0.00
    35   1     0.18  -0.10   0.00     0.02  -0.01  -0.00     0.03  -0.03  -0.01
    36   1     0.16  -0.10  -0.01     0.02  -0.01  -0.00     0.00  -0.01  -0.01
    37   6     0.02  -0.01   0.02     0.04  -0.02   0.03     0.02  -0.01   0.02
    38   6    -0.00   0.00  -0.00    -0.00   0.00  -0.00    -0.00   0.00  -0.00
    39   8    -0.01   0.01  -0.01    -0.02   0.01  -0.02    -0.01   0.01  -0.01
    40   1    -0.01  -0.00   0.00    -0.01  -0.01   0.01    -0.01  -0.00   0.00
    41   1    -0.00   0.01   0.00    -0.01   0.01   0.01    -0.00   0.01   0.01
    42   1     0.01   0.00  -0.01     0.02   0.00  -0.02     0.01   0.00  -0.01
                    100                    101                    102
                      A                      A                      A
 Frequencies --   1673.2268              1678.0225              3065.5532
 Red. masses --      5.6857                 5.8653                 1.0355
 Frc consts  --      9.3787                 9.7305                 5.7332
 IR Inten    --      1.3412                 1.0675                23.2584
  Atom  AN      X      Y      Z        X      Y      Z        X      Y      Z
     1   6     0.00  -0.00   0.00     0.00  -0.00  -0.00     0.00  -0.00   0.00
     2  15    -0.00   0.00  -0.00     0.00  -0.00  -0.00    -0.00   0.00   0.00
     3   1    -0.00  -0.00   0.01    -0.00   0.00   0.00    -0.01   0.00  -0.01
     4   6     0.01   0.14  -0.05    -0.01   0.01   0.00     0.00   0.00  -0.00
     5   6     0.03  -0.29   0.08     0.00  -0.01  -0.00     0.00   0.00  -0.00
     6   6     0.09   0.22  -0.16    -0.00   0.00   0.00     0.00   0.00  -0.00
     7   6    -0.01  -0.15   0.06     0.01  -0.01  -0.00     0.00  -0.00  -0.00
     8   6    -0.03   0.29  -0.08    -0.00   0.01   0.00     0.00   0.00  -0.00
     9   6    -0.09  -0.23   0.16     0.00  -0.00  -0.00    -0.00   0.00   0.00
    10   1     0.04   0.15  -0.09     0.01  -0.00  -0.01    -0.00  -0.00   0.00
    11   1    -0.15   0.31   0.01     0.00   0.01  -0.00    -0.00   0.00   0.00
    12   1    -0.22  -0.13   0.23     0.00   0.01  -0.01    -0.00   0.00   0.00
    13   1     0.17  -0.36  -0.01     0.00  -0.01   0.00    -0.00  -0.00   0.00
    14   1     0.22   0.12  -0.23     0.00  -0.00  -0.00     0.00  -0.00  -0.00
    15   6    -0.02  -0.03  -0.01    -0.00  -0.00  -0.00    -0.00  -0.00  -0.00
    16   6     0.04   0.05   0.02     0.01   0.01   0.00    -0.00   0.00  -0.00
    17   6    -0.03  -0.03  -0.04    -0.00  -0.00  -0.01     0.00  -0.00  -0.00
    18   6     0.02   0.03   0.01     0.00   0.00   0.00     0.00   0.00  -0.00
    19   6    -0.05  -0.05  -0.02    -0.01  -0.01  -0.00    -0.00   0.00  -0.00
    20   6     0.03   0.03   0.04     0.01   0.00   0.01    -0.00  -0.00   0.00
    21   1    -0.01  -0.01  -0.04    -0.00  -0.00  -0.00     0.00   0.00   0.00
    22   1    -0.05  -0.06   0.00    -0.01  -0.01   0.00    -0.00  -0.00   0.00
    23   1     0.01  -0.01   0.06     0.00   0.00   0.01    -0.00  -0.00   0.00
    24   1     0.05   0.06  -0.00     0.01   0.01  -0.00     0.00  -0.00   0.00
    25   1    -0.01   0.00  -0.07    -0.00  -0.00  -0.01     0.00   0.00  -0.00
    26   6    -0.00   0.00   0.00     0.13  -0.08  -0.00     0.00  -0.00   0.00
    27   6     0.00  -0.01  -0.00    -0.25   0.20   0.05     0.00   0.00   0.00
    28   6    -0.00   0.00   0.00     0.29  -0.08   0.05     0.00  -0.00  -0.00
    29   6     0.00  -0.00  -0.00    -0.15   0.10   0.01    -0.00   0.00  -0.00
    30   6    -0.00   0.01   0.00     0.23  -0.20  -0.05    -0.00  -0.00  -0.00
    31   6     0.00  -0.00  -0.00    -0.28   0.07  -0.05     0.00  -0.00  -0.00
    32   1    -0.00  -0.00  -0.00     0.16  -0.08   0.01    -0.00   0.00  -0.00
    33   1    -0.00   0.00   0.00     0.15  -0.30  -0.14    -0.00  -0.00  -0.00
    34   1     0.00   0.00   0.00    -0.33  -0.08  -0.17    -0.00   0.00  -0.00
    35   1     0.01  -0.01  -0.00    -0.17   0.30   0.14     0.00   0.00   0.00
    36   1    -0.00  -0.00  -0.00     0.28   0.07   0.15    -0.00   0.00   0.00
    37   6    -0.00   0.00  -0.00     0.00  -0.00   0.00    -0.00  -0.00   0.00
    38   6     0.00   0.00   0.00    -0.00   0.00  -0.00     0.03   0.00  -0.04
    39   8     0.00  -0.00   0.00    -0.00   0.00  -0.00     0.00  -0.00  -0.00
    40   1    -0.00  -0.00   0.00    -0.00  -0.00   0.00    -0.19   0.52   0.16
    41   1     0.00   0.00   0.00    -0.00   0.00   0.00    -0.48  -0.41   0.01
    42   1    -0.00   0.00   0.00     0.00   0.00  -0.00     0.37  -0.16   0.32
                    103                    104                    105
                      A                      A                      A
 Frequencies --   3143.1813              3163.4105              3195.3887
 Red. masses --      1.1009                 1.1042                 1.0903
 Frc consts  --      6.4082                 6.5105                 6.5593
 IR Inten    --     13.1958                25.9724                 2.1618
  Atom  AN      X      Y      Z        X      Y      Z        X      Y      Z
     1   6     0.00  -0.00   0.00     0.00  -0.00   0.00     0.00  -0.00   0.00
     2  15    -0.00  -0.00   0.00     0.00  -0.00  -0.00    -0.00  -0.00  -0.00
     3   1    -0.00   0.00  -0.00    -0.02   0.01  -0.02    -0.00   0.00  -0.00
     4   6     0.00  -0.00   0.00    -0.00   0.00  -0.00     0.00   0.00  -0.00
     5   6     0.00   0.00   0.00    -0.00  -0.00   0.00    -0.00   0.00   0.00
     6   6     0.00  -0.00  -0.00     0.00  -0.00   0.00     0.00  -0.00  -0.00
     7   6    -0.00   0.00   0.00     0.00  -0.00   0.00    -0.00  -0.00   0.00
     8   6     0.00   0.00  -0.00    -0.00  -0.00   0.00    -0.00   0.00  -0.00
     9   6    -0.00   0.00   0.00     0.00  -0.00  -0.00    -0.00  -0.00   0.00
    10   1     0.00   0.00  -0.00    -0.00  -0.00   0.00    -0.00  -0.00   0.00
    11   1     0.00   0.00  -0.00     0.00  -0.00  -0.00     0.00   0.00  -0.00
    12   1    -0.00   0.00   0.00     0.00  -0.00  -0.00    -0.01   0.01   0.00
    13   1    -0.00  -0.00   0.00     0.00   0.00  -0.00    -0.00  -0.00   0.00
    14   1     0.00  -0.00  -0.00    -0.00   0.00   0.00     0.00  -0.00  -0.00
    15   6    -0.00  -0.00  -0.00     0.00   0.00  -0.00    -0.00  -0.00  -0.00
    16   6     0.00   0.00  -0.00    -0.00  -0.00   0.00    -0.00  -0.00   0.00
    17   6     0.00   0.00  -0.00    -0.00  -0.00   0.00     0.00   0.00  -0.00
    18   6     0.00   0.00  -0.00     0.00  -0.00   0.00    -0.00   0.00  -0.00
    19   6     0.00  -0.00   0.00     0.00  -0.00   0.00     0.00  -0.00   0.00
    20   6     0.00   0.00  -0.00     0.00   0.00  -0.00     0.00   0.00  -0.00
    21   1     0.00   0.00   0.00     0.00   0.00   0.00     0.00   0.00   0.00
    22   1     0.00  -0.00   0.00     0.00   0.00   0.00    -0.00   0.00  -0.00
    23   1    -0.00  -0.00   0.00     0.00   0.00  -0.00    -0.00  -0.00   0.00
    24   1    -0.00   0.00  -0.00    -0.00   0.00  -0.00    -0.00   0.00  -0.01
    25   1    -0.00  -0.00   0.00    -0.00  -0.00   0.00    -0.00  -0.00   0.00
    26   6    -0.00  -0.00   0.00    -0.00  -0.00  -0.00    -0.01   0.00  -0.00
    27   6     0.00   0.00   0.00     0.00   0.00   0.00     0.01   0.01   0.01
    28   6     0.00  -0.00   0.00    -0.00   0.00   0.00     0.01  -0.07  -0.04
    29   6    -0.00   0.00   0.00    -0.00   0.00   0.00     0.00   0.00   0.00
    30   6     0.00   0.00   0.00     0.00   0.00   0.00     0.00   0.00   0.00
    31   6    -0.00   0.00   0.00     0.00   0.00   0.00     0.00  -0.01  -0.00
    32   1     0.00  -0.00   0.00     0.00  -0.00   0.00     0.11  -0.05   0.00
    33   1    -0.00  -0.00  -0.00     0.00   0.00  -0.00    -0.18  -0.10  -0.13
    34   1     0.00  -0.00  -0.00     0.00  -0.00  -0.00    -0.14   0.82   0.46
    35   1    -0.00  -0.00  -0.00    -0.00  -0.00  -0.00    -0.02  -0.01  -0.02
    36   1    -0.00   0.00   0.00     0.00  -0.00  -0.00    -0.01   0.07   0.04
    37   6    -0.00  -0.00   0.00    -0.00   0.00   0.00    -0.00   0.00   0.00
    38   6    -0.03  -0.08  -0.02    -0.08   0.04  -0.03    -0.00   0.00  -0.00
    39   8     0.00   0.00   0.00     0.00  -0.00   0.00     0.00  -0.00   0.00
    40   1    -0.25   0.61   0.20     0.14  -0.39  -0.13     0.00  -0.00  -0.00
    41   1     0.55   0.45  -0.03     0.21   0.20  -0.01     0.00   0.00  -0.00
    42   1     0.08  -0.05   0.07     0.61  -0.26   0.53     0.00  -0.00   0.00
                    106                    107                    108
                      A                      A                      A
 Frequencies --   3198.5077              3201.1448              3205.6459
 Red. masses --      1.0899                 1.0887                 1.0878
 Frc consts  --      6.5694                 6.5730                 6.5858
 IR Inten    --      1.5637                 0.1586                 0.8930
  Atom  AN      X      Y      Z        X      Y      Z        X      Y      Z
     1   6    -0.00   0.00  -0.00    -0.00  -0.00  -0.00    -0.00   0.00  -0.00
     2  15     0.00  -0.00  -0.00     0.00   0.00  -0.00     0.00   0.00   0.00
     3   1     0.00  -0.00   0.00    -0.00   0.00  -0.00     0.00  -0.00   0.00
     4   6     0.00   0.00  -0.00     0.00   0.00  -0.00    -0.00  -0.00   0.00
     5   6    -0.02   0.00   0.01     0.00   0.00  -0.00     0.00  -0.00  -0.00
     6   6     0.05  -0.06  -0.02    -0.00   0.00  -0.00    -0.00   0.00   0.00
     7   6    -0.00  -0.00   0.00     0.00   0.00  -0.00     0.00   0.00  -0.00
     8   6    -0.00   0.00   0.00    -0.00  -0.00   0.00     0.00  -0.00  -0.00
     9   6     0.00  -0.00  -0.00    -0.00   0.00   0.00    -0.00   0.00   0.00
    10   1    -0.01  -0.06   0.03    -0.00  -0.00   0.00     0.00   0.00  -0.00
    11   1     0.19   0.03  -0.17    -0.00  -0.00   0.00    -0.00  -0.00   0.00
    12   1    -0.58   0.72   0.22     0.00  -0.00  -0.00     0.00  -0.00  -0.00
    13   1     0.02   0.00  -0.02     0.00   0.00  -0.00    -0.00  -0.00   0.00
    14   1    -0.04   0.05   0.01     0.00  -0.00  -0.00     0.00  -0.00  -0.00
    15   6    -0.00  -0.00  -0.00     0.01   0.01   0.01    -0.00  -0.00  -0.00
    16   6    -0.00  -0.00   0.00    -0.00   0.00  -0.01    -0.00   0.00   0.00
    17   6     0.00   0.00  -0.00    -0.01  -0.01   0.01    -0.00  -0.00   0.00
    18   6    -0.00   0.00   0.00    -0.00  -0.00   0.00     0.00  -0.00  -0.00
    19   6    -0.00   0.00  -0.00    -0.00   0.01  -0.07     0.00  -0.00  -0.00
    20   6     0.00   0.00   0.00    -0.02  -0.03   0.02     0.00   0.00   0.00
    21   1     0.00   0.00   0.00    -0.07  -0.07  -0.07     0.00   0.00   0.00
    22   1    -0.00   0.00  -0.01     0.00  -0.02   0.13    -0.00   0.00  -0.00
    23   1    -0.01  -0.02   0.01     0.07   0.10  -0.05     0.00   0.00  -0.00
    24   1     0.00  -0.00   0.01     0.01  -0.14   0.84    -0.00  -0.00   0.00
    25   1     0.00   0.00   0.00     0.26   0.34  -0.18    -0.00  -0.00   0.00
    26   6    -0.00   0.00  -0.00    -0.00   0.00  -0.00    -0.05   0.03  -0.00
    27   6    -0.00   0.00   0.00     0.00   0.00   0.00     0.01   0.00   0.01
    28   6    -0.00   0.00   0.00     0.00  -0.00  -0.00    -0.00   0.01   0.01
    29   6    -0.00  -0.00   0.00     0.00   0.00   0.00    -0.00  -0.00  -0.00
    30   6    -0.00   0.00   0.00    -0.00  -0.00  -0.00     0.02   0.01   0.01
    31   6     0.00  -0.00  -0.00     0.00   0.00   0.00     0.01  -0.04  -0.02
    32   1     0.00  -0.00   0.00     0.00  -0.00   0.00     0.61  -0.30   0.02
    33   1     0.00   0.00   0.00    -0.00  -0.00  -0.00    -0.13  -0.07  -0.09
    34   1     0.00  -0.01  -0.01    -0.00   0.01   0.00     0.03  -0.16  -0.09
    35   1    -0.00  -0.00  -0.00     0.00   0.00   0.00    -0.22  -0.13  -0.16
    36   1    -0.00   0.00   0.00     0.00  -0.00  -0.00    -0.09   0.52   0.30
    37   6    -0.00  -0.00   0.00    -0.00  -0.00   0.00     0.00  -0.00  -0.00
    38   6    -0.00  -0.00   0.00    -0.00  -0.00  -0.00     0.00   0.00   0.00
    39   8     0.00  -0.00   0.00    -0.00   0.00  -0.00    -0.00   0.00  -0.00
    40   1     0.00  -0.00  -0.00    -0.00   0.00   0.00     0.00   0.00   0.00
    41   1     0.00   0.00  -0.00     0.00   0.00  -0.00    -0.00  -0.00  -0.00
    42   1    -0.00   0.00  -0.00     0.00  -0.00   0.00    -0.00   0.00  -0.00
                    109                    110                    111
                      A                      A                      A
 Frequencies --   3206.3573              3213.4130              3215.5722
 Red. masses --      1.0883                 1.0882                 1.0915
 Frc consts  --      6.5919                 6.6203                 6.6494
 IR Inten    --      0.1955                 6.0484                 3.3196
  Atom  AN      X      Y      Z        X      Y      Z        X      Y      Z
     1   6     0.00   0.00   0.00    -0.00   0.00   0.00    -0.00   0.00  -0.00
     2  15    -0.00  -0.00   0.00    -0.00   0.00  -0.00    -0.00  -0.00  -0.00
     3   1    -0.00   0.00   0.00    -0.00   0.00  -0.00     0.00  -0.00   0.00
     4   6     0.00   0.00  -0.00     0.00   0.03  -0.01    -0.00  -0.00   0.00
     5   6    -0.00  -0.00   0.00    -0.01  -0.00   0.01     0.00  -0.00  -0.00
     6   6     0.00  -0.00  -0.00    -0.01   0.01   0.00    -0.00   0.00   0.00
     7   6    -0.00  -0.00  -0.00     0.00  -0.00  -0.00     0.00  -0.00  -0.00
     8   6    -0.00   0.00   0.00    -0.03  -0.00   0.03     0.00   0.00  -0.00
     9   6     0.00  -0.00  -0.00     0.04  -0.05  -0.02    -0.00   0.00   0.00
    10   1    -0.00  -0.01   0.00    -0.04  -0.30   0.14     0.00   0.00  -0.00
    11   1     0.01   0.00  -0.01     0.12   0.02  -0.11    -0.00  -0.00   0.00
    12   1    -0.02   0.02   0.01     0.08  -0.10  -0.03     0.00  -0.00  -0.00
    13   1     0.00   0.00  -0.00     0.40   0.07  -0.36    -0.00  -0.00   0.00
    14   1    -0.00   0.01   0.00    -0.44   0.56   0.18     0.00  -0.00  -0.00
    15   6     0.01   0.00   0.01    -0.00  -0.00  -0.00    -0.00  -0.00  -0.00
    16   6     0.00   0.01  -0.04     0.00  -0.00   0.00     0.00  -0.00   0.00
    17   6    -0.04  -0.05   0.03     0.00   0.00  -0.00    -0.00  -0.00   0.00
    18   6     0.00   0.00  -0.00     0.00  -0.00   0.00    -0.00   0.00   0.00
    19   6     0.00  -0.00   0.02    -0.00   0.00  -0.00    -0.00   0.00  -0.00
    20   6    -0.00  -0.00  -0.00     0.00   0.00  -0.00     0.01   0.01  -0.00
    21   1    -0.07  -0.07  -0.07     0.00   0.00   0.00     0.02   0.02   0.02
    22   1     0.01  -0.09   0.49    -0.00   0.00  -0.01    -0.00   0.00  -0.02
    23   1     0.44   0.61  -0.32    -0.00  -0.00   0.00     0.02   0.02  -0.01
    24   1    -0.00   0.04  -0.21     0.00  -0.00   0.00     0.00  -0.01   0.05
    25   1    -0.00  -0.00   0.00    -0.00  -0.00   0.00    -0.06  -0.07   0.04
    26   6    -0.00   0.00  -0.00    -0.00   0.00   0.00    -0.04   0.02  -0.00
    27   6     0.00   0.00   0.00     0.00   0.00   0.00     0.02   0.01   0.01
    28   6     0.00  -0.00  -0.00     0.00  -0.00  -0.00    -0.00   0.01   0.00
    29   6     0.00   0.00   0.00    -0.00   0.00  -0.00    -0.00   0.00   0.00
    30   6    -0.00  -0.00  -0.00    -0.00  -0.00  -0.00    -0.04  -0.03  -0.03
    31   6     0.00   0.00   0.00     0.00  -0.00  -0.00    -0.00   0.03   0.02
    32   1     0.00  -0.00   0.00     0.00  -0.00   0.00     0.49  -0.24   0.02
    33   1    -0.00  -0.00  -0.00    -0.00  -0.00  -0.00    -0.21  -0.11  -0.14
    34   1    -0.00   0.00   0.00    -0.00   0.00   0.00     0.01  -0.07  -0.04
    35   1     0.00   0.00   0.00     0.00   0.00   0.00     0.49   0.28   0.34
    36   1     0.00  -0.00  -0.00    -0.00   0.00   0.00     0.06  -0.35  -0.20
    37   6     0.00   0.00   0.00     0.00  -0.00   0.00    -0.00  -0.00  -0.00
    38   6     0.00   0.00   0.00     0.00  -0.00   0.00    -0.00  -0.00   0.00
    39   8    -0.00   0.00  -0.00    -0.00  -0.00  -0.00    -0.00   0.00   0.00
    40   1     0.00   0.00   0.00    -0.00   0.00   0.00     0.00   0.00  -0.00
    41   1    -0.00  -0.00   0.00    -0.00  -0.00   0.00     0.00   0.00  -0.00
    42   1    -0.00   0.00  -0.00    -0.00   0.00  -0.00    -0.00   0.00  -0.00
                    112                    113                    114
                      A                      A                      A
 Frequencies --   3215.9042              3220.4318              3222.3932
 Red. masses --      1.0935                 1.0947                 1.0919
 Frc consts  --      6.6632                 6.6893                 6.6799
 IR Inten    --      5.6945                11.5277                11.7087
  Atom  AN      X      Y      Z        X      Y      Z        X      Y      Z
     1   6     0.00   0.00  -0.00    -0.00  -0.00  -0.00     0.00  -0.00  -0.00
     2  15     0.00   0.00   0.00     0.00   0.00  -0.00     0.00   0.00   0.00
     3   1     0.00  -0.00   0.00    -0.00  -0.00  -0.00     0.00  -0.00   0.00
     4   6     0.00   0.00  -0.00    -0.00  -0.00   0.00     0.01   0.03  -0.02
     5   6    -0.00  -0.00   0.00     0.00   0.00  -0.00    -0.04  -0.01   0.04
     6   6    -0.00   0.00   0.00    -0.00   0.00   0.00    -0.01   0.02   0.00
     7   6    -0.00   0.00   0.00     0.00   0.00   0.00    -0.00   0.00  -0.00
     8   6     0.00   0.00  -0.00     0.00  -0.00  -0.00     0.03   0.01  -0.03
     9   6     0.00  -0.00  -0.00     0.00  -0.00  -0.00    -0.00  -0.00   0.00
    10   1    -0.00  -0.00   0.00     0.00   0.00  -0.00    -0.06  -0.39   0.19
    11   1     0.00   0.00  -0.00    -0.00  -0.00   0.00     0.51   0.09  -0.46
    12   1     0.00  -0.00  -0.00     0.00  -0.00  -0.00     0.12  -0.15  -0.05
    13   1    -0.00  -0.00   0.00    -0.00  -0.00   0.00    -0.39  -0.07   0.35
    14   1    -0.00   0.00   0.00    -0.00   0.01   0.00     0.00  -0.00  -0.00
    15   6     0.02   0.02   0.01     0.01   0.01   0.01    -0.00  -0.00  -0.00
    16   6    -0.00   0.00  -0.01    -0.00   0.01  -0.07     0.00   0.00  -0.00
    17   6     0.01   0.02  -0.01     0.02   0.03  -0.01     0.00   0.00  -0.00
    18   6     0.00   0.00   0.00    -0.00  -0.00   0.00    -0.00  -0.00   0.00
    19   6     0.00  -0.01   0.04    -0.00   0.00  -0.01    -0.00   0.00  -0.00
    20   6    -0.04  -0.05   0.02     0.02   0.02  -0.01     0.00   0.00  -0.00
    21   1    -0.18  -0.18  -0.18    -0.12  -0.12  -0.13     0.00   0.00   0.00
    22   1     0.00  -0.02   0.12     0.02  -0.14   0.77    -0.00  -0.00   0.00
    23   1    -0.13  -0.18   0.09    -0.26  -0.36   0.19    -0.00  -0.00   0.00
    24   1    -0.01   0.07  -0.44     0.00  -0.01   0.09     0.00  -0.00   0.01
    25   1     0.44   0.57  -0.30    -0.17  -0.22   0.12    -0.00  -0.00   0.00
    26   6    -0.01   0.00  -0.00    -0.00   0.00  -0.00     0.00  -0.00   0.00
    27   6     0.00   0.00   0.00    -0.00  -0.00  -0.00    -0.00  -0.00  -0.00
    28   6    -0.00   0.00   0.00    -0.00   0.00   0.00     0.00  -0.00  -0.00
    29   6    -0.00   0.00   0.00    -0.00  -0.00  -0.00     0.00   0.00   0.00
    30   6    -0.00  -0.00  -0.00     0.00   0.00   0.00    -0.00  -0.00  -0.00
    31   6    -0.00   0.00   0.00    -0.00   0.00   0.00     0.00  -0.00  -0.00
    32   1     0.06  -0.03   0.00     0.00  -0.00   0.00    -0.00   0.00  -0.00
    33   1    -0.02  -0.01  -0.02     0.00   0.00   0.00     0.00   0.00   0.00
    34   1     0.00  -0.01  -0.01     0.00  -0.00  -0.00    -0.00   0.00   0.00
    35   1     0.06   0.03   0.04    -0.00  -0.00  -0.00     0.01   0.00   0.00
    36   1     0.01  -0.05  -0.03     0.00  -0.00  -0.00    -0.00   0.01   0.00
    37   6    -0.00   0.00  -0.00    -0.00   0.00  -0.00    -0.00   0.00  -0.00
    38   6     0.00   0.00   0.00    -0.00  -0.00   0.00    -0.00   0.00  -0.00
    39   8     0.00  -0.00   0.00     0.00  -0.00   0.00     0.00   0.00   0.00
    40   1     0.00  -0.00  -0.00     0.00  -0.00  -0.00     0.00  -0.00  -0.00
    41   1    -0.00  -0.00  -0.00     0.00   0.00  -0.00     0.00   0.00  -0.00
    42   1    -0.00   0.00  -0.00    -0.00   0.00  -0.00     0.00  -0.00   0.00
                    115                    116                    117
                      A                      A                      A
 Frequencies --   3224.4514              3226.0431              3230.8448
 Red. masses --      1.0957                 1.0959                 1.0984
 Frc consts  --      6.7122                 6.7196                 6.7555
 IR Inten    --     11.9219                10.5279                14.8430
  Atom  AN      X      Y      Z        X      Y      Z        X      Y      Z
     1   6    -0.00   0.00  -0.00    -0.00   0.00   0.00     0.00  -0.00   0.00
     2  15    -0.00  -0.00  -0.00    -0.00   0.00  -0.00     0.00  -0.00  -0.00
     3   1     0.00  -0.00   0.00    -0.00   0.00  -0.00    -0.00   0.00  -0.00
     4   6    -0.00  -0.00   0.00     0.00  -0.00  -0.00     0.00   0.00  -0.00
     5   6     0.00   0.00  -0.00    -0.03  -0.01   0.03     0.00   0.00  -0.00
     6   6     0.00  -0.00  -0.00    -0.01   0.01   0.00     0.00  -0.00  -0.00
     7   6     0.00  -0.00   0.00     0.00  -0.00  -0.00    -0.00   0.00   0.00
     8   6     0.00   0.00  -0.00    -0.04  -0.01   0.04     0.00   0.00  -0.00
     9   6     0.00  -0.00  -0.00    -0.03   0.04   0.01     0.00  -0.00   0.00
    10   1     0.00   0.01  -0.00     0.00   0.04  -0.02    -0.00  -0.01   0.00
    11   1    -0.01  -0.00   0.01     0.36   0.06  -0.32    -0.00  -0.00   0.00
    12   1    -0.00   0.00   0.00     0.07  -0.09  -0.03    -0.00   0.00   0.00
    13   1    -0.00  -0.00   0.00     0.47   0.09  -0.42    -0.00  -0.00   0.00
    14   1    -0.00   0.01   0.00     0.34  -0.44  -0.14    -0.00   0.00   0.00
    15   6     0.00   0.00   0.00     0.00   0.00   0.00    -0.00  -0.00  -0.00
    16   6    -0.00  -0.00  -0.00    -0.00   0.00  -0.00     0.00   0.00   0.00
    17   6     0.00   0.00  -0.00     0.00   0.00  -0.00    -0.00  -0.00   0.00
    18   6    -0.00   0.00   0.00     0.00   0.00   0.00     0.00  -0.00  -0.00
    19   6    -0.00   0.00   0.00    -0.00  -0.00   0.00     0.00   0.00  -0.00
    20   6    -0.00  -0.00   0.00    -0.00  -0.00   0.00     0.00   0.00   0.00
    21   1    -0.00  -0.00  -0.00    -0.00  -0.00  -0.00     0.00   0.00   0.01
    22   1     0.00  -0.00   0.00     0.00  -0.00   0.00    -0.00   0.00  -0.00
    23   1    -0.00  -0.00   0.00    -0.00  -0.00   0.00     0.00   0.00  -0.00
    24   1     0.00   0.00  -0.00    -0.00   0.00  -0.00    -0.00  -0.00   0.00
    25   1     0.00   0.00  -0.00     0.00   0.00  -0.00    -0.00  -0.00   0.00
    26   6     0.01  -0.00   0.00    -0.00   0.00   0.00    -0.04   0.02  -0.00
    27   6    -0.03  -0.02  -0.02    -0.00  -0.00  -0.00    -0.05  -0.03  -0.04
    28   6     0.00  -0.01  -0.00     0.00  -0.00  -0.00     0.01  -0.01  -0.01
    29   6    -0.00   0.00   0.00     0.00   0.00  -0.00     0.00  -0.00   0.00
    30   6    -0.04  -0.02  -0.03    -0.00  -0.00  -0.00     0.01   0.01   0.01
    31   6     0.01  -0.05  -0.03     0.00  -0.00  -0.00    -0.00   0.02   0.01
    32   1    -0.09   0.04  -0.01     0.00  -0.00   0.00     0.39  -0.19   0.01
    33   1     0.33   0.18   0.23     0.01   0.00   0.00     0.59   0.34   0.41
    34   1    -0.02   0.08   0.05    -0.00   0.00   0.00    -0.03   0.14   0.08
    35   1     0.48   0.27   0.34     0.00   0.00   0.00    -0.15  -0.09  -0.11
    36   1    -0.09   0.51   0.29    -0.00   0.00   0.00     0.04  -0.27  -0.15
    37   6    -0.00   0.00  -0.00     0.00  -0.00   0.00     0.00  -0.00   0.00
    38   6    -0.00   0.00  -0.00     0.00  -0.00   0.00    -0.00  -0.00  -0.00
    39   8     0.00  -0.00   0.00    -0.00   0.00  -0.00    -0.00   0.00  -0.00
    40   1     0.00  -0.00  -0.00    -0.00   0.00   0.00    -0.00   0.00   0.00
    41   1     0.00   0.00  -0.00    -0.00  -0.00   0.00    -0.00  -0.00   0.00
    42   1     0.00  -0.00   0.00    -0.00   0.00  -0.00     0.00  -0.00   0.00
                    118                    119                    120
                      A                      A                      A
 Frequencies --   3239.3241              3240.1555              3250.9976
 Red. masses --      1.0983                 1.0973                 1.0903
 Frc consts  --      6.7900                 6.7872                 6.7893
 IR Inten    --     25.3413                18.0826                 2.6061
  Atom  AN      X      Y      Z        X      Y      Z        X      Y      Z
     1   6     0.00  -0.00   0.00    -0.00   0.00  -0.00    -0.06   0.03  -0.06
     2  15     0.00   0.00  -0.00     0.00   0.00   0.00    -0.00   0.00   0.00
     3   1    -0.00   0.00  -0.00     0.00  -0.00   0.00     0.63  -0.33   0.70
     4   6    -0.01  -0.07   0.03     0.00   0.00  -0.00    -0.00  -0.00   0.00
     5   6    -0.03  -0.00   0.03     0.00   0.00  -0.00    -0.00  -0.00   0.00
     6   6    -0.00   0.01   0.00     0.00  -0.00  -0.00    -0.00   0.00   0.00
     7   6     0.00   0.00  -0.00    -0.00  -0.00   0.00    -0.00  -0.00  -0.00
     8   6     0.01   0.00  -0.01    -0.00  -0.00   0.00    -0.00  -0.00   0.00
     9   6     0.02  -0.02  -0.01    -0.00   0.00   0.00     0.00  -0.00  -0.00
    10   1     0.11   0.73  -0.35    -0.01  -0.04   0.02     0.00   0.00  -0.00
    11   1     0.32   0.05  -0.29    -0.02  -0.00   0.02     0.00   0.00  -0.00
    12   1     0.05  -0.06  -0.02    -0.00   0.00   0.00     0.00  -0.00  -0.00
    13   1    -0.07  -0.01   0.06     0.01   0.00  -0.01     0.00   0.00  -0.00
    14   1    -0.20   0.26   0.08     0.01  -0.02  -0.01    -0.00   0.00   0.00
    15   6    -0.00  -0.00  -0.00    -0.05  -0.05  -0.05     0.00   0.00   0.00
    16   6     0.00   0.00  -0.00     0.00   0.01  -0.03    -0.00  -0.00   0.00
    17   6     0.00   0.00  -0.00     0.00   0.01  -0.00    -0.00  -0.00   0.00
    18   6     0.00  -0.00   0.00     0.00   0.00   0.00    -0.00   0.00   0.00
    19   6     0.00   0.00   0.00     0.00   0.00   0.00     0.00   0.00  -0.00
    20   6    -0.00  -0.00   0.00    -0.01  -0.02   0.01     0.00   0.00  -0.00
    21   1     0.03   0.03   0.03     0.52   0.51   0.54    -0.00  -0.00  -0.00
    22   1     0.00  -0.00   0.02     0.00  -0.06   0.30    -0.00   0.00  -0.00
    23   1    -0.00  -0.00   0.00    -0.04  -0.05   0.03     0.00   0.00  -0.00
    24   1    -0.00   0.00  -0.00    -0.00   0.01  -0.05     0.00   0.00   0.00
    25   1     0.01   0.01  -0.01     0.14   0.19  -0.10    -0.00  -0.00   0.00
    26   6    -0.00   0.00  -0.00     0.00  -0.00   0.00    -0.00   0.00   0.00
    27   6    -0.00  -0.00  -0.00     0.00   0.00   0.00    -0.00  -0.00  -0.00
    28   6     0.00  -0.00  -0.00    -0.00   0.00   0.00     0.00  -0.00  -0.00
    29   6    -0.00  -0.00  -0.00    -0.00  -0.00  -0.00     0.00  -0.00  -0.00
    30   6     0.00   0.00   0.00    -0.00  -0.00  -0.00     0.00   0.00   0.00
    31   6    -0.00   0.00   0.00     0.00  -0.00  -0.00    -0.00   0.00   0.00
    32   1     0.00  -0.00   0.00    -0.00   0.00  -0.00     0.00  -0.00  -0.00
    33   1     0.00   0.00   0.00    -0.00  -0.00  -0.00     0.00   0.00   0.00
    34   1    -0.00   0.00   0.00     0.00  -0.00  -0.00    -0.00   0.00   0.00
    35   1    -0.00  -0.00  -0.00     0.00   0.00   0.00    -0.00  -0.00  -0.00
    36   1     0.00  -0.00  -0.00    -0.00   0.00   0.00     0.00  -0.00  -0.00
    37   6    -0.00   0.00  -0.00    -0.00   0.00   0.00     0.00  -0.00  -0.00
    38   6    -0.00   0.00  -0.00     0.00   0.00   0.00    -0.00   0.00  -0.00
    39   8     0.00  -0.00   0.00     0.00  -0.00   0.00     0.00  -0.00   0.00
    40   1    -0.00  -0.00   0.00     0.00  -0.00  -0.00     0.00  -0.01  -0.00
    41   1    -0.00  -0.00   0.00     0.00   0.00  -0.00     0.00   0.00   0.00
    42   1     0.00  -0.00   0.00    -0.00   0.00  -0.00     0.03  -0.01   0.02

 -------------------
 - Thermochemistry -
 -------------------
 Temperature   298.150 Kelvin.  Pressure   1.00000 Atm.
 Atom     1 has atomic number  6 and mass  12.00000
 Atom     2 has atomic number 15 and mass  30.97376
 Atom     3 has atomic number  1 and mass   1.00783
 Atom     4 has atomic number  6 and mass  12.00000
 Atom     5 has atomic number  6 and mass  12.00000
 Atom     6 has atomic number  6 and mass  12.00000
 Atom     7 has atomic number  6 and mass  12.00000
 Atom     8 has atomic number  6 and mass  12.00000
 Atom     9 has atomic number  6 and mass  12.00000
 Atom    10 has atomic number  1 and mass   1.00783
 Atom    11 has atomic number  1 and mass   1.00783
 Atom    12 has atomic number  1 and mass   1.00783
 Atom    13 has atomic number  1 and mass   1.00783
 Atom    14 has atomic number  1 and mass   1.00783
 Atom    15 has atomic number  6 and mass  12.00000
 Atom    16 has atomic number  6 and mass  12.00000
 Atom    17 has atomic number  6 and mass  12.00000
 Atom    18 has atomic number  6 and mass  12.00000
 Atom    19 has atomic number  6 and mass  12.00000
 Atom    20 has atomic number  6 and mass  12.00000
 Atom    21 has atomic number  1 and mass   1.00783
 Atom    22 has atomic number  1 and mass   1.00783
 Atom    23 has atomic number  1 and mass   1.00783
 Atom    24 has atomic number  1 and mass   1.00783
 Atom    25 has atomic number  1 and mass   1.00783
 Atom    26 has atomic number  6 and mass  12.00000
 Atom    27 has atomic number  6 and mass  12.00000
 Atom    28 has atomic number  6 and mass  12.00000
 Atom    29 has atomic number  6 and mass  12.00000
 Atom    30 has atomic number  6 and mass  12.00000
 Atom    31 has atomic number  6 and mass  12.00000
 Atom    32 has atomic number  1 and mass   1.00783
 Atom    33 has atomic number  1 and mass   1.00783
 Atom    34 has atomic number  1 and mass   1.00783
 Atom    35 has atomic number  1 and mass   1.00783
 Atom    36 has atomic number  1 and mass   1.00783
 Atom    37 has atomic number  6 and mass  12.00000
 Atom    38 has atomic number  6 and mass  12.00000
 Atom    39 has atomic number  8 and mass  15.99491
 Atom    40 has atomic number  1 and mass   1.00783
 Atom    41 has atomic number  1 and mass   1.00783
 Atom    42 has atomic number  1 and mass   1.00783
 Molecular mass:   318.11735 amu.
 Principal axes and moments of inertia in atomic units:
                           1         2         3
     Eigenvalues --  7372.402507768.986989316.01780
           X            0.99922   0.03444  -0.01945
           Y           -0.03442   0.99941   0.00125
           Z            0.01948  -0.00058   0.99981
 This molecule is an asymmetric top.
 Rotational symmetry number  1.
 Warning -- assumption of classical behavior for rotation
           may cause significant error
 Rotational temperatures (Kelvin)      0.01175     0.01115     0.00930
 Rotational constants (GHZ):           0.24480     0.23230     0.19372
    1 imaginary frequencies ignored.
 Zero-point vibrational energy     893721.7 (Joules/Mol)
                                  213.60462 (Kcal/Mol)
 Warning -- explicit consideration of  29 degrees of freedom as
           vibrations may cause significant error
 Vibrational temperatures:     43.51    57.01    65.24    75.22    80.17
          (Kelvin)             95.64   101.55   117.84   164.77   222.97
                              275.29   286.67   328.63   355.55   370.93
                              393.02   422.62   442.76   581.11   582.10
                              587.18   616.96   646.46   664.09   726.75
                              741.07   757.59   814.86   864.94   896.46
                              899.66   900.85   911.44  1006.53  1017.31
                             1018.24  1024.94  1045.88  1052.72  1099.43
                             1105.48  1115.70  1254.27  1259.50  1269.16
                             1289.11  1373.15  1380.95  1392.80  1400.04
                             1441.13  1452.54  1455.24  1455.97  1457.09
                             1459.59  1465.85  1484.33  1492.69  1495.23
                             1499.57  1526.48  1529.94  1531.07  1603.49
                             1608.43  1612.64  1637.77  1648.31  1649.34
                             1692.10  1696.67  1696.81  1703.91  1732.97
                             1747.45  1752.73  1913.27  1913.89  1922.67
                             1951.23  1961.75  1967.00  1982.44  2052.92
                             2114.69  2133.82  2135.04  2137.43  2139.48
                             2199.65  2205.91  2206.80  2325.56  2387.69
                             2391.01  2393.50  2406.26  2407.40  2414.30
                             4410.65  4522.34  4551.44  4597.45  4601.94
                             4605.73  4612.21  4613.23  4623.38  4626.49
                             4626.97  4633.48  4636.31  4639.27  4641.56
                             4648.47  4660.66  4661.86  4677.46
 
 Zero-point correction=                           0.340401 (Hartree/Particle)
 Thermal correction to Energy=                    0.360505
 Thermal correction to Enthalpy=                  0.361449
 Thermal correction to Gibbs Free Energy=         0.289886
 Sum of electronic and zero-point Energies=          -1227.533594
 Sum of electronic and thermal Energies=             -1227.513489
 Sum of electronic and thermal Enthalpies=           -1227.512545
 Sum of electronic and thermal Free Energies=        -1227.584109
 
                     E (Thermal)             CV                S
                      KCal/Mol        Cal/Mol-Kelvin    Cal/Mol-Kelvin
 Total                  226.220             78.237            150.618
 Electronic               0.000              0.000              0.000
 Translational            0.889              2.981             43.168
 Rotational               0.889              2.981             34.633
 Vibrational            224.443             72.275             72.818
 Vibration     1          0.594              1.984              5.813
 Vibration     2          0.594              1.981              5.278
 Vibration     3          0.595              1.979              5.011
 Vibration     4          0.596              1.977              4.729
 Vibration     5          0.596              1.975              4.603
 Vibration     6          0.598              1.970              4.255
 Vibration     7          0.598              1.968              4.137
 Vibration     8          0.600              1.962              3.845
 Vibration     9          0.607              1.937              3.191
 Vibration    10          0.620              1.897              2.610
 Vibration    11          0.634              1.852              2.215
 Vibration    12          0.637              1.841              2.140
 Vibration    13          0.651              1.798              1.891
 Vibration    14          0.661              1.768              1.751
 Vibration    15          0.667              1.750              1.677
 Vibration    16          0.676              1.723              1.576
 Vibration    17          0.689              1.685              1.452
 Vibration    18          0.698              1.659              1.375
 Vibration    19          0.769              1.462              0.948
 Vibration    20          0.770              1.460              0.946
 Vibration    21          0.773              1.453              0.933
 Vibration    22          0.790              1.408              0.863
 Vibration    23          0.808              1.362              0.798
 Vibration    24          0.819              1.335              0.762
 Vibration    25          0.860              1.239              0.645
 Vibration    26          0.870              1.217              0.621
 Vibration    27          0.882              1.191              0.595
 Vibration    28          0.922              1.104              0.511
 Vibration    29          0.959              1.029              0.448
                       Q            Log10(Q)             Ln(Q)
 Total Bot       0.459083-133       -133.338109       -307.022342
 Total V=0       0.171858D+24         23.235171         53.500958
 Vib (Bot)       0.248948-148       -148.603891       -342.173105
 Vib (Bot)    1  0.684577D+01          0.835422          1.923631
 Vib (Bot)    2  0.522216D+01          0.717850          1.652911
 Vib (Bot)    3  0.456081D+01          0.659042          1.517501
 Vib (Bot)    4  0.395333D+01          0.596964          1.374560
 Vib (Bot)    5  0.370778D+01          0.569114          1.310435
 Vib (Bot)    6  0.310411D+01          0.491937          1.132726
 Vib (Bot)    7  0.292191D+01          0.465667          1.072238
 Vib (Bot)    8  0.251379D+01          0.400329          0.921791
 Vib (Bot)    9  0.178672D+01          0.252055          0.580379
 Vib (Bot)   10  0.130649D+01          0.116105          0.267341
 Vib (Bot)   11  0.104551D+01          0.019328          0.044504
 Vib (Bot)   12  0.100105D+01          0.000457          0.001051
 Vib (Bot)   13  0.862892D+00         -0.064044         -0.147466
 Vib (Bot)   14  0.790846D+00         -0.101908         -0.234652
 Vib (Bot)   15  0.754210D+00         -0.122508         -0.282084
 Vib (Bot)   16  0.706343D+00         -0.150984         -0.347654
 Vib (Bot)   17  0.649701D+00         -0.187286         -0.431242
 Vib (Bot)   18  0.615281D+00         -0.210926         -0.485676
 Vib (Bot)   19  0.440041D+00         -0.356507         -0.820888
 Vib (Bot)   20  0.439069D+00         -0.357467         -0.823099
 Vib (Bot)   21  0.434123D+00         -0.362387         -0.834428
 Vib (Bot)   22  0.406712D+00         -0.390713         -0.899649
 Vib (Bot)   23  0.381880D+00         -0.418074         -0.962650
 Vib (Bot)   24  0.368028D+00         -0.434120         -0.999597
 Vib (Bot)   25  0.323897D+00         -0.489594         -1.127331
 Vib (Bot)   26  0.314797D+00         -0.501970         -1.155828
 Vib (Bot)   27  0.304703D+00         -0.516123         -1.188418
 Vib (Bot)   28  0.272726D+00         -0.564274         -1.299288
 Vib (Bot)   29  0.248089D+00         -0.605392         -1.393967
 Vib (V=0)       0.931941D+08          7.969388         18.350195
 Vib (V=0)    1  0.736400D+01          0.867114          1.996604
 Vib (V=0)    2  0.574604D+01          0.759369          1.748512
 Vib (V=0)    3  0.508814D+01          0.706559          1.626912
 Vib (V=0)    4  0.448483D+01          0.651746          1.500700
 Vib (V=0)    5  0.424135D+01          0.627504          1.444881
 Vib (V=0)    6  0.364412D+01          0.561593          1.293115
 Vib (V=0)    7  0.346438D+01          0.539626          1.242534
 Vib (V=0)    8  0.306303D+01          0.486151          1.119405
 Vib (V=0)    9  0.235536D+01          0.372057          0.856693
 Vib (V=0)   10  0.189889D+01          0.278501          0.641272
 Vib (V=0)   11  0.165892D+01          0.219825          0.506165
 Vib (V=0)   12  0.161897D+01          0.209240          0.481793
 Vib (V=0)   13  0.149729D+01          0.175305          0.403655
 Vib (V=0)   14  0.143565D+01          0.157048          0.361617
 Vib (V=0)   15  0.140489D+01          0.147644          0.339962
 Vib (V=0)   16  0.136540D+01          0.135261          0.311449
 Vib (V=0)   17  0.131982D+01          0.120516          0.277499
 Vib (V=0)   18  0.129282D+01          0.111540          0.256829
 Vib (V=0)   19  0.116606D+01          0.066721          0.153631
 Vib (V=0)   20  0.116542D+01          0.066482          0.153080
 Vib (V=0)   21  0.116217D+01          0.065268          0.150285
 Vib (V=0)   22  0.114453D+01          0.058626          0.134991
 Vib (V=0)   23  0.112915D+01          0.052752          0.121467
 Vib (V=0)   24  0.112084D+01          0.049544          0.114080
 Vib (V=0)   25  0.109574D+01          0.039708          0.091432
 Vib (V=0)   26  0.109084D+01          0.037763          0.086952
 Vib (V=0)   27  0.108553D+01          0.035641          0.082067
 Vib (V=0)   28  0.106954D+01          0.029198          0.067232
 Vib (V=0)   29  0.105817D+01          0.024553          0.056536
 Electronic      0.100000D+01          0.000000          0.000000
 Translational   0.223015D+09          8.348335         19.222752
 Rotational      0.826889D+07          6.917447         15.928011
 ***** Axes restored to original set *****
 -------------------------------------------------------------------
 Center     Atomic                   Forces (Hartrees/Bohr)
 Number     Number              X              Y              Z
 -------------------------------------------------------------------
      1        6           0.000011374   -0.000011431   -0.000011737
      2       15          -0.000006383    0.000006059    0.000015884
      3        1           0.000002936   -0.000003022   -0.000003544
      4        6           0.000005866   -0.000009545   -0.000001470
      5        6           0.000008478   -0.000004987   -0.000005921
      6        6           0.000001676    0.000001764   -0.000001006
      7        6           0.000003606   -0.000011246   -0.000006333
      8        6           0.000000918   -0.000008343    0.000001683
      9        6           0.000006691   -0.000015676   -0.000006584
     10        1           0.000006183   -0.000012615   -0.000006142
     11        1           0.000007929   -0.000002539   -0.000006244
     12        1           0.000009772   -0.000000172   -0.000004571
     13        1           0.000004074   -0.000014882   -0.000004118
     14        1           0.000003665   -0.000018122   -0.000003275
     15        6          -0.000015621    0.000003663    0.000008426
     16        6          -0.000015305    0.000003759    0.000011363
     17        6          -0.000000839    0.000005860    0.000001843
     18        6          -0.000007057    0.000008541    0.000002331
     19        6          -0.000005451    0.000012475   -0.000000189
     20        6          -0.000017102    0.000003243    0.000007697
     21        1          -0.000019211    0.000007427    0.000013017
     22        1          -0.000014600    0.000005568    0.000008935
     23        1          -0.000007592    0.000002430    0.000005028
     24        1          -0.000011690    0.000002812    0.000007159
     25        1          -0.000017712    0.000005342    0.000010601
     26        6           0.000011582    0.000016090   -0.000005058
     27        6           0.000013195    0.000011765   -0.000006712
     28        6           0.000010234    0.000005513   -0.000005334
     29        6          -0.000000814    0.000004256   -0.000004497
     30        6           0.000003184    0.000008756    0.000002090
     31        6           0.000004328    0.000015071   -0.000002748
     32        1           0.000014131    0.000019101   -0.000006511
     33        1           0.000017300    0.000008358   -0.000009117
     34        1           0.000010754    0.000002558   -0.000006709
     35        1          -0.000001355    0.000013229    0.000003472
     36        1           0.000005521    0.000019551    0.000000017
     37        6          -0.000025344    0.000014530   -0.000002278
     38        6          -0.000005729   -0.000011337   -0.000004125
     39        8           0.000011111   -0.000040351    0.000015053
     40        1           0.000001698   -0.000018774    0.000000234
     41        1          -0.000005531   -0.000013699    0.000000298
     42        1           0.000001129   -0.000010980   -0.000000909
 -------------------------------------------------------------------
 Cartesian Forces:  Max     0.000040351 RMS     0.000010007
 Z-matrix is all fixed cartesians, so copy forces.
 Leave Link  716 at Sun Sep 27 20:26:04 2026, MaxMem= 12884901888 cpu:               0.2 elap:               0.0
 (Enter /opt/apps/Gaussian/G16C/g16/l103.exe)

 GradGradGradGradGradGradGradGradGradGradGradGradGradGradGradGradGradGrad
 Berny optimization.
 Search for a local minimum.
 Step number   1 out of a maximum of    2
 All quantities printed in internal units (Hartrees-Bohrs-Radians)
 Second derivative matrix not updated -- analytic derivatives used.
 ITU=  0
     Eigenvalues ---   -0.00001   0.00012   0.00014   0.00027   0.00045
     Eigenvalues ---    0.00050   0.00072   0.00084   0.00107   0.00404
     Eigenvalues ---    0.00568   0.00624   0.00674   0.00928   0.01019
     Eigenvalues ---    0.01261   0.01406   0.01410   0.01428   0.01441
     Eigenvalues ---    0.01468   0.01525   0.02475   0.02600   0.02672
     Eigenvalues ---    0.03183   0.03299   0.03426   0.03778   0.03973
     Eigenvalues ---    0.04753   0.04812   0.05176   0.05188   0.05234
     Eigenvalues ---    0.05246   0.05280   0.05318   0.06035   0.06095
     Eigenvalues ---    0.06188   0.07020   0.07104   0.07265   0.08036
     Eigenvalues ---    0.08648   0.08933   0.09040   0.09534   0.09589
     Eigenvalues ---    0.09671   0.09978   0.10005   0.10038   0.10405
     Eigenvalues ---    0.10645   0.11817   0.11900   0.13001   0.17469
     Eigenvalues ---    0.18294   0.18359   0.18434   0.18522   0.18838
     Eigenvalues ---    0.19240   0.19795   0.20500   0.20544   0.20589
     Eigenvalues ---    0.21071   0.21917   0.22767   0.23634   0.23964
     Eigenvalues ---    0.27426   0.28302   0.29151   0.29389   0.29497
     Eigenvalues ---    0.33027   0.40492   0.41256   0.42081   0.43854
     Eigenvalues ---    0.44333   0.50022   0.58816   0.60740   0.61175
     Eigenvalues ---    0.67205   0.69116   0.69129   0.69244   0.80487
     Eigenvalues ---    0.80943   0.80971   0.81058   0.82846   0.85683
     Eigenvalues ---    0.87718   0.87851   0.87960   1.01059   1.01182
     Eigenvalues ---    1.01241   1.02200   1.11129   1.11309   1.11406
     Eigenvalues ---    1.13775   1.13917   1.14522   1.30545   1.31054
     Eigenvalues ---    1.31256   1.31642   1.32105   1.32459   1.32707
 Eigenvalue     1 is  -1.26D-05 should be greater than     0.000000 Eigenvector:
                          X25       X24       X23       X22       Z22
   1                    0.30653   0.29873  -0.28361  -0.28123   0.20569
                          Z34       Z33       Z23       X20       Z36
   1                    0.19752   0.19092   0.17429   0.17392  -0.17089
 Angle between quadratic step and forces=  88.00 degrees.
 Linear search not attempted -- first point.
 B after Tr=     0.001307    0.000777   -0.000032
         Rot=    1.000000   -0.000042    0.000132   -0.000018 Ang=  -0.02 deg.
 Variable       Old X    -DE/DX   Delta X   Delta X   Delta X     New X
                                 (Linear)    (Quad)   (Total)
    X1        0.74473   0.00001   0.00000   0.00937   0.01046   0.75518
    Y1        0.27337  -0.00001   0.00000   0.00196   0.00270   0.27607
    Z1        0.79154  -0.00001   0.00000  -0.00078  -0.00059   0.79096
    X2        0.82002  -0.00001   0.00000   0.00219   0.00245   0.82247
    Y2       -0.23927   0.00001   0.00000   0.00305   0.00352  -0.23575
    Z2        4.01887   0.00002   0.00000  -0.00045  -0.00028   4.01858
    X3       -0.55441   0.00000   0.00000   0.01231   0.01354  -0.54088
    Y3        1.69373  -0.00000   0.00000   0.00217   0.00292   1.69665
    Z3        0.09921  -0.00000   0.00000  -0.00586  -0.00589   0.09332
    X4        8.16544   0.00001   0.00000  -0.00582  -0.00672   8.15872
    Y4        2.09452  -0.00001   0.00000   0.00374   0.00413   2.09865
    Z4        8.08782  -0.00000   0.00000   0.01247   0.01476   8.10258
    X5        5.85486   0.00001   0.00000  -0.00808  -0.00931   5.84554
    Y5        2.35736  -0.00000   0.00000   0.00392   0.00413   2.36149
    Z5        9.32713  -0.00001   0.00000   0.00832   0.01003   9.33716
    X6        3.62240   0.00000   0.00000  -0.00585  -0.00674   3.61565
    Y6        1.66671   0.00000   0.00000   0.00324   0.00347   1.67018
    Z6        8.11040  -0.00000   0.00000   0.00457   0.00563   8.11603
    X7        3.70606   0.00000   0.00000  -0.00105  -0.00126   3.70481
    Y7        0.70295  -0.00001   0.00000   0.00253   0.00297   0.70591
    Z7        5.64860  -0.00001   0.00000   0.00506   0.00606   5.65466
    X8        6.02560   0.00000   0.00000   0.00117   0.00130   6.02690
    Y8        0.44252  -0.00001   0.00000   0.00166   0.00228   0.44480
    Z8        4.40305   0.00000   0.00000   0.00943   0.01102   4.41407
    X9        8.24814   0.00001   0.00000  -0.00113  -0.00135   8.24679
    Y9        1.14005  -0.00002   0.00000   0.00246   0.00306   1.14311
    Z9        5.63136  -0.00001   0.00000   0.01312   0.01535   5.64671
   X10        9.90226   0.00001   0.00000  -0.00753  -0.00870   9.89356
   Y10        2.63930  -0.00001   0.00000   0.00430   0.00468   2.64398
   Z10        9.03399  -0.00001   0.00000   0.01530   0.01809   9.05209
   X11        5.78495   0.00001   0.00000  -0.01139  -0.01316   5.77180
   Y11        3.10563  -0.00000   0.00000   0.00448   0.00453   3.11015
   Z11       11.23526  -0.00001   0.00000   0.00797   0.00972  11.24498
   X12        1.82343   0.00001   0.00000  -0.00772  -0.00887   1.81456
   Y12        1.89382  -0.00000   0.00000   0.00226   0.00235   1.89617
   Z12        9.07585  -0.00000   0.00000   0.00136   0.00196   9.07782
   X13        6.07092   0.00000   0.00000   0.00451   0.00517   6.07609
   Y13       -0.32701  -0.00001   0.00000   0.00046   0.00124  -0.32577
   Z13        2.50034  -0.00000   0.00000   0.00994   0.01148   2.51182
   X14       10.04695   0.00000   0.00000   0.00068   0.00072  10.04767
   Y14        0.94043  -0.00002   0.00000   0.00189   0.00263   0.94306
   Z14        4.66661  -0.00000   0.00000   0.01659   0.01928   4.68589
   X15       -0.98824  -0.00002   0.00000  -0.00222  -0.00226  -0.99050
   Y15       -8.44791   0.00000   0.00000   0.00078   0.00101  -8.44690
   Z15        6.27347   0.00001   0.00000  -0.01375  -0.01474   6.25873
   X16        0.47972  -0.00002   0.00000   0.03386   0.03334   0.51306
   Y16       -6.96099   0.00000   0.00000  -0.01692  -0.01678  -6.97777
   Z16        7.87856   0.00001   0.00000  -0.03059  -0.03106   7.84749
   X17        1.09003  -0.00000   0.00000   0.03485   0.03443   1.12446
   Y17       -4.48969   0.00001   0.00000  -0.01563  -0.01541  -4.50510
   Z17        7.19754   0.00000   0.00000  -0.02590  -0.02601   7.17153
   X18        0.21651  -0.00001   0.00000   0.00025   0.00039   0.21691
   Y18       -3.50542   0.00001   0.00000   0.00269   0.00307  -3.50235
   Z18        4.90745   0.00000   0.00000  -0.00457  -0.00484   4.90262
   X19       -1.24078  -0.00001   0.00000  -0.03666  -0.03604  -1.27683
   Y19       -5.00173   0.00001   0.00000   0.02052   0.02098  -4.98075
   Z19        3.29124  -0.00000   0.00000   0.01198   0.01119   3.30243
   X20       -1.84292  -0.00002   0.00000  -0.03795  -0.03743  -1.88035
   Y20       -7.47004   0.00000   0.00000   0.01975   0.02013  -7.44991
   Z20        3.97856   0.00001   0.00000   0.00749   0.00634   3.98490
   X21       -1.45459  -0.00002   0.00000  -0.00336  -0.00347  -1.45806
   Y21      -10.37425   0.00001   0.00000   0.00010   0.00026 -10.37399
   Z21        6.80218   0.00001   0.00000  -0.01730  -0.01858   6.78360
   X22        1.16151  -0.00001   0.00000   0.06095   0.06000   1.22150
   Y22       -7.72338   0.00001   0.00000  -0.03129  -0.03127  -7.75464
   Z22        9.65607   0.00001   0.00000  -0.04711  -0.04747   9.60860
   X23        2.25178  -0.00001   0.00000   0.06250   0.06171   2.31349
   Y23       -3.34690   0.00000   0.00000  -0.02928  -0.02912  -3.37602
   Z23        8.44625   0.00001   0.00000  -0.03913  -0.03883   8.40742
   X24       -1.87775  -0.00001   0.00000  -0.06491  -0.06386  -1.94161
   Y24       -4.23125   0.00000   0.00000   0.03441   0.03499  -4.19626
   Z24        1.49734   0.00001   0.00000   0.02789   0.02700   1.52434
   X25       -2.96515  -0.00002   0.00000  -0.06751  -0.06662  -3.03177
   Y25       -8.63361   0.00001   0.00000   0.03409   0.03453  -8.59908
   Z25        2.71643   0.00001   0.00000   0.02049   0.01895   2.73537
   X26       -5.47543   0.00001   0.00000  -0.00136  -0.00216  -5.47760
   Y26        4.72711   0.00002   0.00000  -0.00085  -0.00088   4.72623
   Z26        7.40057  -0.00001   0.00000  -0.00107  -0.00215   7.39843
   X27       -3.44374   0.00001   0.00000  -0.01554  -0.01604  -3.45978
   Y27        5.81748   0.00001   0.00000  -0.00141  -0.00126   5.81622
   Z27        6.11690  -0.00001   0.00000  -0.02390  -0.02435   6.09255
   X28       -1.54611   0.00001   0.00000  -0.01530  -0.01548  -1.56159
   Y28        4.29273   0.00001   0.00000  -0.00028   0.00002   4.29275
   Z28        5.12405  -0.00001   0.00000  -0.02524  -0.02533   5.09872
   X29       -1.67552  -0.00000   0.00000  -0.00079  -0.00097  -1.67649
   Y29        1.66371   0.00000   0.00000   0.00142   0.00169   1.66540
   Z29        5.41152  -0.00000   0.00000  -0.00369  -0.00403   5.40749
   X30       -3.70454   0.00000   0.00000   0.01348   0.01299  -3.69154
   Y30        0.57520   0.00001   0.00000   0.00208   0.00217   0.57737
   Z30        6.70204   0.00000   0.00000   0.01945   0.01850   6.72054
   X31       -5.60358   0.00000   0.00000   0.01323   0.01243  -5.59114
   Y31        2.11417   0.00002   0.00000   0.00093   0.00087   2.11505
   Z31        7.69224  -0.00000   0.00000   0.02078   0.01946   7.71170
   X32       -6.95537   0.00001   0.00000  -0.00155  -0.00260  -6.95797
   Y32        5.91869   0.00002   0.00000  -0.00163  -0.00177   5.91692
   Z32        8.17365  -0.00001   0.00000  -0.00022  -0.00159   8.17206
   X33       -3.33632   0.00002   0.00000  -0.02685  -0.02736  -3.36368
   Y33        7.85312   0.00001   0.00000  -0.00266  -0.00249   7.85063
   Z33        5.89344  -0.00001   0.00000  -0.04103  -0.04130   5.85215
   X34        0.04191   0.00001   0.00000  -0.02651  -0.02646   0.01545
   Y34        5.14421   0.00000   0.00000  -0.00057  -0.00013   5.14408
   Z34        4.13639  -0.00001   0.00000  -0.04355  -0.04315   4.09324
   X35       -3.81370  -0.00000   0.00000   0.02463   0.02415  -3.78955
   Y35       -1.46112   0.00001   0.00000   0.00347   0.00354  -1.45758
   Z35        6.93545   0.00000   0.00000   0.03681   0.03566   6.97111
   X36       -7.18086   0.00001   0.00000   0.02446   0.02342  -7.15744
   Y36        1.26448   0.00002   0.00000   0.00155   0.00135   1.26583
   Z36        8.69000   0.00000   0.00000   0.03907   0.03726   8.72726
   X37        2.19389  -0.00003   0.00000   0.00799   0.00955   2.20344
   Y37       -1.27860   0.00001   0.00000  -0.00539  -0.00447  -1.28307
   Z37       -0.81223  -0.00000   0.00000   0.00490   0.00534  -0.80689
   X38        1.90750  -0.00001   0.00000   0.00913   0.01143   1.91892
   Y38       -0.93680  -0.00001   0.00000  -0.01433  -0.01318  -0.94999
   Z38       -3.64833  -0.00000   0.00000   0.00367   0.00406  -3.64427
   X39        3.68698   0.00001   0.00000   0.00487   0.00629   3.69326
   Y39       -2.94646  -0.00004   0.00000  -0.00558  -0.00467  -2.95113
   Z39       -0.02427   0.00002   0.00000   0.01066   0.01136  -0.01291
   X40        3.76561   0.00000   0.00000   0.01184   0.01435   3.77996
   Y40       -0.56315  -0.00002   0.00000  -0.03591  -0.03463  -0.59778
   Z40       -4.47248   0.00000   0.00000   0.00012   0.00104  -4.47144
   X41        1.21087  -0.00001   0.00000  -0.00907  -0.00650   1.20437
   Y41       -2.70517  -0.00001   0.00000  -0.01107  -0.00988  -2.71505
   Z41       -4.46311   0.00000   0.00000   0.01194   0.01200  -4.45111
   X42        0.61715   0.00000   0.00000   0.02287   0.02524   0.64239
   Y42        0.59372  -0.00001   0.00000  -0.00441  -0.00326   0.59045
   Z42       -4.14742  -0.00000   0.00000  -0.00150  -0.00131  -4.14873
         Item               Value     Threshold  Converged?
 Maximum Force            0.000040     0.000450     YES
 RMS     Force            0.000010     0.000300     YES
 Maximum Displacement     0.066621     0.001800     NO 
 RMS     Displacement     0.020146     0.001200     NO 
 Predicted change in Energy=-6.579333D-07
 GradGradGradGradGradGradGradGradGradGradGradGradGradGradGradGradGradGrad

 Leave Link  103 at Sun Sep 27 20:26:04 2026, MaxMem= 12884901888 cpu:               0.2 elap:               0.0
 (Enter /opt/apps/Gaussian/G16C/g16/l9999.exe)

 ----------------------------------------------------------------------

 Electric dipole moment (input orientation):
 (Debye = 10**-18 statcoulomb cm , SI units = C m)
                  (au)            (Debye)         (10**-30 SI)
   Tot        0.298554D+01      0.758849D+01      0.253125D+02
   x         -0.146951D+01     -0.373513D+01     -0.124591D+02
   y          0.115194D+01      0.292795D+01      0.976659D+01
   z          0.232959D+01      0.592124D+01      0.197511D+02

 Dipole polarizability, Alpha (input orientation).
 (esu units = cm**3 , SI units = C**2 m**2 J**-1)
 Alpha(0;0):
               (au)            (10**-24 esu)      (10**-40 SI)
   iso        0.344307D+03      0.510210D+02      0.567685D+02
   aniso      0.416674D+02      0.617447D+01      0.687003D+01
   xx         0.346054D+03      0.512799D+02      0.570566D+02
   yx         0.685579D+01      0.101592D+01      0.113037D+01
   yy         0.348693D+03      0.516709D+02      0.574917D+02
   zx        -0.107810D+02     -0.159758D+01     -0.177755D+01
   zy         0.196351D+02      0.290962D+01      0.323739D+01
   zz         0.338173D+03      0.501121D+02      0.557572D+02

 ----------------------------------------------------------------------

 Dipole orientation:
     6          1.06214869          0.02454311          0.35654860
    15          2.66103248         -1.68242953          2.63994815
     1         -0.24945188          1.45467552          1.00380898
     6         11.25858538         -0.33018076          3.09989896
     6          9.90048575         -0.81398388          5.30563605
     6          7.29926195         -1.21556899          5.18858625
     6          6.05700831         -1.13994853          2.85462432
     6          7.42004197         -0.65057662          0.64054793
     6         10.01912130         -0.24821179          0.77416553
     1         13.28288675         -0.01075066          3.19351421
     1         10.85911750         -0.87198094          7.11765222
     1          6.24454157         -1.57186382          6.91501792
     1          6.44056996         -0.61677313         -1.16334270
     1         11.07698951          0.13299219         -0.94103815
     6          1.33292231        -10.26745166          2.12201399
     6          3.54976846         -9.36758436          3.22562084
     6          4.00545087         -6.77507719          3.34735924
     6          2.22860293         -5.08268866          2.37014096
     6          0.01448245         -5.98572401          1.24898146
     6         -0.43071289         -8.57706084          1.12929925
     1          0.98477518        -12.28645249          2.02083841
     1          4.93235684        -10.67932662          3.98285316
     1          5.74564534         -6.08571935          4.19082703
     1         -1.33658913         -4.65546850          0.46001998
     1         -2.14558385         -9.27606518          0.24787972
     6         -0.58340294          0.89226976         10.29358554
     6          0.65628789          2.60349154          8.71264046
     6          1.64433639          1.79175812          6.41557766
     6          1.39357584         -0.74213312          5.68920296
     6          0.15976724         -2.45400307          7.27489404
     6         -0.82928054         -1.62836907          9.57606907
     1         -1.35430841          1.52805205         12.08501172
     1          0.85625837          4.56658077          9.27082964
     1          2.62094293          3.12251654          5.19181659
     1         -0.03688266         -4.42174529          6.72506338
     1         -1.79145780         -2.96024245         10.80312008
     6          1.35915463         -0.62425228         -2.20696699
     6         -0.24776655          0.75269369         -4.14710985
     8          2.85897047         -2.29739028         -2.97056958
     1          0.99169290          1.61130511         -5.56060354
     1         -1.43927522         -0.62773191         -5.12229715
     1         -1.44490614          2.21014820         -3.31088619

 Electric dipole moment (dipole orientation):
 (Debye = 10**-18 statcoulomb cm , SI units = C m)
                  (au)            (Debye)         (10**-30 SI)
   Tot        0.298554D+01      0.758849D+01      0.253125D+02
   x          0.000000D+00      0.000000D+00      0.000000D+00
   y          0.000000D+00      0.000000D+00      0.000000D+00
   z          0.298554D+01      0.758849D+01      0.253125D+02

 Dipole polarizability, Alpha (dipole orientation).
 (esu units = cm**3 , SI units = C**2 m**2 J**-1)
 Alpha(0;0):
               (au)            (10**-24 esu)      (10**-40 SI)
   iso        0.344307D+03      0.510210D+02      0.567685D+02
   aniso      0.416674D+02      0.617447D+01      0.687003D+01
   xx         0.338331D+03      0.501355D+02      0.557833D+02
   yx         0.183360D+02      0.271712D+01      0.302320D+01
   yy         0.335440D+03      0.497070D+02      0.553065D+02
   zx        -0.285026D+00     -0.422364D-01     -0.469944D-01
   zy         0.866749D+01      0.128439D+01      0.142908D+01
   zz         0.359149D+03      0.532203D+02      0.592156D+02

 ----------------------------------------------------------------------
 Unable to Open any file for archive entry.
 1\1\GINC-NODE10\Freq\RM062X\6-31+G(d,p)\C21H19O1P1\RPATON\27-Sep-2026\
 0\\#p M062X/6-31+G(d,p) scrf=(pcm,solvent=thf) freq int=finegrid\\ylid
 e 2, Ph3P=CHCOMe: Chen, Nieves-Quinones, Waas, Singleton, JACS 2014 (S
 I geometry, M06-2X/6-31+G**/PCM(THF), default radii); SI: E = -1227.87
 3969660, ZPE = 0.340415\\0,1\C,0.3940928673,0.1446599875,0.4188664096\
 P,0.4339366656,-0.1266168487,2.1266935761\H,-0.2933816759,0.8962840058
 ,0.0524987633\C,4.3209634101,1.1083726773,4.2798873919\C,3.0982574515,
 1.2474618773,4.9357072645\C,1.9168889283,0.881983157,4.2918393398\C,1.
 9611626191,0.3719833541,2.9891110439\C,3.1886107044,0.2341704322,2.329
 9958872\C,4.3647275152,0.6032889851,2.9799871088\H,5.2400498754,1.3966
 598587,4.7805842261\H,3.061266192,1.6434271496,5.9454451586\H,0.964917
 9896,1.0021666597,4.8027335484\H,3.212592375,-0.1730443145,1.323124749
 7\H,5.3166191513,0.4976547868,2.4694630823\C,-0.5229530696,-4.47043979
 64,3.3197781208\C,0.2538551091,-3.6835960621,4.1691522943\C,0.57681664
 51,-2.3758423464,3.8087761795\C,0.1145743566,-1.8549901734,2.596912114
 5\C,-0.6565947079,-2.6468001817,1.7416470153\C,-0.9752314326,-3.952974
 5337,2.1053647276\H,-0.7697344684,-5.4898165249,3.5995567255\H,0.61464
 27239,-4.0870355384,5.1097702805\H,1.1915908529,-1.7711021023,4.469565
 276\H,-0.9936645091,-2.2390824083,0.7923567174\H,-1.5690880379,-4.5687
 120048,1.4374704024\C,-2.8974752437,2.5014769649,3.9162148428\C,-1.822
 3503529,3.0784794996,3.2369259797\C,-0.8181650764,2.2716147652,2.71153
 09582\C,-0.8866473124,0.8803998525,2.8636521437\C,-1.9603558225,0.3043
 840895,3.5465651615\C,-2.9652843406,1.1187727939,4.0705597018\H,-3.680
 6216933,3.132036329,4.3253098612\H,-1.7655029552,4.1556907964,3.118675
 0423\H,0.0221752657,2.7221986823,2.1888856533\H,-2.0181249474,-0.77318
 94875,3.6700823758\H,-3.7999479871,0.6691344774,4.5985494579\C,1.16095
 82006,-0.676605509,-0.4298121722\C,1.0094029358,-0.4957353294,-1.93061
 34624\O,1.9510634438,-1.5591988986,-0.0128435181\H,1.9926762028,-0.298
 0087672,-2.3667353211\H,0.6407655357,-1.4315128141,-2.3617760348\H,0.3
 265796161,0.3141814597,-2.1947210736\\Version=AS64L-G16RevC.01\State=1
 -A\HF=-1227.8739945\RMSD=8.111e-09\RMSF=1.001e-05\ZeroPoint=0.3404006\
 Thermal=0.3605052\ETot=-1227.5134893\HTot=-1227.5125451\GTot=-1227.584
 1087\Dipole=-1.4695137,1.1519436,2.3295942\DipoleDeriv=-1.1140718,0.22
 60227,0.5680324,0.1804191,-1.1165742,-0.5189799,0.5691364,-0.6237129,-
 1.7149295,2.278215,0.1161943,0.1361195,0.0731794,2.2551061,-0.0735553,
 -0.183304,0.2868147,2.6089516,0.1003075,0.0961564,-0.0064377,0.1074236
 ,0.0774977,-0.000396,-0.0606313,0.0833271,-0.0494205,0.0929749,0.03652
 94,0.0322528,0.0172961,-0.114651,0.0660053,-0.0013783,0.0496471,0.0096
 135,-0.2217695,-0.0043942,0.02813,-0.0293083,-0.1199067,0.0459364,-0.0
 220338,0.0691391,0.0598836,-0.0189339,-0.1105969,-0.2221325,0.0406242,
 -0.0973836,0.0068497,0.1311924,0.0783772,-0.0309467,-0.4536832,0.05635
 09,-0.0002986,0.0407564,-0.3998628,0.1339496,-0.0673521,-0.1314785,-0.
 5552619,-0.1113656,0.0584721,0.1073803,-0.0837952,-0.1020256,0.0230247
 ,-0.2021804,-0.0119429,-0.043489,0.0635788,-0.0346052,-0.15837,-0.0093
 317,-0.1280862,-0.0051568,-0.0471374,0.0040026,-0.1074103,-0.049973,-0
 .0506457,-0.0780978,-0.0503873,0.134899,-0.0421257,-0.0811455,-0.04612
 66,0.0617076,0.0722793,-0.0128312,-0.0047063,-0.0084574,0.1250345,-0.0
 924369,-0.0142734,-0.0931619,-0.0605793,0.0070619,0.0025061,0.0750315,
 0.0144382,0.1354113,0.0095743,0.0926533,-0.0261292,0.0782157,0.1636277
 ,0.0135338,0.0312254,0.0475992,0.1429072,0.0058001,0.0601213,0.0037118
 ,0.0982199,-0.0728899,-0.002629,0.0583798,0.0076005,0.1510017,-0.03153
 45,0.0692363,-0.032741,0.0594278,-0.0826,0.0659929,0.0606238,0.0498359
 ,0.0772066,-0.044285,0.0655354,-0.0349192,0.0015119,-0.1255263,-0.0302
 558,0.034007,-0.0786356,-0.1452098,-0.1240891,0.0701636,-0.0805917,0.0
 220654,-0.050045,-0.0403069,0.1138919,0.0769781,-0.0778718,0.1805619,0
 .0068364,-0.1506772,-0.0406004,-0.4250389,-0.118805,-0.1050264,-0.0338
 198,-0.4294088,0.0433001,0.0045089,0.0217024,-0.5037997,-0.1020584,0.1
 095815,-0.0357572,-0.13019,-0.1458181,-0.1499549,0.1231329,0.1451299,0
 .0447148,-0.0618729,0.0736742,0.0867139,0.0903755,-0.0579683,0.1552917
 ,0.0463576,0.0610667,-0.0782887,0.1264852,-0.0609903,-0.0096735,-0.061
 3513,-0.0708722,0.056975,-0.0090023,0.0592918,0.0974418,0.1181403,-0.0
 051054,-0.0751646,-0.0066273,0.0520619,0.0754122,-0.0693033,0.0855959,
 -0.0284225,0.0903907,-0.0468688,-0.062868,-0.0233757,0.099475,-0.06239
 44,-0.0747849,-0.0521949,0.0592702,0.1287495,0.0192659,-0.0417916,0.04
 7097,0.1352734,0.0264766,-0.0563285,0.0292137,0.0177637,0.0862245,-0.0
 863959,-0.0797874,-0.0868191,0.0129978,-0.0444326,-0.085776,-0.0496963
 ,0.0414086,0.0297925,-0.0419267,-0.1016322,-0.0192628,0.0244879,-0.013
 1119,-0.0924692,0.0113361,-0.0758048,-0.1880482,-0.0141782,0.0414987,0
 .0379682,0.0790577,-0.0455438,0.0094521,-0.0011987,-0.1456596,-0.03532
 65,0.2346992,-0.0674609,-0.0795795,-0.0541292,0.0391204,-0.03385,-0.13
 20655,-0.0870798,-0.368678,-0.0596542,-0.0611012,-0.0075519,-0.4370392
 ,-0.0147949,-0.0156626,0.020173,-0.3121601,-0.0965679,-0.0863186,0.003
 5125,0.1921459,-0.0220885,-0.0987539,-0.0410803,0.0507773,-0.1023777,0
 .0172973,0.1145955,-0.1040006,0.0396826,-0.1374635,-0.0084631,-0.08596
 84,-0.0608776,-0.059792,0.0139865,0.082909,0.0751167,0.0817861,0.03319
 59,-0.0373138,0.0798277,-0.0396959,0.1138722,0.0974008,0.0075178,0.037
 3105,0.0136606,-0.0915261,0.014538,0.0373168,0.0125685,0.1406945,0.028
 5105,-0.0612385,0.0769657,-0.0561735,0.1070145,0.0276255,0.0866395,0.0
 284539,0.0937712,0.1325333,-0.053562,0.005996,-0.0295704,-0.0047666,0.
 0249054,0.0002372,0.0366124,0.1160156,-0.0084911,-0.0314109,0.1000977,
 -0.0453614,0.0563745,0.0370041,0.1072097,0.0277579,0.100283,1.0948133,
 -1.0478488,-0.8291622,-1.0999115,1.3587041,0.8886744,-0.0720699,0.0399
 2,1.5601702,0.1199684,0.0130629,0.0705129,0.0206693,0.1111653,-0.06972
 22,-0.0550509,0.068442,-0.44909,-1.2546441,0.6423998,0.3295045,0.72865
 76,-1.3840706,-0.4332994,-0.2265656,0.3231392,-0.9323489,-0.0877252,-0
 .0227366,0.1019384,-0.0244525,0.085537,0.0451026,0.0319489,0.0021208,-
 0.022077,0.0703573,-0.0530449,-0.0557583,-0.0496479,-0.0724491,-0.0897
 306,0.0024793,-0.0295179,-0.010516,-0.0033859,0.1068855,-0.0750146,0.1
 054169,-0.045237,0.0939467,0.0033623,-0.0015933,0.0250517\Polar=346.05
 37566,6.8557913,348.6927386,-10.7809995,19.6350945,338.1730851\Quadrup
 ole=2.3260117,3.3065582,-5.63257,5.0085958,5.3072943,-3.361575\PG=C01 
 [X(C21H19O1P1)]\NImag=1\\0.34704738,-0.31279587,0.40635020,-0.01516440
 ,-0.01604882,0.50783746,-0.04989105,0.01291899,0.00556218,0.36094457,0
 .01602158,-0.05840202,0.02159200,0.00041739,0.36894746,-0.02297437,0.0
 4282238,-0.20031821,0.00659921,-0.01307371,0.45535992,-0.15068313,0.15
 743154,-0.06656922,-0.00101622,-0.00261731,0.00365216,0.15893523,0.154
 50451,-0.17610844,0.07344932,-0.00112086,-0.00157978,-0.00204425,-0.16
 046290,0.18737740,-0.06940759,0.07783140,-0.08390779,-0.01349209,0.014
 67559,-0.00855228,0.06866195,-0.07745057,0.08825540,0.00018598,0.00020
 762,0.00017410,0.00076296,0.00104033,0.00233176,-0.00002896,-0.0000286
 6,-0.00006136,0.73835512,-0.00010600,-0.00028492,-0.00030831,0.0011652
 1,-0.00066454,-0.00010918,-0.00002313,-0.00002047,-0.00001443,0.061159
 25,0.22561514,-0.00049484,-0.00073446,-0.00090815,0.00270910,-0.000182
 17,-0.00160664,-0.00007445,-0.00005823,-0.00006057,0.00877563,0.194394
 51,0.63108453,-0.00010247,-0.00088792,-0.00065331,0.00475925,0.0002536
 3,0.00114371,0.00002603,0.00003790,0.00009438,-0.30215898,0.00013116,0
 .05852744,0.67987667,-0.00070003,-0.00075405,-0.00132181,0.00148567,0.
 00460635,-0.00313654,-0.00016551,-0.00016951,-0.00022415,0.02831169,-0
 .07744394,-0.03755120,0.04258438,0.22445168,-0.00074906,0.00025349,-0.
 00064532,0.00184503,-0.00313332,-0.00270564,-0.00015555,-0.00017344,-0
 .00021269,0.12947449,-0.03070430,-0.17378734,-0.02219453,0.21063576,0.
 67651783,-0.00255732,-0.00048637,-0.00364585,0.00120005,-0.00702736,-0
 .01745759,-0.00056918,-0.00072498,-0.00112778,-0.05788581,0.00384203,0
 .02546242,-0.28621057,-0.06860220,-0.12041695,0.73117799,0.00067052,0.
 00102768,0.00124975,-0.00390966,-0.00180593,-0.00589484,-0.00006123,-0
 .00024691,-0.00012482,-0.01685443,0.01513092,0.02480398,-0.04071557,-0
 .08875330,-0.05183178,0.03705863,0.21650277,0.00033439,0.00072776,0.00
 083284,-0.01159038,-0.00421404,-0.01060107,-0.00010982,-0.00024362,-0.
 00004835,-0.02791711,0.02063147,0.06543475,-0.04871490,-0.04533187,-0.
 16784560,-0.04434670,0.18336089,0.60889427,0.00550282,-0.00077745,-0.0
 0014469,-0.13008318,-0.02543587,-0.04027760,0.00024139,0.00037558,0.00
 157945,-0.02313527,0.01076257,0.03208864,0.03930071,-0.00677908,-0.022
 73165,-0.11925226,-0.01027877,-0.01411470,0.58079590,0.00057813,0.0054
 0742,0.00505184,-0.02590164,-0.05552422,-0.01799204,0.00023126,0.00003
 963,0.00035625,0.01171997,-0.01198094,-0.01412617,-0.02670181,0.000718
 41,-0.01548451,0.01002465,-0.09808811,-0.09653178,0.02223213,0.2069224
 2,-0.01111607,-0.00358673,-0.01255234,-0.04014010,-0.01847080,-0.07601
 405,-0.00220834,-0.00251705,-0.00242646,0.03302170,-0.01457992,-0.0527
 4513,-0.07744790,-0.02049524,-0.02264731,0.03956934,-0.09225114,-0.294
 15258,-0.06377976,0.16682958,0.56881157,0.00092499,0.00008364,0.000658
 59,-0.02325672,-0.00147714,0.00079778,0.00004391,0.00012487,0.00022589
 ,0.04526338,-0.02703350,-0.07872448,-0.08005722,-0.00765676,-0.0016060
 7,0.03572064,0.03222370,0.07893514,-0.27819533,0.00570348,0.06733627,0
 .66452575,0.00009358,0.00023351,-0.00060402,-0.00579209,0.00187865,0.0
 0463873,-0.00004605,-0.00000818,-0.00010691,-0.00699325,-0.00082601,-0
 .01816028,-0.00626758,-0.00652582,0.00193687,0.01320538,0.00724345,-0.
 00402833,0.02558911,-0.07250869,-0.03349791,0.04763059,0.23093720,0.00
 065294,-0.00181152,-0.00190816,-0.00848660,0.00301119,0.01089265,0.000
 09243,0.00005986,-0.00004497,-0.02696982,-0.01314320,-0.01988702,0.001
 26053,0.00208878,-0.00139477,0.02784267,-0.00920734,-0.02212516,0.1214
 9595,-0.02767910,-0.16472358,-0.00918916,0.21111470,0.67566976,0.00076
 705,0.00031918,-0.00010816,-0.00178491,0.00128074,0.00529210,0.0000287
 9,0.00000951,-0.00004455,-0.13387576,0.01115076,0.04536602,0.03881336,
 0.01417443,0.02823959,-0.01920647,-0.01310120,-0.03177965,-0.05831498,
 0.00268704,0.02502204,-0.28662391,-0.06891396,-0.12080050,0.73544991,0
 .00025078,0.00008254,-0.00003008,0.00104421,0.00562623,-0.00040833,-0.
 00001015,0.00000867,0.00001418,-0.01676782,-0.10399827,-0.09413858,0.0
 3450145,0.00725777,-0.00773930,-0.01292743,-0.01629206,-0.02133018,-0.
 01815616,0.01683152,0.02266733,-0.04118274,-0.09041938,-0.05383424,0.0
 3961461,0.21574911,-0.00023763,0.00081561,0.00150837,0.00345378,-0.001
 09142,0.00128272,0.00002754,0.00005967,0.00003350,-0.02568192,-0.10126
 068,-0.31344494,0.07961429,-0.00284126,-0.02034351,-0.02980164,-0.0202
 1538,-0.05337699,-0.02787821,0.01741898,0.06059391,-0.04977627,-0.0466
 9536,-0.17174992,-0.04840153,0.18843029,0.62939590,-0.00003158,-0.0000
 5147,-0.00012178,0.00027798,0.00020987,0.00019287,-0.00000989,-0.00001
 161,-0.00002364,-0.26747240,-0.06645083,-0.11210427,-0.01702936,-0.007
 95628,-0.01471248,-0.00322739,0.00042962,0.00384256,0.00011106,0.00037
 798,0.00068491,0.00154830,-0.00020192,0.00099220,0.00526650,0.00114415
 ,0.00278804,0.28013578,-0.00004581,0.00004630,0.00009183,0.00005892,-0
 .00085128,0.00026352,-0.00000295,-0.00000038,0.00000363,-0.06648992,-0
 .06436916,-0.04183256,0.00347916,0.00531959,0.00102576,0.00024658,0.00
 666414,-0.00258689,0.00056521,-0.00095282,0.00017559,-0.00015221,0.005
 79069,-0.00448483,-0.01002980,0.00194283,-0.00422891,0.07205448,0.0537
 3155,-0.00004889,-0.00001607,-0.00002728,0.00025032,0.00040880,-0.0000
 7817,-0.00001002,-0.00000282,-0.00000589,-0.11209498,-0.04180572,-0.11
 955952,0.01373183,0.00396767,0.01108601,0.00352382,-0.00259538,0.00023
 802,0.00075446,0.00019493,-0.00082554,0.00127023,-0.00454688,-0.004327
 58,-0.02579069,-0.00720938,-0.00723691,0.11970739,0.04819556,0.1202387
 5,-0.00020081,-0.00007515,-0.00041232,0.00077485,-0.00016371,-0.000437
 67,-0.00005492,-0.00006548,-0.00010032,0.00426602,0.01049489,0.0262966
 1,-0.05983751,0.00189614,0.00978219,0.00485243,-0.01011544,-0.02555661
 ,-0.00394505,-0.00208030,-0.00231621,-0.00132004,-0.00006505,-0.000085
 99,-0.00473541,-0.00023893,0.00252256,0.00096177,0.00022820,-0.0007076
 1,0.05834001,-0.00014629,-0.00012485,-0.00036843,0.00033710,0.00034837
 ,-0.00002095,-0.00003805,-0.00003284,-0.00003253,-0.00091345,0.0029937
 9,-0.00219747,0.00188762,-0.07991723,-0.10469569,0.00116122,0.00092348
 ,-0.00735513,-0.00193248,0.00607243,-0.00252920,0.00007537,-0.00083700
 ,0.00069269,-0.00007796,0.00673507,-0.00223413,0.00046713,-0.00353329,
 0.00161527,-0.00108900,0.07188346,-0.00005978,-0.00005036,-0.00021669,
 0.00100754,0.00004524,0.00026503,-0.00003194,-0.00004303,-0.00006362,-
 0.00233001,-0.00502600,-0.00823580,0.00991328,-0.10462856,-0.30632618,
 0.00264487,-0.00456259,-0.00838074,-0.00250382,-0.00257494,0.00132200,
 0.00007325,0.00060769,0.00042636,0.00291816,-0.00213362,0.00143328,-0.
 00013910,0.00165416,0.00003339,-0.01068502,0.11501571,0.32055962,0.000
 00971,0.00007806,0.00017439,-0.00023861,-0.00010313,-0.00085767,0.0000
 3519,-0.00000446,0.00000705,-0.00270411,-0.00208703,-0.00325703,-0.016
 92832,0.00348382,0.01422030,-0.27491589,0.02503849,0.11717282,0.003264
 38,0.00027155,-0.00020267,0.00153332,-0.00043536,-0.00052434,0.0001900
 2,-0.00025039,-0.00085537,-0.00092734,0.00023974,0.00070208,0.00103639
 ,0.00034161,-0.00007848,0.29059788,-0.00000343,0.00032230,0.00051511,0
 .00059990,-0.00240120,0.00003103,0.00002954,0.00005768,0.00008045,-0.0
 0212907,0.00602636,-0.00338433,-0.00794979,0.00553352,0.00402507,0.025
 92111,-0.04494318,-0.02207367,0.01067077,0.00109574,-0.00407352,-0.001
 14747,0.00528136,-0.00416723,-0.00004680,-0.00089871,0.00005081,-0.000
 38430,-0.00005382,0.00025870,0.00060619,-0.00354404,0.00165300,-0.0264
 5895,0.03519727,-0.00024167,0.00007477,-0.00002638,0.00168797,0.000501
 37,-0.00149806,-0.00002334,-0.00001819,-0.00002140,-0.00286755,-0.0032
 3316,0.00024811,-0.01380267,0.00124303,0.01104551,0.11653720,-0.021308
 17,-0.11847548,0.02428343,-0.00212143,-0.00933574,-0.00087777,-0.00449
 798,-0.00405442,-0.00082812,-0.00001143,-0.00071390,-0.00076939,0.0001
 1149,0.00037068,0.00029872,0.00173478,-0.00001311,-0.12449700,0.027100
 44,0.12255168,0.00126622,-0.00059299,-0.00101996,-0.00156382,0.0006111
 6,0.00320204,0.00022575,0.00007960,-0.00000474,-0.00427855,-0.00191791
 ,-0.00190977,-0.00112527,-0.00005209,-0.00005358,-0.00523431,-0.000401
 44,0.00235195,0.00312902,0.01054393,0.02598822,-0.06016939,0.00147422,
 0.00625523,0.00555170,-0.01012052,-0.02475962,0.00011415,-0.00041863,-
 0.00128862,0.00015611,0.00012661,-0.00004924,0.00014953,0.00051332,0.0
 0142358,0.06258186,0.00064006,-0.00089164,-0.00117894,0.00030988,-0.00
 202207,0.00191722,0.00004759,-0.00003727,-0.00006078,-0.00146456,0.006
 45765,-0.00265218,-0.00026100,-0.00079027,0.00054036,-0.00027188,0.006
 29440,-0.00180106,-0.00040614,0.00237771,-0.00113448,0.00260937,-0.082
 97841,-0.10659036,0.00063973,0.00288773,-0.00571814,0.00011053,-0.0002
 3372,-0.00008027,0.00011049,-0.00101096,0.00039281,-0.00014742,0.00034
 705,-0.00007063,-0.00105532,0.07334811,0.00121878,-0.00042033,-0.00094
 374,0.00030870,0.00099402,0.00079654,0.00008243,-0.00000559,-0.0000762
 1,-0.00160373,-0.00282997,0.00157595,-0.00029062,0.00056609,0.00050457
 ,0.00236305,-0.00208515,0.00186564,-0.00073491,-0.00406531,-0.00755989
 ,0.00838977,-0.10423327,-0.30625961,0.00217854,-0.00405526,-0.00529247
 ,0.00019704,-0.00002357,-0.00029812,-0.00006340,0.00042611,-0.00021272
 ,-0.00015649,-0.00024736,-0.00025214,-0.00895162,0.11531731,0.31906923
 ,0.00004285,-0.00014033,-0.00040133,0.00044785,0.00047374,0.00129762,-
 0.00002828,-0.00002996,-0.00005344,0.00376795,-0.00082007,-0.00216018,
 0.00164301,-0.00066980,-0.00028645,0.00016954,-0.00019668,-0.00076478,
 -0.00313201,-0.00214142,-0.00291961,-0.01738316,0.00332812,0.01389854,
 -0.28014490,0.02275342,0.11919992,0.00047360,0.00049576,0.00015056,0.0
 0006388,-0.00006514,-0.00017637,-0.00004398,0.00014197,0.00005770,0.00
 099751,0.00050901,-0.00007745,0.29397132,0.00000934,0.00000761,0.00005
 387,-0.00017292,0.00025214,0.00006119,0.00001128,0.00000745,-0.0000033
 9,0.01045821,0.00299759,-0.00497988,-0.00088483,0.00571756,-0.00441298
 ,-0.00012876,-0.00096176,-0.00015030,-0.00197908,0.00608336,-0.0029612
 3,-0.00774584,0.00477012,0.00393258,0.02268296,-0.04442416,-0.01978449
 ,0.00029220,-0.00341659,0.00181063,0.00052054,-0.00002225,-0.00023473,
 0.00010332,-0.00099456,0.00047025,0.00067521,-0.00353622,0.00182063,-0
 .02350318,0.03364800,0.00008185,-0.00002791,-0.00015448,-0.00040596,0.
 00005460,0.00051903,-0.00000791,-0.00000845,-0.00000869,0.02660542,-0.
 00211967,-0.00829602,-0.00071245,-0.00448520,-0.00378238,-0.00076707,-
 0.00005243,-0.00090617,-0.00298302,-0.00305096,0.00049613,-0.01438166,
 0.00118633,0.01069285,0.11906236,-0.01976223,-0.12072874,-0.00044941,0
 .00176706,0.00047617,0.00133249,-0.00009676,-0.00052596,0.00006983,0.0
 0045791,-0.00006247,0.00034553,0.00165421,-0.00007090,-0.12759316,0.02
 443345,0.12236470,-0.00012874,0.00001811,0.00008955,-0.00152090,-0.000
 04031,-0.00131878,-0.00002766,0.00000351,0.00002362,0.00001158,-0.0000
 4097,-0.00004210,-0.00006762,0.00004992,-0.00001994,0.00002716,-0.0000
 6202,0.00006123,0.00014536,-0.00014052,-0.00012098,-0.00002877,-0.0001
 2359,0.00000959,0.00003178,0.00007801,0.00001813,-0.00000320,-0.000007
 27,0.00000141,-0.00000702,0.00000093,-0.00001032,0.00001067,0.00001148
 ,0.00004481,-0.00000946,-0.00000368,0.00000251,-0.00000285,-0.00000023
 ,0.00000448,0.31700967,-0.00044570,-0.00030501,0.00023104,0.00052670,0
 .00194465,-0.00117966,-0.00001892,0.00000423,0.00006547,-0.00004906,0.
 00000265,-0.00001740,0.00001752,0.00001288,0.00000145,-0.00008487,-0.0
 0002231,0.00015126,0.00005260,-0.00040092,0.00009338,0.00009081,-0.000
 01253,-0.00009313,-0.00003932,0.00001576,-0.00002852,-0.00001105,-0.00
 000868,-0.00000325,-0.00001465,-0.00000798,-0.00001739,-0.00000308,0.0
 0003164,0.00003056,0.00002194,-0.00001480,0.00001189,-0.00002203,-0.00
 001031,-0.00000023,0.16548024,0.69645130,-0.00002019,0.00034843,-0.000
 06930,-0.00165551,-0.00188072,-0.00227588,0.00001201,0.00002904,-0.000
 04317,0.00005721,-0.00002038,-0.00012051,-0.00016621,0.00001639,-0.000
 01372,0.00017262,0.00005623,0.00004486,0.00016085,-0.00000975,-0.00018
 637,-0.00004743,-0.00002906,0.00001968,0.00010268,0.00002919,0.0001153
 1,0.00000320,-0.00000533,0.00000129,0.00000274,0.00000441,-0.00000084,
 0.00003424,-0.00002536,0.00003295,-0.00002517,-0.00000321,-0.00001467,
 0.00000330,-0.00000175,0.00000326,0.20051780,-0.09766681,0.58177370,-0
 .00007606,0.00087487,-0.00035817,0.00400122,0.00080527,-0.00360681,0.0
 0025988,0.00015878,-0.00027340,-0.00011530,0.00009553,0.00016826,0.000
 27539,-0.00001859,0.00013539,-0.00003642,-0.00009851,0.00015459,-0.000
 39560,-0.00022730,0.00043353,0.00032751,0.00009085,-0.00008484,-0.0001
 5197,-0.00014535,-0.00013466,-0.00000835,0.00001198,-0.00000301,0.0000
 0955,-0.00001234,0.00000529,-0.00005789,0.00009014,-0.00003515,-0.0000
 2029,0.00000017,-0.00002958,-0.00000421,0.00000768,-0.00001013,-0.1557
 4472,-0.10554164,-0.08882460,0.31917707,0.00014557,-0.00061408,0.00011
 712,0.00123386,0.00538092,0.00288048,-0.00008749,-0.00006451,0.0001351
 9,-0.00008473,0.00004030,0.00012495,0.00022118,-0.00008201,0.00002937,
 -0.00026058,-0.00002606,-0.00006520,-0.00017573,-0.00011257,-0.0000308
 4,0.00007011,0.00002720,-0.00002907,-0.00012383,-0.00003509,-0.0001344
 1,-0.00000365,0.00000588,-0.00000226,-0.00000805,0.00000705,-0.0000037
 6,-0.00006293,0.00003394,-0.00002334,0.00004767,0.00000044,0.00003115,
 -0.00001047,-0.00000628,-0.00000029,-0.07061029,-0.19618204,-0.0345842
 5,0.13943174,0.63229133,0.00045218,0.00068273,-0.00112491,-0.00341198,
 0.00171717,-0.00223455,0.00018829,0.00017222,-0.00015641,-0.00008431,0
 .00006556,0.00011735,0.00024687,-0.00002570,0.00011599,-0.00015152,-0.
 00025230,0.00013244,-0.00010956,-0.00043117,0.00013231,0.00027722,-0.0
 0006221,-0.00002045,-0.00010850,-0.00001440,-0.00010847,-0.00002081,0.
 00000045,0.00000009,-0.00000559,0.00001171,-0.00001069,-0.00007124,0.0
 0016077,0.00005544,-0.00003909,0.00000495,-0.00002315,-0.00000930,-0.0
 0000325,0.00000763,-0.11320333,-0.09769844,-0.20148980,0.22832272,-0.1
 0413831,0.62696899,0.00019652,-0.00274886,0.00146555,0.00385164,0.0015
 7690,0.00502355,-0.00041198,-0.00036027,0.00068136,-0.00005847,-0.0000
 3148,-0.00002705,0.00001731,0.00018738,-0.00018539,-0.00003313,-0.0001
 5272,0.00042371,-0.00028539,-0.00081698,-0.00010908,0.00001731,-0.0001
 5164,0.00005833,0.00007906,0.00006133,-0.00011541,0.00001430,-0.000009
 96,-0.00000433,-0.00002791,-0.00003449,-0.00001299,0.00030563,-0.00016
 829,-0.00011314,0.00008408,0.00010881,0.00002991,0.00000771,0.00002654
 ,0.00000235,0.00064874,-0.02126523,0.00351463,-0.09660038,-0.08222634,
 0.00185685,0.33324096,-0.00030573,-0.00274417,0.00298351,0.00464133,-0
 .01262982,0.01823506,-0.00103615,-0.00070136,0.00103291,-0.00015286,0.
 00009170,0.00014849,0.00028151,-0.00002604,0.00000045,-0.00069019,-0.0
 0061864,0.00041470,0.00000351,-0.00066075,-0.00025443,0.00032893,-0.00
 017857,0.00004077,-0.00005392,-0.00011614,-0.00011129,-0.00000287,-0.0
 0000067,-0.00000399,-0.00001607,-0.00001878,-0.00001717,-0.00003626,-0
 .00019654,-0.00003329,0.00008220,0.00006079,0.00002049,0.00000833,0.00
 000475,-0.00000476,-0.04685807,-0.03270690,-0.05689886,-0.04715264,-0.
 31565954,0.09596889,0.17034946,0.64277521,-0.00049008,-0.00062721,0.00
 089770,0.00385979,0.01253253,-0.00370761,-0.00000640,-0.00004964,0.000
 14146,0.00002495,-0.00011287,-0.00016526,-0.00034486,0.00021805,-0.000
 23443,-0.00016846,0.00007136,-0.00009288,-0.00007683,0.00021873,0.0000
 1259,-0.00059341,-0.00008804,-0.00008778,0.00011654,0.00008300,0.00015
 813,0.00001489,-0.00002370,-0.00000242,-0.00000641,-0.00006235,0.00000
 258,0.00008584,-0.00025764,0.00004439,0.00009985,-0.00003175,0.0000431
 3,-0.00002695,0.00000817,-0.00002155,0.02254179,-0.00984136,0.05534714
 ,-0.02342540,0.03174052,-0.13097333,0.22638333,-0.05462162,0.58526240,
 0.00346765,0.00148158,-0.00464436,-0.04910836,-0.02131297,0.00105667,0
 .00014777,0.00038071,-0.00024781,0.00005990,-0.00039918,-0.00064982,-0
 .00121279,0.00077153,-0.00094102,-0.00170283,0.00021056,0.00166918,-0.
 00037279,-0.01651617,0.00064184,-0.00012369,-0.00064856,-0.00108674,-0
 .00015556,0.00117978,-0.00016257,-0.00004327,-0.00021367,0.00003459,-0
 .00022219,-0.00000287,-0.00024333,0.00014964,-0.00054640,0.00002891,-0
 .00012582,-0.00059201,0.00022878,-0.00026965,-0.00005037,-0.00005735,-
 0.02621546,-0.00319780,-0.03190212,0.02787639,0.03548589,0.00760730,-0
 .10505110,-0.00386479,-0.07805079,0.29071742,-0.00041824,0.00134883,0.
 00293915,-0.01724676,-0.14612571,0.02490235,-0.00049725,-0.00036652,-0
 .00089010,0.00004515,0.00007396,0.00026071,0.00002216,0.00030523,-0.00
 013301,0.00001157,-0.00033619,0.00041934,-0.00271414,-0.00324536,-0.00
 049233,0.00080922,-0.00056073,-0.00006374,-0.00030480,0.00012174,-0.00
 034280,-0.00001222,-0.00004863,0.00002168,0.00000631,-0.00000636,-0.00
 001523,0.00004772,-0.00005044,0.00010880,-0.00002017,-0.00009024,0.000
 13139,-0.00002148,0.00002854,-0.00000916,-0.00240067,-0.00356268,-0.00
 772825,0.00870811,-0.01150756,0.02981081,0.02380142,-0.13920349,0.0999
 0040,0.10941112,0.51467342,-0.00051030,0.01536668,-0.00759353,-0.00146
 750,0.02445644,-0.05963368,0.00341223,0.00224273,-0.00323377,-0.000101
 19,-0.00030963,-0.00027598,-0.00074288,0.00069176,-0.00023571,-0.00007
 146,0.00110291,0.00010935,-0.00196782,-0.00917524,0.00486500,-0.000501
 39,-0.00061054,-0.00148513,-0.00022453,0.00068967,-0.00009214,-0.00001
 850,-0.00011660,0.00002499,-0.00005698,-0.00002060,-0.00009987,0.00013
 411,-0.00040211,0.00019796,-0.00022164,-0.00039245,-0.00010314,-0.0001
 7594,-0.00001167,-0.00004205,-0.03121092,-0.00845736,-0.05899368,0.026
 35491,0.07883466,0.00246523,-0.09844917,0.05267380,-0.27233211,0.21465
 645,-0.04704229,0.55492715,-0.00093917,-0.00018562,-0.00098192,-0.0021
 7684,-0.00943094,0.00186660,0.00033122,0.00036528,-0.00019359,0.000074
 38,-0.00011066,-0.00013596,-0.00015101,0.00005382,0.00002194,0.0000272
 1,-0.00003826,0.00003041,0.00015435,0.00013570,-0.00003904,-0.00020586
 ,-0.00028993,0.00003805,0.00020201,0.00021083,0.00006421,0.00000739,-0
 .00000727,-0.00000346,0.00000184,0.00001444,0.00000065,-0.00004264,-0.
 00006274,0.00001431,-0.00004438,-0.00002568,0.00000926,0.00001736,-0.0
 0000356,0.00003186,0.02765911,0.01137733,0.03028085,-0.02149058,-0.030
 56402,-0.00506634,-0.00621697,0.02348474,-0.04157882,-0.14303550,-0.09
 521886,-0.08731058,0.30724322,-0.00137144,-0.00016977,-0.00006427,-0.0
 1354699,-0.02075407,-0.00886674,0.00017407,0.00025842,-0.00014149,-0.0
 0020939,-0.00005132,0.00002049,-0.00000429,0.00022248,-0.00016746,-0.0
 0074039,0.00010546,0.00012079,0.00015880,-0.00292243,0.00154306,-0.000
 20208,-0.00008233,-0.00058139,-0.00024462,0.00019959,-0.00025102,-0.00
 001439,-0.00005844,0.00000925,-0.00005792,-0.00002991,-0.00005998,0.00
 004460,-0.00015550,-0.00002221,-0.00002180,-0.00024283,0.00004712,-0.0
 0009736,-0.00000722,-0.00003410,0.03694159,-0.00801442,0.07926957,-0.0
 2914466,-0.06219683,-0.01347179,-0.00163662,0.06265426,-0.04527525,-0.
 06737350,-0.17836412,-0.04267403,0.13688973,0.63467875,-0.00040961,-0.
 00051782,-0.00144976,0.00373271,-0.00214914,0.01044041,0.00032735,0.00
 040249,-0.00012003,0.00006407,0.00015702,0.00022614,0.00034923,-0.0002
 5840,0.00025127,0.00042983,-0.00022289,-0.00019128,0.00020481,0.004162
 79,-0.00064469,0.00014643,0.00025905,0.00038703,-0.00000322,-0.0003286
 0,0.00000333,0.00002206,0.00005602,0.00000045,0.00007269,0.00002787,0.
 00007449,-0.00007020,0.00019102,-0.00009705,-0.00002743,0.00006422,-0.
 00005379,0.00008950,0.00001840,0.00000660,0.01128884,0.03245554,0.0048
 0733,-0.00517451,-0.01586131,-0.00526866,-0.02344689,0.00027269,-0.036
 53277,-0.10716781,-0.09120838,-0.19313501,0.21371033,-0.10850552,0.622
 93313,0.00058935,0.00082296,-0.00000566,0.00242596,-0.00239790,-0.0040
 1348,-0.00009819,-0.00014130,-0.00004524,-0.00006045,0.00005117,0.0000
 5698,0.00007396,0.00000500,0.00004356,0.00000479,0.00007163,-0.0000740
 6,-0.00019794,-0.00012155,0.00028393,0.00008797,0.00001803,-0.00003316
 ,-0.00007747,-0.00007854,-0.00005525,-0.00000323,0.00000093,0.00000301
 ,0.00000432,-0.00000748,0.00000148,-0.00000627,0.00000175,0.00000168,-
 0.00002029,-0.00001884,-0.00000131,-0.00001033,0.00000278,-0.00001002,
 -0.10891164,0.02499377,-0.09939380,-0.00603644,-0.00162747,-0.02273380
 ,-0.00532964,0.00443189,-0.00059981,0.00214709,-0.02046329,0.00129650,
 -0.09672634,-0.08257643,0.00119812,0.32594370,0.00004452,0.00026014,0.
 00034627,-0.00366154,0.00192933,-0.00361808,-0.00003736,0.00002265,0.0
 0010807,0.00002127,-0.00006302,-0.00012009,-0.00017850,0.00008379,-0.0
 0005394,-0.00001784,-0.00002395,0.00022410,0.00022528,-0.00086416,-0.0
 0009337,0.00000857,-0.00015488,-0.00008211,0.00006461,0.00013088,0.000
 04198,-0.00000710,-0.00002105,0.00000133,-0.00002034,0.00000211,-0.000
 02608,0.00002997,-0.00002158,0.00005953,-0.00002395,-0.00003258,-0.000
 00099,-0.00002178,-0.00000521,0.00000290,-0.00950419,-0.15646717,0.048
 41370,0.02355793,0.06724556,0.00029936,0.00497341,-0.04752548,0.039414
 46,-0.04819086,-0.03416858,-0.05518445,-0.04753674,-0.31921817,0.09742
 595,0.17084349,0.64995279,0.00112307,0.00066363,0.00014025,-0.00361247
 ,-0.00170342,-0.00013212,-0.00007127,-0.00006817,0.00010588,-0.0000600
 2,-0.00002364,0.00005055,0.00003518,0.00008999,-0.00004912,-0.00024475
 ,0.00005732,0.00002490,-0.00022497,-0.00141631,0.00059492,0.00000339,-
 0.00008219,-0.00016574,-0.00010685,0.00010446,-0.00011783,-0.00000359,
 -0.00001582,0.00000489,-0.00001741,-0.00000489,-0.00001534,-0.00000236
 ,-0.00003910,-0.00002210,-0.00002197,-0.00006455,0.00001185,-0.0000284
 6,-0.00000206,-0.00000906,-0.07540549,0.11222480,-0.28610754,-0.040978
 56,-0.04532361,-0.03526213,-0.00059389,0.03726336,-0.03571435,0.020519
 36,-0.00795341,0.05090533,-0.02371587,0.03273862,-0.13232761,0.2274042
 4,-0.05516668,0.60387539,0.00003613,-0.00006597,0.00003167,-0.00066883
 ,0.00038067,0.00028131,-0.00000235,0.00001002,0.00004049,0.00000160,-0
 .00000106,-0.00000579,-0.00000014,-0.00000942,0.00000311,-0.00002831,-
 0.00000721,0.00000794,0.00002828,-0.00006856,-0.00001817,0.00000126,0.
 00000150,-0.00000844,-0.00000241,0.00000986,0.00000270,-0.00000279,-0.
 00000193,-0.00000046,-0.00000264,0.00000288,-0.00000362,-0.00000546,0.
 00001040,0.00000870,0.00000285,-0.00000116,-0.00000026,-0.00000321,-0.
 00000277,0.00000173,-0.06222625,-0.06712258,0.00968749,0.00095960,-0.0
 1649659,0.00526042,0.00338948,-0.00346471,-0.00521547,-0.00097622,0.00
 022450,-0.00021765,0.00479546,-0.00084228,-0.00461521,0.00685904,0.010
 11534,-0.00301686,0.05322107,-0.00008977,-0.00007599,0.00010573,0.0002
 8705,0.00022206,-0.00023670,-0.00001092,-0.00001067,0.00001593,-0.0000
 1862,0.00000452,0.00000910,0.00002072,0.00000593,0.00000906,-0.0000210
 4,-0.00001387,0.00003845,-0.00001773,-0.00008331,0.00002964,0.00003535
 ,-0.00001911,-0.00001960,-0.00001479,-0.00000213,-0.00002080,-0.000004
 10,-0.00000140,-0.00000136,-0.00000291,-0.00000276,-0.00000471,-0.0000
 0387,0.00001766,0.00000523,0.00000690,0.00000108,0.00000233,-0.0000061
 7,0.00000031,-0.00000072,-0.06725624,-0.31400600,0.07286551,-0.0023141
 3,-0.01082468,0.00670086,-0.00366698,0.00056339,-0.00163716,0.00033831
 ,0.00051124,-0.00041523,-0.00074509,0.00168051,0.00279635,-0.00375378,
 -0.00567228,0.00035774,0.07468576,0.32859453,0.00013131,0.00011625,-0.
 00002474,0.00030914,-0.00026828,-0.00026274,-0.00001449,-0.00001966,-0
 .00001114,-0.00001219,0.00001354,0.00002018,0.00003380,-0.00000063,0.0
 0001838,0.00001436,-0.00001137,0.00001333,-0.00003885,0.00002399,0.000
 01987,0.00004629,-0.00000195,0.00000958,-0.00001230,-0.00001588,-0.000
 01575,-0.00000073,0.00000154,0.00000065,0.00000239,-0.00000106,0.00000
 129,-0.00000711,0.00001217,-0.00000162,-0.00000757,0.00000134,-0.00000
 391,0.00000171,0.00000150,-0.00000013,0.00964152,0.07271220,-0.0758570
 5,-0.00459030,-0.01876839,0.00953582,-0.00504109,-0.00148810,-0.000471
 37,-0.00027690,-0.00036995,-0.00113331,-0.00474212,0.00259310,-0.00309
 279,0.00685279,0.02614922,-0.00148613,-0.00651787,-0.07944795,0.072721
 66,-0.00006977,0.00002618,0.00014271,0.00038060,-0.00008401,0.00015860
 ,-0.00001965,-0.00001250,0.00000984,-0.00000341,-0.00000158,-0.0000120
 1,-0.00001572,0.00000455,-0.00000846,0.00001864,0.00001438,0.00000186,
 -0.00000509,-0.00002700,-0.00000552,0.00000976,-0.00000012,-0.00000164
 ,-0.00000091,0.00001024,-0.00000016,-0.00000026,-0.00000362,0.00000057
 ,0.00000086,-0.00000155,0.00000022,0.00000312,-0.00000730,-0.00000112,
 0.00000255,-0.00000285,0.00000773,-0.00000231,-0.00000427,0.00000169,-
 0.00112431,0.00782266,-0.01480913,-0.07713490,0.02992968,-0.09046148,0
 .00618477,-0.00359618,0.00696890,0.00508761,-0.00348388,-0.00159274,-0
 .00082944,-0.00044005,0.00032916,0.00349226,-0.00438564,-0.00420654,-0
 .00251064,0.00134669,0.00212282,0.07025170,-0.00003531,-0.00039383,0.0
 0040651,0.00042219,0.00074940,0.00058341,-0.00010203,-0.00007839,0.000
 12840,-0.00002476,-0.00000651,-0.00000444,-0.00000199,0.00001647,-0.00
 002271,-0.00005960,0.00001669,0.00002195,0.00003221,-0.00009734,-0.000
 00275,0.00001021,-0.00002390,-0.00003108,-0.00001799,0.00001082,-0.000
 01659,-0.00000394,-0.00000542,-0.00000041,-0.00000908,-0.00001257,-0.0
 0000853,0.00000993,-0.00000784,0.00001167,0.00001846,0.00000102,0.0000
 0887,-0.00000858,-0.00000201,-0.00000189,-0.00643223,0.01091643,-0.016
 63319,0.02994158,-0.09637524,0.09551261,0.01037289,-0.00632955,0.02590
 034,-0.00334270,-0.00412102,0.00194601,-0.00038069,-0.00096800,-0.0005
 5866,-0.00410914,-0.00096268,-0.00143790,0.00162166,0.00022003,-0.0002
 0908,-0.02948109,0.09673965,0.00008297,0.00005611,-0.00016604,-0.00037
 154,-0.00073918,0.00016171,0.00003936,0.00002101,-0.00003640,0.0000125
 5,0.00000374,0.00001217,0.00000601,-0.00001140,0.00000960,0.00002847,0
 .00001029,-0.00004490,-0.00000333,0.00012745,0.00000094,-0.00001707,0.
 00001851,0.00002735,0.00000813,-0.00001580,0.00000781,0.00000353,0.000
 00504,0.00000104,0.00000467,0.00000204,0.00000597,-0.00000323,-0.00000
 442,-0.00000714,-0.00001030,0.00000299,-0.00000959,0.00000859,0.000004
 49,-0.00000100,-0.00467209,0.00894937,-0.01089065,-0.09028910,0.095529
 09,-0.27075826,-0.00306633,0.00046730,-0.00222287,-0.00177073,0.002325
 99,0.00254434,0.00033164,-0.00060694,0.00020225,-0.00437232,-0.0018157
 7,0.00088108,0.00192159,-0.00072130,-0.00023579,0.10001475,-0.10348893
 ,0.28189972,0.00017624,-0.00006659,-0.00013579,-0.00221417,0.00007034,
 0.00073797,-0.00005016,-0.00001429,0.00006543,-0.00018504,0.00011754,0
 .00014015,0.00018686,-0.00008998,-0.00000292,-0.00017406,-0.00088507,-
 0.00002676,-0.00018433,-0.00085969,0.00064492,0.00039054,0.00010754,-0
 .00005845,-0.00021413,-0.00004133,-0.00016017,-0.00000871,0.00000719,0
 .00000294,0.00000384,0.00002939,-0.00000772,0.00000435,0.00042818,0.00
 008645,0.00001051,0.00003416,-0.00000614,-0.00000505,-0.00001421,-0.00
 000324,0.00554733,-0.00265759,-0.00171809,0.00111812,-0.00256851,-0.00
 486614,-0.13607484,-0.09470494,-0.10587975,-0.00294227,-0.00547576,-0.
 00466443,0.00492394,-0.00029118,-0.00348381,-0.00044246,0.00049483,0.0
 0052718,-0.00023347,-0.00000262,-0.00014319,-0.00269118,0.00136728,0.0
 0184478,0.13367858,-0.00008130,0.00009930,-0.00022745,0.00145075,-0.00
 049264,0.00095692,0.00001455,-0.00000097,-0.00010777,-0.00006976,0.000
 05091,0.00008706,0.00009113,-0.00013649,-0.00015426,-0.00078737,-0.001
 57887,0.00005496,-0.00036799,-0.00117921,0.00099543,0.00029505,0.00001
 236,-0.00001604,-0.00000159,-0.00003934,-0.00013231,0.00003762,0.00002
 321,-0.00000170,0.00001326,0.00005845,0.00001070,0.00017468,-0.0003423
 0,-0.00010102,0.00003709,0.00005542,-0.00003253,0.00002563,-0.00000345
 ,-0.00000939,-0.00274168,-0.00383755,0.00354257,-0.01654290,-0.0105735
 9,-0.01898919,-0.09413881,-0.14371299,-0.09304084,0.00694401,0.0108916
 1,0.00638818,-0.00082600,0.00020014,0.00387946,0.00050671,-0.00068968,
 0.00071973,-0.00077654,-0.00063640,-0.00096085,0.00167177,0.00061707,-
 0.00071288,0.10465699,0.15075247,0.00012357,0.00021250,0.00010136,-0.0
 0030306,-0.00138198,-0.00166143,0.00003915,0.00003107,0.00001814,-0.00
 024554,0.00012129,0.00017932,0.00028425,0.00003329,0.00009371,-0.00001
 921,-0.00009856,0.00033179,-0.00025069,-0.00020172,0.00039026,0.000668
 84,-0.00008810,-0.00008885,-0.00016275,-0.00008212,-0.00030515,-0.0000
 1798,-0.00000923,-0.00000064,-0.00000923,-0.00000970,-0.00003107,0.000
 02535,0.00008430,0.00009817,-0.00001787,-0.00002433,-0.00002442,-0.000
 02349,0.00000438,-0.00000342,-0.00198617,0.00320785,0.00195757,0.00508
 571,0.00625509,0.00932815,-0.10521480,-0.09346092,-0.15994958,-0.01378
 073,-0.01512734,-0.01197190,-0.00360172,0.00428477,-0.00217312,0.00053
 598,0.00057207,-0.00038917,0.00035629,0.00035036,0.00028297,0.00173463
 ,-0.00103215,-0.00046065,0.11702230,0.09764969,0.16489716,0.00067640,0
 .00059132,0.00025280,-0.00222814,0.00087843,-0.00090259,0.00001898,0.0
 0012066,0.00011387,0.00000630,-0.00000043,0.00000037,-0.00000724,0.000
 03322,0.00000584,0.00002477,-0.00001423,0.00006866,0.00001515,-0.00031
 475,0.00015063,0.00002758,-0.00001129,-0.00002689,-0.00000723,0.000030
 67,0.00000197,0.00000133,-0.00000315,0.00000478,0.00000132,0.00000646,
 0.00000107,-0.00000182,-0.00000036,0.00000498,-0.00004383,-0.00003232,
 -0.00002613,0.00000009,-0.00000056,0.00000011,0.00520980,-0.00355577,-
 0.00216905,-0.00071580,-0.00010750,0.00049751,0.00308662,-0.00449377,-
 0.00387334,-0.00254243,0.00618226,-0.01448265,-0.07229157,0.02833316,-
 0.08347225,0.00695596,-0.00362485,0.00672111,0.00002260,-0.00015269,0.
 00043190,-0.00076738,0.00038926,0.00044118,0.00005084,0.00038220,-0.00
 076926,0.06530459,0.00096734,-0.00014458,-0.00057069,-0.00048594,-0.00
 133558,-0.00234133,-0.00002485,-0.00003280,0.00005136,-0.00000036,0.00
 001795,0.00003062,0.00003447,0.00001485,0.00005145,0.00011091,-0.00002
 387,0.00001033,-0.00006608,0.00021917,0.00021680,0.00004172,0.00002950
 ,0.00001285,-0.00000589,-0.00001904,-0.00000398,0.00000377,0.00000452,
 0.00000430,0.00001358,0.00001144,0.00001023,-0.00001075,0.00001369,0.0
 0000418,-0.00005386,-0.00000812,-0.00004269,0.00001133,0.00000118,0.00
 000197,-0.00366808,-0.00405281,0.00174471,-0.00028608,-0.00099898,-0.0
 0057604,-0.00411326,-0.00142990,-0.00137654,-0.00466188,0.01099655,-0.
 01509082,0.02808883,-0.09526967,0.09448051,0.00964543,-0.00509944,0.02
 522706,0.00053274,-0.00037106,0.00119328,0.00038319,-0.00001600,-0.000
 11221,-0.00043461,0.00054975,-0.00088159,-0.02674230,0.09652237,0.0012
 4085,0.00079202,-0.00040215,0.00078929,0.00071734,-0.00142732,-0.00017
 225,-0.00019860,-0.00003195,-0.00000679,0.00001968,0.00004119,0.000052
 00,-0.00000798,-0.00000330,-0.00004818,0.00000894,-0.00004191,-0.00001
 342,-0.00005644,-0.00006307,0.00009159,-0.00001833,0.00001754,-0.00004
 155,-0.00002729,-0.00001315,-0.00000213,0.00000430,-0.00000011,-0.0000
 0259,-0.00000545,-0.00000068,-0.00000338,0.00001615,0.00000017,-0.0000
 0888,0.00001244,0.00000555,-0.00000215,0.00000221,-0.00000286,-0.00180
 494,0.00172177,0.00270279,0.00043150,-0.00050822,0.00021974,-0.0038003
 4,-0.00188818,0.00075565,-0.00534254,0.00650199,-0.01255618,-0.0848954
 9,0.09441557,-0.27205129,-0.00294019,0.00056069,-0.00107020,-0.0000276
 6,-0.00011917,-0.00018591,0.00040647,-0.00008006,-0.00027023,-0.000294
 15,0.00053180,-0.00049445,0.09490432,-0.10204162,0.28477016,-0.0000697
 9,-0.00002745,0.00013988,0.00017414,0.00043147,-0.00052129,-0.00002014
 ,-0.00001330,0.00002460,-0.00001691,0.00000501,0.00002211,0.00002434,-
 0.00000221,-0.00000145,-0.00004730,0.00001212,0.00002424,-0.00001221,-
 0.00001883,0.00008701,0.00001911,-0.00001303,-0.00004686,-0.00003080,-
 0.00000658,-0.00002163,-0.00000238,-0.00000142,-0.00000090,-0.00000315
 ,-0.00000217,-0.00000288,0.00000692,0.00001373,-0.00000106,0.00000494,
 -0.00000493,0.00000292,-0.00000813,0.00000114,-0.00000424,-0.00108862,
 -0.00648137,-0.00479790,0.00529496,-0.00047746,-0.00387275,-0.00043440
 ,0.00038179,0.00055297,0.00531599,-0.00304603,-0.00187604,0.00057627,-
 0.00233638,-0.00459444,-0.13039053,-0.09459585,-0.10339594,-0.00267638
 ,0.00133023,0.00184322,-0.00021374,-0.00031335,-0.00017130,-0.00084157
 ,0.00030698,0.00045681,-0.00287879,0.00138313,0.00176293,0.12720284,-0
 .00004445,-0.00003273,0.00027566,-0.00050384,0.00062681,-0.00102904,-0
 .00003993,-0.00003670,0.00005949,-0.00001782,-0.00002077,-0.00002940,-
 0.00004356,0.00003943,-0.00003378,-0.00007951,0.00002091,0.00004734,0.
 00001496,-0.00055675,0.00010679,-0.00001149,-0.00003686,-0.00006881,-0
 .00000693,0.00004338,-0.00001489,-0.00000490,-0.00000941,-0.00000052,-
 0.00001250,-0.00000361,-0.00001378,0.00000760,-0.00002209,0.00001327,0
 .00001147,-0.00001525,0.00000761,-0.00001674,-0.00000268,-0.00000221,0
 .00738059,0.01090881,0.00888649,-0.00074849,0.00051843,0.00363108,0.00
 048314,-0.00059533,0.00071843,-0.00270777,-0.00399463,0.00305347,-0.01
 618147,-0.01149917,-0.01916518,-0.09464710,-0.14873687,-0.09738245,0.0
 0103168,0.00011155,-0.00118906,0.00042187,0.00038383,0.00047092,0.0002
 7272,-0.00006816,-0.00030778,0.00160941,0.00066903,-0.00064850,0.10372
 210,0.15257689,-0.00003301,-0.00007420,-0.00002229,0.00018775,0.000390
 66,0.00033638,0.00000391,0.00000519,0.00000376,0.00001021,-0.00000133,
 -0.00000939,-0.00001038,-0.00000334,0.00000157,0.00001651,-0.00002765,
 0.00001078,0.00002618,0.00007498,-0.00007192,0.00000390,0.00000067,0.0
 0002011,0.00001334,-0.00000271,0.00001018,-0.00000035,0.00000117,-0.00
 000066,0.00000073,0.00000298,-0.00000007,-0.00000635,0.00000454,0.0000
 0242,0.00000256,0.00000662,-0.00000092,0.00000259,-0.00000020,0.000001
 86,-0.01445136,-0.01707180,-0.01085697,-0.00373521,0.00399714,-0.00233
 226,0.00050159,0.00084179,-0.00060962,-0.00159771,0.00302367,0.0021996
 4,0.00517873,0.00648447,0.00886637,-0.10377597,-0.09737126,-0.16398478
 ,0.00202948,-0.00063551,0.00009947,-0.00073882,-0.00087760,-0.00065595
 ,0.00041656,-0.00029723,-0.00019469,0.00164935,-0.00109407,-0.00035348
 ,0.11438251,0.10259672,0.16755579,-0.00045038,0.00062649,0.00056364,0.
 00015389,-0.00239775,-0.00032605,-0.00006760,0.00010018,-0.00019966,-0
 .00007339,-0.00001753,0.00003953,0.00003007,0.00005385,0.00000891,-0.0
 0011079,0.00004867,-0.00007333,-0.00033052,0.00034878,0.00029293,-0.00
 000024,0.00008919,-0.00020190,-0.00007710,-0.00005125,-0.00002404,-0.0
 0001056,-0.00000716,-0.00000148,-0.00001390,0.00001115,-0.00002400,-0.
 00012669,-0.00001903,0.00007120,0.00001336,0.00001935,-0.00000335,-0.0
 0002201,-0.00003106,0.00000069,0.00001106,0.00001881,-0.00005125,0.000
 03116,0.00004130,0.00000182,0.00006740,-0.00004814,0.00010178,-0.00026
 952,0.00015165,0.00007374,-0.00004256,0.00001085,-0.00010061,-0.000008
 52,-0.00004645,0.00002059,-0.00000211,0.00000622,-0.00000283,-0.000004
 56,0.00001299,-0.00000476,-0.00001061,0.00000900,0.00000228,-0.0000097
 5,0.00000531,-0.00000505,-0.00000037,0.00001726,0.00000354,0.58239053,
 0.00042958,-0.00014265,0.00004772,-0.00247682,-0.00128720,0.00133620,-
 0.00011704,0.00011416,-0.00019458,-0.00005112,0.00000480,0.00009390,0.
 00012163,0.00008150,-0.00000641,-0.00011044,0.00012341,-0.00020744,-0.
 00028669,0.00015274,-0.00009997,0.00007193,0.00023549,0.00001770,-0.00
 005272,-0.00006944,-0.00007368,0.00000086,-0.00000761,0.00000655,0.000
 00725,0.00002437,-0.00000492,-0.00016736,-0.00012959,-0.00002470,-0.00
 002291,-0.00000337,-0.00001887,0.00000955,-0.00003221,0.00001774,-0.00
 001841,-0.00002616,-0.00000014,0.00000443,0.00001505,-0.00000056,-0.00
 001102,0.00001422,-0.00013188,0.00000704,-0.00007624,-0.00014828,0.000
 11950,0.00002110,0.00005593,-0.00001015,-0.00000457,0.00000833,0.00000
 108,-0.00001243,0.00000106,0.00000446,-0.00001265,0.00000855,-0.000015
 35,0.00003325,-0.00000871,0.00001470,0.00004093,-0.00000194,-0.0000147
 1,-0.00001218,0.00000292,-0.05060738,0.71221829,0.00034859,-0.00041361
 ,-0.00025881,-0.00037446,0.00151463,-0.00060662,0.00001364,-0.00007001
 ,0.00009897,0.00007598,0.00000461,-0.00004390,-0.00004362,-0.00005074,
 -0.00004319,0.00012751,-0.00008951,0.00013371,0.00013151,-0.00009753,0
 .00001353,-0.00007746,-0.00012833,0.00009902,0.00005543,0.00005923,0.0
 0005328,0.00001083,0.00000434,-0.00000546,0.00001548,-0.00000854,0.000
 02153,0.00019279,0.00000574,-0.00010514,-0.00000101,-0.00000422,0.0000
 0345,0.00000613,0.00001974,-0.00000847,-0.00000367,-0.00002783,-0.0000
 1640,-0.00001445,0.00003889,0.00000851,0.00001881,-0.00002310,-0.00006
 471,0.00011993,-0.00006370,-0.00001577,0.00005661,0.00003797,0.0000434
 0,-0.00004045,-0.00001181,0.00003668,-0.00000091,-0.00000322,-0.000002
 50,-0.00000164,-0.00000739,0.00000467,0.00000371,-0.00000626,-0.000007
 43,0.00000569,-0.00001312,-0.00000096,0.00000651,-0.00000990,-0.000002
 74,-0.25517091,-0.01793268,0.29305868,-0.00088628,0.00039764,0.0003245
 2,0.00476460,-0.00080759,0.00029456,0.00006896,-0.00014392,0.00027906,
 0.00006611,0.00003159,-0.00006548,-0.00005692,-0.00010917,-0.00001407,
 0.00006615,-0.00011122,0.00032411,0.00027409,-0.00010646,-0.00012260,0
 .00003674,-0.00020563,0.00006946,0.00007091,0.00004343,0.00003840,0.00
 000784,0.00000701,-0.00000787,0.00000387,-0.00003078,0.00001408,0.0003
 3671,0.00009294,-0.00007644,0.00001811,0.00000296,0.00002211,0.0000021
 4,0.00003819,-0.00000942,-0.00000663,-0.00001295,-0.00000063,-0.000026
 79,-0.00000568,0.00001825,-0.00011068,-0.00003812,0.00006318,0.0005699
 3,-0.00037414,-0.00020361,-0.00006162,-0.00004239,0.00006554,-0.000040
 45,-0.00002335,0.00003093,0.00000336,0.00000476,-0.00000162,-0.0000014
 2,-0.00000397,-0.00000055,0.00003629,-0.00003988,0.00001070,-0.0000026
 8,-0.00005146,-0.00001568,0.00000503,-0.00000477,-0.00000395,-0.243700
 22,-0.03429640,0.10808270,0.54721831,-0.00007211,0.00069095,0.00029463
 ,-0.00174172,-0.00471100,0.00230601,-0.00010434,-0.00004095,-0.0002738
 2,-0.00005428,-0.00000663,0.00007030,0.00005530,0.00008964,0.00006869,
 -0.00000186,0.00008653,-0.00018327,-0.00017020,0.00015422,-0.00020862,
 0.00020921,0.00018537,0.00001777,-0.00003666,-0.00005481,-0.00008398,-
 0.00001232,-0.00000503,0.00000681,0.00000952,0.00000380,-0.00000114,-0
 .00008270,-0.00011203,0.00010799,-0.00001929,-0.00000398,0.00000682,0.
 00000716,-0.00001528,0.00001541,-0.00001142,-0.00007343,0.00001813,-0.
 00009090,-0.00001732,0.00002740,-0.00014766,-0.00007181,-0.00022719,0.
 00105535,-0.00057926,-0.00065147,0.00013132,-0.00004774,0.00021694,-0.
 00007798,-0.00000498,0.00007446,0.00001402,-0.00001731,-0.00000620,-0.
 00000629,-0.00002797,0.00002019,0.00003751,-0.00000469,-0.00000432,0.0
 0003756,-0.00002654,-0.00002835,-0.00002195,-0.00002908,0.00000058,-0.
 09973846,-0.17077352,0.06737140,-0.01732135,0.75883735,-0.00049196,0.0
 0017096,0.00042805,0.00014425,0.00132820,0.00469943,0.00010635,0.00018
 443,-0.00002108,-0.00005270,0.00000993,0.00009651,0.00012294,0.0000949
 0,0.00000265,-0.00008816,0.00014766,-0.00028798,0.00042866,-0.00008058
 ,-0.00050298,0.00021292,0.00030016,0.00012239,-0.00003524,-0.00008490,
 -0.00010552,-0.00000025,-0.00001333,0.00001057,0.00000829,0.00002182,-
 0.00000546,-0.00020361,-0.00015623,0.00004542,-0.00000764,0.00000870,-
 0.00000464,0.00002677,-0.00002144,0.00002891,-0.00004151,0.00001871,-0
 .00004013,0.00007447,0.00003810,-0.00001854,-0.00004862,0.00003739,0.0
 0002735,-0.00033537,0.00016425,-0.00005411,0.00007482,-0.00000620,-0.0
 0001427,0.00003580,-0.00005739,-0.00001274,-0.00000390,-0.00000190,0.0
 0000370,0.00000667,0.00000255,-0.00000348,-0.00002303,0.00002159,0.000
 00008,-0.00001320,0.00002783,0.00000781,-0.00001343,0.00000419,0.00000
 740,0.11320053,0.02882134,-0.13486177,-0.23964512,-0.03838673,0.283078
 69,-0.00076715,0.00018216,0.00024786,0.00102173,0.01932244,-0.00256242
 ,0.00016158,0.00026337,0.00023124,-0.00014276,-0.00006117,0.00016746,0
 .00006233,0.00024514,0.00001097,-0.00055639,0.00050399,-0.00068201,-0.
 00063693,0.00010194,0.00038914,0.00004225,0.00007629,-0.00025154,-0.00
 021165,-0.00006256,-0.00012842,-0.00002863,-0.00002193,0.00000913,-0.0
 0000364,0.00003200,-0.00004003,-0.00071540,0.00010985,-0.00002992,0.00
 008523,0.00000338,-0.00002753,-0.00003721,-0.00004213,-0.00000012,0.00
 011539,0.00027255,0.00009032,0.00024779,-0.00009396,-0.00017073,0.0005
 0695,0.00045748,0.00023463,-0.00336926,0.00183203,0.00255836,-0.000162
 24,0.00032748,-0.00055003,0.00035953,0.00019928,-0.00033287,-0.0000505
 1,0.00005369,0.00002135,-0.00000394,0.00008713,-0.00005145,-0.00014062
 ,0.00002569,0.00002465,-0.00018298,0.00009945,0.00008637,0.00006093,0.
 00010347,-0.00000949,-0.04101127,-0.01522107,0.02947880,-0.23348182,0.
 13167193,0.08902620,0.59327595,-0.00136403,-0.00050279,0.00025367,0.00
 985786,-0.01555326,-0.00470383,0.00035186,0.00030520,0.00001523,0.0000
 0630,-0.00007880,-0.00021877,-0.00038605,-0.00015065,0.00020367,0.0001
 5715,-0.00014506,-0.00028129,-0.00048493,0.00035627,0.00052433,-0.0005
 1641,-0.00011176,-0.00023853,-0.00002664,0.00003216,0.00026263,-0.0000
 4061,0.00002311,-0.00000407,-0.00001389,0.00000029,-0.00003156,0.00018
 600,0.00020768,0.00044762,-0.00003802,0.00006985,0.00000403,-0.0000508
 9,-0.00000588,-0.00001766,0.00004708,0.00000833,0.00003248,-0.00012858
 ,-0.00005665,0.00006845,-0.00005327,-0.00004402,0.00008029,0.00067336,
 0.00019955,-0.00040379,-0.00005340,-0.00017558,-0.00004821,-0.00010137
 ,0.00008550,0.00006729,0.00002507,-0.00000133,-0.00001129,-0.00000695,
 0.00000328,-0.00000069,0.00010062,-0.00011366,-0.00002598,0.00007921,-
 0.00012131,0.00003341,0.00001357,0.00000039,-0.00000310,0.03305877,0.0
 7336516,-0.02489422,0.06516909,-0.20754390,-0.02739231,-0.00505595,0.6
 7472595,0.00121560,-0.00031356,-0.00155666,-0.00074528,-0.01063312,0.0
 0260635,-0.00004404,-0.00040279,-0.00003532,-0.00003738,-0.00002402,0.
 00012127,0.00006109,0.00013665,0.00017808,-0.00025804,0.00031804,-0.00
 058585,0.00008586,-0.00052802,-0.00067018,0.00032280,0.00003115,0.0002
 7687,-0.00004232,0.00005141,-0.00021366,-0.00001495,-0.00000247,0.0000
 1740,0.00002543,-0.00000255,0.00001428,-0.00071339,0.00016073,-0.00005
 763,-0.00005932,-0.00003886,-0.00000173,0.00002654,-0.00000406,0.00001
 353,0.00016237,-0.00012134,0.00026613,-0.00031572,-0.00030544,0.000105
 17,-0.00011588,-0.00011953,-0.00039636,0.00225197,-0.00065741,-0.00036
 729,0.00004286,-0.00031508,0.00022174,-0.00019460,0.00024818,-0.000017
 64,0.00002715,-0.00002859,-0.00001154,-0.00003616,-0.00005525,0.000044
 10,0.00010493,-0.00001739,-0.00006477,0.00006042,-0.00003125,-0.000011
 89,0.00000025,-0.00005401,-0.00002075,0.02567534,0.00372237,-0.0082188
 6,0.09387815,-0.06640249,-0.11505557,-0.26381259,-0.04014125,0.2974445
 0,0.00080073,0.00100042,0.00040262,-0.10815978,0.03927262,0.03813831,-
 0.00026956,-0.00034094,-0.00054210,-0.00034081,0.00001442,0.00000323,-
 0.00026106,0.00008590,0.00064376,-0.00063207,0.00034875,-0.00029084,-0
 .01322333,0.00862849,0.00793440,-0.00172735,-0.00017265,-0.00393508,-0
 .00093732,-0.00050873,0.00090234,-0.00008897,0.00001692,-0.00004468,-0
 .00000360,0.00000816,-0.00010234,-0.00115428,-0.00012822,0.00020005,-0
 .00001779,0.00012394,-0.00022143,-0.00033733,-0.00025515,-0.00011494,0
 .00011904,-0.00032945,0.00019508,-0.00026894,-0.00010319,0.00017473,-0
 .00086534,-0.00057282,0.00011170,0.00588691,0.00016943,-0.00221276,-0.
 00073091,-0.00059157,0.00036589,-0.00036455,0.00024060,0.00019952,0.00
 005617,-0.00003735,-0.00001398,-0.00002448,-0.00009092,0.00006392,0.00
 017750,-0.00010725,0.00004508,0.00021609,-0.00008593,-0.00012906,-0.00
 002441,-0.00008629,-0.00001471,-0.01997229,-0.02910467,0.00981502,0.03
 369834,0.01804470,-0.01553694,-0.10485199,0.01503686,0.02381151,0.4837
 2246,-0.00129907,0.00444977,-0.00009067,0.04206694,-0.08489493,-0.0230
 1894,-0.00065824,-0.00023585,0.00036128,-0.00024430,0.00007916,0.00009
 624,0.00014243,-0.00010069,-0.00011564,-0.00025658,0.00005129,0.000065
 96,-0.00378229,0.00573024,0.00345076,-0.00129904,-0.00050968,-0.001733
 47,-0.00048241,-0.00047466,0.00023432,-0.00001686,0.00001740,-0.000058
 88,-0.00004077,-0.00005178,-0.00005718,-0.00026930,0.00005686,-0.00027
 150,0.00009157,0.00009724,-0.00024874,-0.00020738,-0.00009514,-0.00007
 566,0.00013715,-0.00027360,-0.00006357,-0.00117649,-0.00019709,0.00045
 684,-0.00063924,-0.00033226,-0.00197524,0.01128884,-0.01039494,-0.0062
 2629,0.00113651,-0.00013168,0.00145631,-0.00110858,-0.00016388,0.00088
 442,0.00016670,-0.00011868,-0.00007744,-0.00005596,-0.00012479,0.00013
 434,0.00048589,-0.00011934,-0.00005674,0.00032585,-0.00022315,-0.00033
 843,-0.00015184,-0.00014724,0.00002051,-0.03009947,-0.05352590,0.02149
 078,0.06924048,-0.03704649,-0.03709547,-0.03761050,-0.32318536,0.04410
 812,0.03187636,0.61327975,0.01761167,-0.01350999,-0.00867718,0.0361658
 6,-0.02032801,-0.06618509,-0.00020991,-0.00089770,0.00140834,-0.000041
 85,-0.00006548,-0.00024693,-0.00046538,0.00023684,0.00022278,-0.000549
 80,0.00007288,-0.00042197,-0.00334260,0.00283425,0.00589485,-0.0012231
 7,-0.00101923,-0.00186117,-0.00037710,0.00001568,0.00076293,-0.0000438
 2,-0.00003630,0.00000128,-0.00001762,-0.00002035,-0.00004412,-0.001343
 12,0.00013986,-0.00013013,-0.00012058,-0.00001170,-0.00002200,-0.00019
 185,0.00000895,-0.00011081,0.00018523,0.00027153,0.00041059,0.00029108
 ,-0.00049444,-0.00016203,0.00049399,0.00042107,-0.00023836,-0.00410083
 ,0.00206511,0.00460079,-0.00031541,0.00036612,-0.00080825,0.00042137,0
 .00050825,-0.00030052,-0.00002736,0.00003786,0.00003707,-0.00001501,0.
 00006596,-0.00003524,-0.00016134,-0.00005136,0.00017293,-0.00007102,0.
 00022734,0.00013514,0.00007076,0.00010114,-0.00002999,0.00995270,0.021
 52730,-0.01524841,-0.02055894,-0.00685234,0.02249891,0.02843752,0.0132
 6983,-0.08011824,-0.20704264,-0.05697859,0.26618212,0.00011713,0.00017
 470,-0.00169199,-0.01602902,0.00184830,0.00996597,0.00023031,-0.000365
 62,0.00041432,0.00009602,0.00004174,-0.00003710,0.00006707,-0.00020945
 ,-0.00022460,0.00005973,-0.00018937,0.00079803,-0.00037719,0.00075466,
 0.00075558,-0.00035109,-0.00030193,-0.00037911,-0.00003453,0.00001141,
 0.00011934,0.00002678,0.00001970,-0.00003175,-0.00000299,-0.00002536,0
 .00001951,0.00014228,-0.00013809,-0.00058232,0.00003567,0.00002580,-0.
 00004012,-0.00003864,0.00000819,-0.00003501,0.00009833,-0.00001249,0.0
 0001993,-0.00019238,-0.00018237,0.00007636,-0.00016040,0.00002600,0.00
 046186,-0.00084468,-0.00015593,0.00031781,-0.00037979,-0.00033110,-0.0
 0009505,-0.00004689,0.00001495,0.00002373,0.00000967,0.00000697,-0.000
 00666,-0.00000512,0.00000214,-0.00001291,0.00005722,-0.00000374,-0.000
 08646,0.00003857,-0.00001777,-0.00000273,-0.00000621,0.00001178,0.0000
 0359,0.03773517,0.06842415,-0.02387012,-0.06140747,0.00809994,0.031284
 79,0.02535684,-0.07661200,-0.00416702,-0.23347542,-0.04492531,0.106174
 32,0.53777748,0.00306169,-0.00279162,-0.00161446,0.00911528,0.01025878
 ,-0.00573328,-0.00013366,-0.00001740,0.00001414,0.00010904,0.00002608,
 0.00011869,0.00017347,0.00016361,-0.00005900,0.00002703,0.00004637,-0.
 00003063,0.00215633,-0.00240217,-0.00192364,0.00076993,0.00035126,0.00
 101609,0.00022412,0.00017905,-0.00026891,0.00004310,-0.00002469,0.0000
 4074,0.00004284,0.00003019,0.00006056,-0.00008625,-0.00020616,-0.00006
 940,-0.00008912,-0.00006980,0.00006913,0.00014099,0.00003622,0.0000480
 5,-0.00005174,-0.00010361,0.00004888,-0.00004186,-0.00006208,0.0000668
 8,0.00003044,-0.00018592,-0.00021350,0.00031829,-0.00044793,-0.0003026
 3,0.00036837,-0.00018072,0.00013017,-0.00010576,-0.00012607,0.00001429
 ,0.00000456,-0.00000979,-0.00000593,0.00001211,-0.00003197,0.00001150,
 0.00004226,0.00005699,-0.00002367,0.00007213,0.00007909,-0.00011391,-0
 .00001181,-0.00003464,-0.00000057,0.01979378,-0.03505647,-0.00825748,0
 .00567758,-0.00187558,-0.00378437,-0.02834330,-0.01467366,0.01855554,-
 0.09704347,-0.16095851,0.06555405,-0.01617889,0.75148890,0.00052273,-0
 .00072553,-0.00004071,0.00956052,-0.00179523,-0.00558719,0.00005566,0.
 00008889,-0.00009164,-0.00016430,-0.00004462,0.00012662,-0.00001670,0.
 00021198,0.00020542,-0.00058749,-0.00001182,-0.00039362,-0.00136304,0.
 00033414,-0.00052010,0.00025604,0.00016699,0.00001277,-0.00017670,-0.0
 0006335,-0.00016415,-0.00003435,-0.00001966,0.00002321,0.00000717,0.00
 002868,-0.00002767,-0.00030770,-0.00007479,0.00029083,-0.00003187,0.00
 001580,0.00001131,-0.00000923,-0.00003663,0.00002226,0.00007603,0.0000
 6788,0.00013708,-0.00011975,-0.00015924,0.00000352,-0.00008783,0.00042
 276,-0.00006546,0.00054650,-0.00000833,-0.00046466,0.00030282,-0.00016
 984,0.00012263,0.00011381,0.00018930,-0.00020982,-0.00000827,-0.000000
 93,0.00000880,0.00001899,-0.00001602,-0.00002047,-0.00000974,-0.000005
 42,-0.00003883,-0.00008983,0.00005650,-0.00000097,-0.00001517,0.000002
 54,-0.00000114,-0.01957969,-0.03669867,0.02168220,0.03144422,-0.005165
 20,-0.02521904,-0.00797097,0.04688682,0.00874859,0.11063489,0.03574625
 ,-0.12823386,-0.23390276,-0.04012348,0.28295966,-0.00103301,0.00112940
 ,0.00087899,0.00036673,-0.00376868,0.00346101,-0.00012164,0.00003807,-
 0.00020572,-0.00006482,0.00001685,0.00005211,0.00011357,0.00000053,-0.
 00002621,-0.00020261,0.00012377,-0.00007640,-0.00020536,0.00029763,-0.
 00003258,0.00007032,0.00019957,-0.00009996,-0.00005281,-0.00011564,-0.
 00005187,-0.00000284,0.00000388,-0.00000657,-0.00001308,0.00000840,-0.
 00001835,-0.00010551,-0.00010111,-0.00003927,0.00001875,0.00000801,-0.
 00002100,-0.00000967,-0.00002622,0.00000954,-0.00001713,0.00003340,0.0
 0004132,-0.00001007,-0.00000696,-0.00002784,0.00005149,0.00018226,-0.0
 0018150,0.00016378,-0.00032949,-0.00004963,0.00015339,0.00003263,-0.00
 000214,0.00005382,0.00007046,-0.00005199,0.00000137,-0.00001029,0.0000
 0252,0.00000887,0.00000196,0.00000318,-0.00002828,0.00001808,0.0000129
 5,-0.00004011,0.00002162,0.00003002,-0.00000803,0.00000907,0.00000333,
 -0.11650737,-0.04045960,0.03359750,0.02842062,-0.02981171,-0.01020977,
 -0.01448986,0.02949674,0.00232890,-0.04113838,-0.01714739,0.03136267,-
 0.22714226,0.12668759,0.08480222,0.58612209,-0.00006940,0.00007089,-0.
 00039422,-0.00272431,0.00217120,0.00213580,0.00012129,-0.00019536,0.00
 023390,0.00008757,0.00001510,-0.00009765,-0.00010314,-0.00013060,-0.00
 001106,0.00020700,-0.00012769,0.00022904,0.00038970,-0.00003553,-0.000
 06603,-0.00010478,-0.00021627,0.00007426,0.00008977,0.00003866,0.00007
 272,0.00001025,0.00001699,-0.00001047,0.00000354,-0.00002741,0.0000209
 1,0.00022287,0.00012460,-0.00012906,0.00001606,-0.00000281,-0.00000717
 ,0.00000515,0.00003841,-0.00001290,-0.00002302,-0.00001181,0.00006544,
 -0.00005778,0.00001222,-0.00002573,0.00005780,0.00014255,-0.00032917,0
 .00065365,-0.00047227,-0.00018482,0.00025877,0.00010308,0.00011019,0.0
 0002920,0.00012301,-0.00001943,0.00000010,-0.00000831,0.00000268,-0.00
 000045,-0.00000793,0.00000900,0.00000481,-0.00002873,0.00001190,-0.000
 02492,-0.00004340,0.00001623,0.00000348,-0.00001254,-0.00000622,0.0250
 7582,-0.35377757,0.00998698,-0.07699228,-0.01200616,0.04677403,0.02647
 081,-0.06669677,-0.01080936,0.03246595,0.06764139,-0.02436186,0.060524
 02,-0.20429998,-0.02512546,0.00461177,0.69921826,-0.00089232,0.0004589
 7,0.00018170,0.00375140,0.00256675,0.00406303,0.00010461,0.00004916,-0
 .00000515,0.00004709,0.00002252,-0.00004423,-0.00004180,-0.00006688,0.
 00003239,0.00017907,-0.00008811,-0.00013204,0.00111253,-0.00095459,-0.
 00097632,0.00020756,0.00016631,0.00047190,0.00016152,0.00003928,-0.000
 07727,0.00000805,0.00000897,0.00000817,0.00001378,0.00000264,0.0000234
 9,0.00011321,0.00005034,-0.00007037,-0.00000670,-0.00001454,0.00002892
 ,0.00005272,0.00002626,0.00002371,0.00001262,0.00000422,0.00003637,-0.
 00002560,-0.00008501,0.00001448,-0.00005253,0.00000581,0.00013239,-0.0
 0015009,0.00020635,0.00013744,-0.00014996,-0.00019531,0.00000807,0.000
 03219,0.00001629,-0.00005768,0.00000242,0.00000477,-0.00000156,0.00000
 661,-0.00000554,0.00000256,0.00003447,-0.00000153,-0.00000950,0.000007
 54,-0.00001112,-0.00000047,0.00000023,0.00000375,0.00000706,0.02829204
 ,0.04857401,-0.08552136,-0.00621761,0.01909814,0.00905577,0.00237639,-
 0.01232148,-0.00703609,0.02694096,0.00523918,-0.00726082,0.08997412,-0
 .06372533,-0.11429832,-0.26396515,-0.04961651,0.29743949,0.00001703,0.
 00005179,0.00005962,-0.00005249,-0.00021507,-0.00054306,-0.00002496,-0
 .00001095,-0.00002752,-0.00001168,-0.00000366,0.00000204,-0.00000046,0
 .00000621,0.00001169,-0.00000437,0.00000306,0.00001067,-0.00009770,0.0
 0004897,0.00007779,-0.00001048,-0.00002281,-0.00004659,-0.00001721,-0.
 00000311,0.00000083,-0.00000418,0.00000005,-0.00000096,-0.00000507,-0.
 00000151,-0.00000579,0.00001089,0.00000460,0.00003008,0.00000335,-0.00
 000019,-0.00000073,-0.00000726,-0.00000062,-0.00000269,-0.00000164,0.0
 0000618,-0.00000475,0.00000988,0.00000655,-0.00000328,0.00001382,0.000
 00055,0.00001625,-0.00005175,0.00002209,0.00003029,-0.00000985,0.00002
 535,-0.00002246,0.00000080,-0.00000075,0.00000241,0.00000013,0.0000022
 0,-0.00000043,-0.00000013,0.00000404,-0.00000251,-0.00000142,-0.000004
 06,0.00000354,-0.00000147,-0.00000245,-0.00000174,0.00000295,0.0000032
 0,-0.00000082,-0.20355712,0.12045502,0.08584643,-0.01146188,0.01562004
 ,0.00814331,-0.00069722,-0.00267475,0.00499317,-0.00019857,-0.00078225
 ,-0.00040041,0.00311305,-0.00070049,0.00285834,0.00566209,-0.00302114,
 -0.00031966,0.20900658,0.00008154,-0.00002714,-0.00005623,-0.00018090,
 0.00003394,0.00005413,-0.00000613,-0.00000169,-0.00000958,0.00000344,0
 .00000061,0.00000457,0.00000541,0.00000083,-0.00000377,-0.00000507,0.0
 0000115,0.00000094,0.00003181,-0.00001633,-0.00003198,0.00001526,0.000
 00883,0.00001772,0.00000426,0.00000126,-0.00000441,0.00000179,0.000000
 31,0.00000057,0.00000157,0.00000139,0.00000160,-0.00001110,-0.00000937
 ,-0.00000905,-0.00000305,-0.00000194,0.00000035,0.00000344,0.00000030,
 0.00000086,-0.00000513,-0.00000407,0.00000783,-0.00000392,0.00000078,-
 0.00000522,-0.00000205,0.00001342,-0.00006336,0.00005572,-0.00005324,-
 0.00002660,0.00004689,0.00002086,0.00003193,0.00000340,0.00001239,0.00
 000010,-0.00000038,-0.00000398,0.00000092,0.00000051,-0.00000363,0.000
 00355,-0.00000478,0.00000359,0.00000116,-0.00000374,0.00000345,0.00000
 434,-0.00000260,-0.00000436,-0.00000121,0.12041553,-0.15590251,-0.0615
 8264,-0.01089403,0.01177879,0.00583054,-0.00242604,-0.00023403,0.00204
 482,-0.00078109,-0.00062185,0.00044818,-0.00092715,-0.00551894,0.00164
 563,0.02340198,-0.01156714,-0.01249496,-0.12925925,0.16052334,0.000184
 80,-0.00013599,-0.00017651,-0.00048198,0.00000105,-0.00064095,-0.00000
 749,0.00000554,0.00001049,0.00000725,-0.00000181,-0.00000723,-0.000009
 44,-0.00000387,-0.00000510,0.00000024,-0.00001073,0.00001910,-0.000078
 35,0.00000756,0.00008994,-0.00004208,-0.00002990,-0.00002857,-0.000004
 16,0.00000957,0.00002008,0.00000106,0.00000085,0.00000002,-0.00000257,
 -0.00000073,-0.00000043,0.00001011,0.00001159,-0.00000051,-0.00000289,
 -0.00000211,-0.00000204,-0.00000225,0.00000126,-0.00000356,-0.00000263
 ,-0.00000487,-0.00000429,0.00000698,0.00000375,-0.00000084,-0.00000612
 ,-0.00002384,-0.00000241,0.00002149,-0.00000285,-0.00002603,-0.0000019
 1,0.00001719,0.00000272,-0.00000788,-0.00000499,0.00001276,0.00000013,
 -0.00000085,0.00000015,-0.00000162,-0.00000044,0.00000106,-0.00000236,
 -0.00000033,0.00000108,0.00000619,0.00000247,-0.00000101,0.00000014,-0
 .00000267,-0.00000116,0.08577941,-0.06175717,-0.08559639,0.01038247,-0
 .00977697,-0.00078862,0.00497293,0.00222288,0.00430038,-0.00042423,0.0
 0044965,-0.00078688,0.00292380,0.00146826,0.00599804,-0.00251616,0.003
 28357,0.00585181,-0.09645616,0.06532868,0.07785389,-0.00014357,0.00000
 850,0.00008446,0.00057542,0.00062120,-0.00028740,0.00003345,-0.0000007
 0,0.00000550,-0.00001807,-0.00000559,-0.00000348,0.00000093,-0.0000120
 2,0.00000139,-0.00001270,-0.00000826,0.00002187,-0.00003337,0.00003236
 ,0.00004642,-0.00001556,-0.00001563,-0.00004557,-0.00001449,-0.0000093
 8,0.00000113,-0.00000286,0.00000225,-0.00000238,-0.00000679,0.00000238
 ,-0.00000930,0.00001250,0.00000377,0.00001355,0.00000928,0.00000646,0.
 00000029,-0.00000725,0.00000022,-0.00000311,-0.00001844,0.00001962,-0.
 00003599,0.00004100,0.00004296,-0.00001141,0.00004601,0.00000787,0.000
 04886,-0.00030766,0.00012045,0.00010018,-0.00000514,0.00004291,-0.0000
 5247,0.00002641,-0.00002625,0.00000151,-0.00000387,0.00000497,0.000000
 86,0.00000348,0.00000908,-0.00000711,-0.00001474,0.,0.00000624,-0.0000
 0899,0.00000138,0.00000813,0.00000223,0.00000974,0.00000212,0.00367746
 ,-0.02462585,0.00215732,-0.05517239,-0.01496037,0.01074964,0.00526473,
 0.02314950,-0.00256927,-0.00091716,0.00303004,0.00476284,-0.00126559,0
 .00018922,0.00022628,-0.00178456,-0.00141415,0.00552392,-0.00028214,0.
 00033448,-0.00228990,0.05084628,0.00023784,-0.00015432,-0.00022735,-0.
 00081856,0.00006526,0.00061734,-0.00000752,-0.00001696,0.00000947,0.00
 001968,0.00001008,0.00000396,0.00000873,0.00000449,-0.00000923,0.00000
 841,-0.00000157,-0.00000442,0.00009482,-0.00008569,-0.00011803,0.00002
 816,0.00002708,0.00006955,0.00002292,0.00000745,-0.00000644,0.00000614
 ,-0.00000058,0.00000242,0.00000698,-0.00000078,0.00001045,-0.00001234,
 -0.00001637,-0.00003442,-0.00001040,-0.00000770,0.00000012,0.00001226,
 0.00000143,0.00000401,-0.00000311,-0.00002137,0.00000176,-0.00002204,-
 0.00000705,0.00000909,-0.00003785,-0.00002572,-0.00006144,0.00020481,-
 0.00010940,-0.00014437,0.00004059,-0.00002237,0.00006466,-0.00002443,-
 0.00000838,0.00002065,0.00000218,-0.00000632,-0.00000026,-0.00000178,-
 0.00000957,0.00000729,0.00000495,0.00000465,-0.00000398,0.00001261,0.0
 0000201,-0.00000339,-0.00000735,-0.00001104,0.00000091,0.00180425,-0.0
 0719021,-0.00015527,-0.01489062,-0.34370420,0.03218616,-0.00302896,-0.
 01246933,0.00315998,0.00301296,-0.00014007,-0.00117129,0.00001039,0.00
 060462,-0.00012972,-0.00168456,0.00100747,0.00149840,-0.00019328,0.000
 59906,-0.00027414,0.01538607,0.36147201,-0.00000122,-0.00000969,-0.000
 06891,-0.00001833,-0.00031253,0.00046818,0.00001821,-0.00001772,-0.000
 01574,-0.00001110,0.00000450,0.00001145,0.00001805,0.00000411,0.000001
 91,-0.00003062,-0.00000899,0.00001212,-0.00002758,0.00000592,-0.000060
 01,0.00003942,0.00003692,-0.00000289,-0.00000151,-0.00001268,-0.000018
 90,0.00000092,0.00000095,0.00000097,-0.00000302,0.00000208,-0.00000273
 ,0.00000240,-0.00000372,-0.00000564,-0.00000164,-0.00000231,0.00000115
 ,0.00000434,-0.00000429,0.00000178,-0.00003213,-0.00002195,-0.00005111
 ,0.00000751,0.00005711,0.00000889,-0.00001885,-0.00004485,0.00000194,0
 .00009425,-0.00012326,-0.00019670,0.00001913,0.00002066,0.00004106,-0.
 00001910,-0.00005555,0.00004591,0.00000144,-0.00000279,-0.00000165,0.0
 0000470,-0.00000414,0.00000093,-0.00000020,0.00000270,0.00000224,0.000
 01501,-0.00000455,-0.00000627,-0.00000662,-0.00000586,0.00000292,0.000
 14463,0.01539168,0.00270658,0.01058186,0.03222629,-0.04774894,-0.00035
 298,-0.01229026,0.00519579,0.00468978,-0.00108763,0.00488594,0.0001978
 9,-0.00022557,-0.00098282,0.00554016,0.00136649,0.00401425,-0.00224441
 ,-0.00057141,-0.00273614,-0.01565331,-0.03493768,0.03837731,0.00023377
 ,-0.00014651,0.00018979,-0.00048699,0.00068327,-0.00088636,-0.00012583
 ,-0.00009950,-0.00020215,-0.00004047,0.00004008,0.00007319,0.00012163,
 -0.00000588,-0.00000203,-0.00012955,0.00005542,-0.00008488,-0.00010991
 ,-0.00012675,0.00001680,0.00012498,-0.00015874,0.00009445,-0.00007861,
 0.00000501,-0.00006612,0.00000541,-0.00000395,0.00000428,0.00000383,-0
 .00000806,0.00000905,0.00010436,-0.00006390,0.00005195,0.00001908,-0.0
 0003774,0.00002056,0.00000567,0.00001412,-0.00000793,0.00001210,-0.000
 00974,0.00002088,-0.00001676,-0.00003461,-0.00000899,-0.00000664,0.000
 01740,-0.00005237,0.00005715,-0.00015747,-0.00002564,-0.00000548,0.000
 00857,0.00004967,0.00000324,0.00000910,-0.00001032,-0.00000276,-0.0000
 0140,0.00000232,-0.00000114,-0.00000342,0.00000367,-0.00000042,0.00001
 089,0.00000421,-0.00000216,0.00001131,-0.00000336,-0.00000239,-0.00000
 654,-0.00000111,0.00001825,0.00363108,0.00422212,-0.01148067,-0.011200
 66,0.01051092,-0.22293103,-0.08914177,0.11321184,0.00289764,0.00075693
 ,-0.00055211,0.00304024,0.00046273,0.00232417,-0.00008964,0.00078352,-
 0.00056247,-0.00074279,-0.00060022,0.00037907,-0.00036246,-0.00022802,
 -0.00233146,0.23017379,0.00002421,0.00079489,0.00058323,-0.00141361,-0
 .00189074,0.00072719,-0.00025838,-0.00034480,-0.00033292,-0.00007308,-
 0.00000318,0.00003722,0.00005612,0.00000722,0.00002705,-0.00004672,0.0
 0007553,0.00013435,0.00007971,0.00014387,-0.00005793,0.00025466,0.0000
 2940,-0.00005828,-0.00004276,-0.00006257,-0.00009046,-0.00001197,0.000
 00338,-0.00000739,-0.00001049,-0.00000736,-0.00001806,-0.00003419,-0.0
 0000944,-0.00000465,0.00001139,0.00001442,0.00000206,-0.00001415,-0.00
 000081,0.00000202,0.00000122,0.00001521,0.00000088,-0.00000375,0.00001
 119,-0.00001782,0.00002210,0.00006497,-0.00004811,0.00003020,-0.000079
 64,0.00003205,0.00004462,0.00009405,-0.00001269,0.00000825,0.00001287,
 0.00000810,-0.00000035,0.00000358,-0.00000104,-0.00000121,0.00000824,-
 0.00000218,-0.00000529,-0.00000349,0.00000912,-0.00001844,-0.00001079,
 -0.00000182,0.00000121,0.00001025,-0.00000066,0.00328508,-0.00173578,-
 0.00120114,0.01523310,0.01197906,-0.00934147,-0.08956553,-0.10759890,0
 .05738802,-0.02374958,-0.00842112,0.01464389,0.00122568,-0.00553574,0.
 00029037,0.00054871,-0.00075934,-0.00032493,0.00077402,0.00042408,-0.0
 0052021,-0.00062955,0.00068158,-0.00007430,0.09535063,0.11229680,0.000
 36503,-0.00003453,-0.00024937,-0.00068865,-0.00048227,-0.00141394,-0.0
 0013731,-0.00014268,-0.00027690,0.00005730,-0.00001070,-0.00008799,-0.
 00011537,-0.00010150,-0.00005038,0.00004876,-0.00013080,0.00014332,-0.
 00007120,0.00000562,0.00023668,-0.00029755,-0.00011155,-0.00009851,0.0
 0005549,0.00006783,0.00011911,0.00000980,0.00000453,-0.00000603,-0.000
 00551,-0.00000037,-0.00000442,0.00016677,0.00007890,-0.00006522,0.0000
 0201,0.00001481,-0.00001224,-0.00000725,0.00000661,-0.00001407,0.00000
 928,0.00000906,0.00001619,-0.00000343,-0.00001602,-0.00001646,0.000032
 73,0.00003890,0.00002792,-0.00013300,0.00014818,-0.00003755,-0.0000518
 1,-0.00004726,-0.00001581,-0.00000307,0.00001447,-0.00001713,0.0000016
 6,0.00000090,-0.00000108,0.00000037,0.00000608,-0.00000379,0.00000112,
 -0.00000160,-0.00000263,0.00001065,-0.00000634,0.00000060,0.00000345,0
 .00000186,-0.00000055,0.00419700,-0.00147850,0.00537455,0.00859582,0.0
 0594499,-0.00062861,0.11311070,0.05726197,-0.10849308,0.00116383,0.000
 42914,0.00122350,0.00246304,0.00083908,0.00559840,-0.00059574,-0.00033
 606,-0.00054865,0.00026658,0.00029729,-0.00033572,-0.00232643,-0.00026
 118,-0.00299770,-0.12581370,-0.06216842,0.10323531,0.00032425,0.000002
 12,-0.00018249,-0.00116194,-0.00170755,-0.00092503,0.00001754,0.000010
 42,-0.00005458,0.00000669,-0.00000535,0.00000456,-0.00000545,-0.000002
 58,-0.00000179,0.00001206,0.00003507,0.00004055,-0.00016246,0.00032657
 ,0.00017236,-0.00005012,-0.00005450,-0.00005591,-0.00001159,0.00000289
 ,0.00002772,0.00000331,-0.00000056,0.00000042,0.00000217,-0.00000282,0
 .00000373,0.00003059,-0.00001700,0.00000116,-0.00000841,0.00000160,-0.
 00000642,-0.00000245,-0.00000365,-0.00000473,-0.00003432,-0.00006115,0
 .00000922,-0.00002220,0.00009286,-0.00008633,-0.00042172,0.00049314,-0
 .00031258,-0.00092761,0.00005627,0.00049589,0.00012194,0.00054549,0.00
 030998,-0.00005200,-0.00003053,0.00011500,0.00000823,-0.00004059,-0.00
 000635,0.00001218,-0.00003422,0.00002592,0.00010322,-0.00008907,0.0000
 0820,0.00003759,-0.00004595,-0.00003424,-0.00001552,-0.00003836,-0.000
 02126,-0.00117354,0.00277384,0.00489676,-0.00118379,0.00009850,0.00010
 961,-0.00198886,-0.00112769,0.00540284,0.00192143,-0.02302353,0.002068
 50,-0.05442372,-0.01538841,0.01055733,0.00585668,0.02279953,-0.0025432
 2,0.00007058,0.00112514,-0.00022787,-0.00016253,-0.00005419,-0.0005694
 8,0.00018136,-0.00122387,0.00022456,0.05348974,-0.00005990,0.00010363,
 0.00008971,0.00057166,-0.00100515,-0.00053629,-0.00001981,-0.00001312,
 -0.00001511,-0.00000859,-0.00000443,0.00000930,0.00000066,0.00000926,-
 0.00001386,-0.00004920,-0.00001378,0.00002938,-0.00006819,0.00010377,0
 .00004710,-0.00000107,-0.00000795,-0.00003490,-0.00000939,0.00000065,-
 0.00000516,-0.00000045,-0.00000103,-0.00000079,-0.00000369,-0.00000306
 ,-0.00000247,0.00001897,-0.00000555,0.00002537,0.00000005,0.00000290,-
 0.00000012,-0.00000443,-0.00000390,-0.00000089,-0.00018599,-0.00006846
 ,0.00011177,-0.00005352,0.00009996,0.00006488,0.00047857,-0.00007692,-
 0.00045330,0.00202265,-0.00064834,-0.00103594,0.00065911,-0.00012070,-
 0.00027739,-0.00007936,0.00000056,-0.00004238,-0.00000886,0.00001379,0
 .00000165,-0.00001536,0.00000789,-0.00000370,-0.00017225,0.00009416,0.
 00003225,-0.00010948,0.00004984,0.00007216,-0.00000860,0.00001335,0.00
 001162,0.00291639,0.00014074,-0.00108430,0.00019753,0.00053290,-0.0002
 4900,-0.00146871,0.00120763,0.00136473,-0.00064020,-0.00791386,0.00121
 440,-0.01582191,-0.34046813,0.03378602,-0.00294444,-0.01174388,0.00309
 567,-0.00021387,-0.00062417,0.00017100,-0.00004551,-0.00008893,-0.0000
 6622,0.00016349,-0.00034507,-0.00005152,0.01516960,0.36004284,0.000407
 74,-0.00040368,-0.00020058,-0.00107050,0.00092111,-0.00224601,-0.00002
 058,-0.00001163,0.00005901,-0.00001497,0.00000622,-0.00000888,0.000006
 07,0.00000851,-0.00003023,-0.00004676,0.00001898,0.00012453,-0.0003064
 8,0.00012922,0.00037190,-0.00008664,-0.00005210,-0.00016884,-0.0000438
 9,-0.00001425,0.00003995,0.00000050,-0.00000289,-0.00000399,-0.0000092
 6,-0.00000679,-0.00000753,0.00004844,-0.00001935,-0.00000419,0.0000031
 6,0.00000325,-0.00000438,-0.00001747,-0.00000712,-0.00000973,-0.000042
 31,0.00001803,-0.00015214,0.00016187,0.00023083,-0.00006783,0.00002356
 ,-0.00030171,0.00028759,0.00037292,-0.00016825,-0.00013977,0.00005366,
 -0.00021504,-0.00032895,-0.00009710,-0.00026079,0.00010069,-0.00001212
 ,0.00002006,-0.00001096,-0.00000757,0.00001411,-0.00001760,-0.00005370
 ,0.00000798,-0.00002428,0.00004049,-0.00003320,-0.00012780,0.00000494,
 0.00002058,0.00000556,0.00485793,-0.00096963,0.00473495,0.00007104,-0.
 00021118,-0.00099945,0.00546486,0.00106769,0.00374892,0.00006382,0.014
 39402,0.00116734,0.01058009,0.03359298,-0.04790698,-0.00040412,-0.0119
 5934,0.00592895,-0.00010748,-0.00062661,-0.00000772,-0.00057385,-0.000
 05596,-0.00080525,0.00010724,0.00078688,0.00022739,-0.01711967,-0.0359
 4783,0.03948944,-0.00035795,0.00031565,0.00029247,0.00028466,-0.000942
 72,-0.00004941,-0.00000717,0.00001022,-0.00001447,-0.00001041,-0.00000
 986,-0.00001780,-0.00002177,-0.00000266,0.00000346,0.00000430,0.000005
 09,0.00000866,-0.00011738,0.00015367,0.00019620,-0.00007179,-0.0000534
 2,-0.00010166,-0.00001961,-0.00000330,0.00002593,-0.00000588,-0.000000
 46,-0.00000331,-0.00000878,-0.00000598,-0.00000853,0.00001122,0.000013
 89,0.00002892,0.00001458,0.00000511,-0.00000309,-0.00001540,-0.0000018
 6,-0.00000637,0.00001983,0.00002638,0.00000808,0.00000328,-0.00001126,
 -0.00001405,0.00002549,0.00003867,0.00005231,-0.00006606,0.00003785,0.
 00005704,-0.00002114,-0.00002656,-0.00006003,0.00001700,0.00002299,-0.
 00002384,-0.00000171,0.00000670,0.00000075,-0.00000386,0.00001330,-0.0
 0000595,-0.00000565,-0.00000896,0.00000691,-0.00001128,-0.00000756,0.0
 0000137,0.00000293,0.00001050,0.00000101,0.00337002,0.00169374,0.00032
 198,0.00321733,0.00050807,0.00261494,-0.00009280,0.00057125,-0.0005823
 6,-0.00026912,0.00341902,0.00409453,-0.01192053,-0.01079472,0.01013092
 ,-0.22409162,-0.09048606,0.11606332,-0.00070373,-0.00040960,-0.0020978
 1,0.00001559,0.00014109,-0.00003943,-0.00033480,-0.00012651,-0.0005127
 0,-0.00036105,-0.00027665,-0.00224583,0.23146089,0.00014177,-0.0001246
 1,-0.00007503,0.00042448,0.00046024,-0.00022022,-0.00000521,0.00000094
 ,-0.00000452,0.00000844,-0.00000086,0.00000559,0.00000305,0.00001184,0
 .00000160,-0.00000143,-0.00000470,-0.00001094,0.00012795,-0.00012755,-
 0.00010787,0.00004168,0.00000999,0.00006265,0.00001527,0.00001491,-0.0
 0001360,0.00000154,-0.00000141,0.00000254,0.00000225,0.00000054,0.0000
 0398,0.00000281,-0.00000887,0.00000663,-0.00000481,-0.00000556,0.00000
 582,0.00000821,0.00000301,0.00000232,-0.00000381,-0.00001276,0.0000091
 5,-0.00000552,-0.00001241,0.00000575,-0.00001246,-0.00000025,0.0000026
 8,-0.00001059,0.00002244,-0.00000040,-0.00001410,-0.00000356,0.0000136
 8,-0.00000928,-0.00000308,0.00000209,0.00000236,-0.00000307,-0.0000007
 8,0.00000262,-0.00000416,0.00000114,0.00000189,0.00000242,-0.00000349,
 0.00000658,0.00000174,-0.00000346,0.00000101,-0.00000536,-0.00000247,-
 0.02481614,-0.00720956,0.01556325,0.00089398,-0.00554783,0.00060983,0.
 00058175,-0.00104932,-0.00034954,0.00338147,-0.00124533,-0.00130898,0.
 01549645,0.01129762,-0.00968541,-0.09049057,-0.10832029,0.05916103,0.0
 0006102,0.00113888,-0.00049930,-0.00123795,-0.00045811,0.00076299,-0.0
 0014400,0.00013367,-0.00003302,-0.00066184,0.00075167,-0.00007843,0.09
 624058,0.11028289,0.00012434,-0.00008893,-0.00001833,-0.00006040,0.000
 51206,0.00028835,-0.00003016,0.00001111,0.00000026,0.00002303,-0.00000
 857,-0.00000828,-0.00001203,0.00000562,-0.00001060,0.00001181,-0.00000
 651,-0.00002049,0.00024048,-0.00017732,-0.00011391,0.00002152,-0.00001
 609,0.00008591,0.00003071,0.00002925,-0.00000089,0.00000375,-0.0000008
 9,0.00000231,0.00000080,0.00000068,0.00000444,-0.00000582,0.00000211,-
 0.00001563,-0.00000308,-0.00000666,0.00000549,0.00001084,0.00000812,0.
 00000047,0.00001582,-0.00000602,0.00003955,-0.00002398,-0.00004548,-0.
 00000142,-0.00001992,0.00003303,-0.00003240,0.00003142,-0.00000531,-0.
 00002384,0.00001065,-0.00004282,0.00004204,-0.00000861,0.00003248,-0.0
 0002465,0.00000159,-0.00000356,0.00000102,-0.00000150,-0.00000269,0.00
 000197,-0.00000144,0.00000506,-0.00000439,0.00000768,0.00000465,-0.000
 00548,-0.00000088,-0.00001026,-0.00000296,0.00243266,-0.00006723,0.002
 71633,0.00262911,0.00079367,0.00611782,-0.00062172,-0.00027134,-0.0006
 3708,0.00409098,-0.00139478,0.00483082,0.00807637,0.00577300,-0.001381
 76,0.11601898,0.05918452,-0.11154223,-0.00213069,-0.00022194,-0.003027
 02,0.00008609,-0.00005273,-0.00006074,-0.00050716,-0.00003263,-0.00090
 683,-0.00223147,-0.00024440,-0.00288529,-0.12818970,-0.06375735,0.1066
 1524,-0.13041027,0.08006488,0.04454318,0.00909871,-0.01487028,0.035154
 40,-0.00842812,0.00403950,0.00884424,0.00028152,-0.00032594,-0.0007444
 6,-0.00072589,-0.00099599,-0.00013340,-0.00276157,0.00070063,0.0005014
 0,0.00020118,0.00333295,-0.00788853,0.00146136,0.00024308,-0.00283654,
 -0.00038301,0.00069807,0.00182122,-0.00006460,0.00004098,0.00012161,-0
 .00029385,-0.00024037,-0.00016517,0.00006811,0.00048348,0.00007517,-0.
 00347125,-0.00296224,-0.00316568,-0.00029209,0.00002715,-0.00014301,0.
 00037922,0.00044920,0.00023352,-0.00067916,-0.00021279,-0.00085940,0.0
 0074168,0.00326162,0.00003710,-0.00305488,0.00023294,-0.00527188,-0.00
 064049,0.00054765,0.00018437,-0.00029958,0.00085739,-0.00049478,0.0000
 4910,0.00009619,-0.00008357,0.00011141,0.00033447,-0.00017116,0.000039
 01,-0.00023801,-0.00002167,-0.00059777,-0.00206321,0.00029327,0.000165
 47,0.00022505,-0.00001639,0.00026620,-0.00030123,-0.00008917,0.0004244
 9,0.00023679,-0.00023038,0.00014988,-0.00027315,-0.00041065,0.00012862
 ,0.00181730,-0.00216549,-0.00000212,-0.00123534,-0.00003229,0.00028455
 ,0.00016648,-0.00002584,0.00009656,-0.00003468,-0.00006569,0.00006572,
 -0.00014823,-0.00002674,-0.00000067,0.00077973,0.00002433,-0.00010857,
 0.00010885,0.00000166,0.00020664,-0.00005878,-0.00005900,0.48484468,0.
 08075842,-0.14388931,-0.04697169,-0.01305445,0.01676753,-0.03354033,0.
 00413638,-0.00911437,-0.01008349,-0.00026526,0.00031227,0.00054064,0.0
 0043215,0.00091623,0.00037491,0.00326762,-0.00039444,-0.00038114,-0.00
 134864,-0.00298622,0.00716580,-0.00195049,-0.00071140,0.00231354,0.000
 64038,-0.00079849,-0.00184398,0.00007889,-0.00001747,-0.00013738,0.000
 34484,0.00022239,0.00019856,-0.00012721,-0.00044205,-0.00013876,0.0015
 8656,0.00289419,0.00110928,0.00032971,0.00000195,0.00016369,-0.0004012
 1,-0.00041751,-0.00027035,0.00056414,0.00023784,0.00078533,-0.00058823
 ,-0.00308004,-0.00014317,0.00314207,-0.00033102,0.00475755,-0.00014085
 ,-0.00180914,0.00101865,0.00029016,-0.00089676,0.00051047,-0.00002995,
 -0.00007742,0.00006395,-0.00009109,-0.00029504,0.00013162,-0.00004796,
 0.00026692,-0.00006289,-0.00077438,0.00068789,0.00116960,-0.00018733,-
 0.00018311,0.00003835,-0.00028662,0.00076263,0.00013943,-0.00099425,-0
 .00018865,-0.00017339,-0.00007601,-0.00009937,0.00049896,0.00215999,-0
 .00018448,0.00571850,-0.00024309,0.00143117,0.00015469,-0.00024674,-0.
 00036426,-0.00062306,-0.00002628,0.00005915,0.00016028,-0.00010446,0.0
 0019793,0.00000981,0.00021632,-0.00040530,0.00033213,0.00012697,-0.000
 07685,0.00021122,-0.00021516,0.00005615,0.00015496,-0.28635273,0.53607
 774,0.08867939,-0.09212215,-0.19349818,0.01259482,-0.01167702,-0.04237
 096,-0.01013460,0.01027521,0.01214320,0.00003465,0.00024044,0.00058677
 ,0.00050958,0.00035626,0.00023772,0.00039950,-0.00029266,-0.00054029,0
 .00021639,-0.00106029,0.00218515,0.00066885,-0.00016482,0.00011423,-0.
 00052773,0.00000761,-0.00007560,0.00005032,0.00002817,0.00010592,0.000
 09878,0.00009306,0.00009103,-0.00004525,-0.00009314,0.00012398,-0.0022
 9290,-0.00044080,-0.00127598,0.00015552,-0.00002641,0.00002661,0.00006
 452,-0.00023434,0.00030085,0.00003660,-0.00054849,0.00035127,-0.000701
 53,-0.00063919,-0.00066669,0.00051399,-0.00081974,0.00290286,0.0004480
 2,-0.00017714,0.00005661,0.00026701,0.00015117,0.00032510,-0.00001648,
 -0.00009258,0.00009003,-0.00003789,-0.00017138,0.00010288,0.00003910,0
 .00006581,0.00003135,0.00091223,0.00106944,0.00025641,-0.00006901,-0.0
 0016402,-0.00002012,-0.00002752,0.00018432,-0.00010057,-0.00019885,-0.
 00008177,0.00007142,0.00014188,0.00055642,0.00056235,0.00049004,0.0017
 6197,-0.00381870,0.00027155,-0.00057790,-0.00012632,0.00030938,-0.0000
 2546,0.00014902,-0.00004412,0.00000825,0.00003932,-0.00003150,0.000045
 71,0.00001105,-0.00013281,-0.00038453,0.00007307,0.00000005,-0.0000039
 9,-0.00013979,0.00001544,-0.00003581,0.00000913,0.01933572,-0.03015269
 ,0.60211778,0.01020193,0.00475357,0.01547529,0.00308392,0.00534894,0.0
 0096711,-0.00167017,-0.00175936,-0.00000080,0.00007185,0.00000558,0.00
 002395,-0.00004516,0.00018633,0.00006049,0.00060766,0.00005854,0.00008
 975,-0.00037685,-0.00048350,0.00181833,-0.00023197,-0.00001857,0.00023
 021,0.00003278,0.00000823,0.00003405,0.00001420,0.00000342,0.00000189,
 0.00005218,0.00001822,0.00004324,-0.00000289,-0.00006839,0.00001933,-0
 .00003576,0.00000343,-0.00008700,0.00003025,0.00001117,0.00000063,-0.0
 0003661,0.00000392,-0.00006343,-0.00004324,0.00008452,0.00001101,0.000
 11299,0.00004737,0.00004016,0.00021968,-0.00000947,-0.00106005,0.00005
 627,-0.00011678,-0.00008051,0.00001210,-0.00012617,0.00002967,-0.00000
 711,0.00000026,0.00000320,0.00000056,0.00000909,-0.00000304,0.00001356
 ,0.00002188,-0.00002649,-0.00000948,0.00010569,-0.00006861,-0.00000743
 ,-0.00000884,0.00000507,-0.00006218,-0.00006950,0.00005502,0.00009300,
 -0.00002060,0.00000518,-0.00012183,-0.00002838,0.00001737,-0.00029848,
 -0.00060362,0.00039325,0.00002048,0.00025507,0.00002628,-0.00012364,0.
 00003860,0.00005423,-0.00001334,0.00000121,-0.00000415,-0.00000380,0.0
 0001559,0.00001188,0.00001706,-0.00007784,-0.00006530,0.00000127,-0.00
 000716,0.00000404,-0.00003242,0.00001633,0.00000221,-0.08337991,0.0006
 1997,-0.00288686,0.57116283,0.00411516,0.00999407,-0.01519306,0.005144
 35,0.00156554,-0.00138566,-0.00147755,-0.00142452,-0.00011298,0.000038
 63,-0.00002421,0.00002215,-0.00002548,0.00006277,0.00003384,0.00012119
 ,0.00004389,0.00004622,-0.00013060,-0.00013927,0.00081065,0.00011878,0
 .00016890,-0.00006982,-0.00008669,0.00006429,0.00014634,0.00000021,0.0
 0000582,0.00001571,0.00000739,0.00000295,0.00000613,0.00001167,-0.0000
 0002,0.00005294,-0.00018064,-0.00022975,0.00000088,-0.00000495,0.00000
 912,-0.00001321,0.00002904,0.00002929,0.00000811,-0.00014861,0.0000247
 3,-0.00006170,0.00015639,0.00038971,-0.00001193,-0.00010466,-0.0003208
 9,-0.00119753,-0.00003101,-0.00003749,0.00002821,0.00003072,0.00001861
 ,-0.00003205,0.00000009,0.00000988,-0.00000041,0.00000550,0.00004061,-
 0.00001679,0.00002614,-0.00002012,-0.00002153,-0.00003032,0.00001548,-
 0.00001320,0.00000356,0.00000987,0.00000203,0.00003926,-0.00012286,-0.
 00002065,0.00015185,-0.00000130,0.00004120,0.00004797,0.00010725,0.000
 01640,-0.00036821,0.00014193,-0.00141383,0.00014770,-0.00028872,-0.000
 07920,0.00006431,0.00006738,0.00014051,-0.00000823,-0.00001039,-0.0000
 2578,0.00001414,-0.00002852,-0.00000642,-0.00005466,-0.00002646,-0.000
 06508,-0.00004681,0.00001189,-0.00005542,0.00003010,-0.00001349,-0.000
 02872,0.00125661,-0.08462761,0.00474941,-0.02994085,0.57640278,0.00117
 451,-0.00054468,-0.02339215,0.00029250,-0.00060768,0.00129760,-0.00048
 603,0.00053516,-0.00039520,-0.00003709,-0.00000449,-0.00003436,-0.0000
 1094,-0.00005751,-0.00003556,-0.00013514,0.00002163,0.00003981,0.00002
 053,0.00004658,-0.00041870,-0.00007751,-0.00008740,0.00001941,0.000034
 75,-0.00005770,-0.00006117,-0.00001193,-0.00000039,-0.00001897,-0.0000
 1668,-0.00000927,-0.00001963,0.00001459,0.00001685,-0.00000248,0.00024
 837,0.00026006,0.00015076,-0.00001837,0.,0.00000118,-0.00000260,0.0000
 0709,-0.00003522,-0.00001328,0.00006161,-0.00001004,0.00012179,0.00006
 490,0.00012937,-0.00002143,-0.00002964,-0.00044985,-0.00010322,-0.0000
 2877,-0.00004491,0.00000719,0.00000196,0.00002609,0.00000642,0.0000095
 4,-0.00000308,0.00000411,0.00002365,-0.00001347,-0.00000249,-0.0000170
 5,0.00001024,-0.00000300,-0.00007751,0.00008153,0.00000021,0.00001923,
 0.00000241,0.00002925,-0.00001549,-0.00001936,0.00003445,-0.00000192,0
 .00000594,0.00006877,0.00005922,-0.00001005,0.00004204,0.00011389,-0.0
 0049302,-0.00003334,-0.00017611,-0.00002677,0.00005763,-0.00001008,0.0
 0000876,0.00000485,-0.00000701,-0.00001000,0.00001156,-0.00001952,-0.0
 0000419,-0.00001684,0.00003455,0.00000017,-0.00002229,0.00000500,-0.00
 000427,0.00002424,-0.00001039,-0.00000911,0.00176062,-0.00057623,-0.19
 692299,-0.00345063,-0.00104658,0.47527635,-0.03373596,0.05626489,0.023
 75881,-0.00744005,0.00354785,-0.02426196,0.00201182,0.00528008,0.00442
 303,-0.00058243,0.00032801,0.00048505,0.00062369,0.00042930,-0.0000394
 6,0.00151443,-0.00039218,-0.00066569,0.00002914,-0.00192020,0.00297225
 ,-0.00232959,-0.00116468,0.00230887,0.00067171,-0.00096803,-0.00231923
 ,0.00001025,-0.00006001,-0.00021879,0.00017348,0.00010508,0.00005680,-
 0.00003449,-0.00030936,-0.00017443,0.00160654,0.00189684,0.00035826,0.
 00016403,-0.00003883,0.00015917,0.00018566,-0.00028475,0.00054378,0.00
 019716,-0.00071911,0.00038606,-0.00061616,-0.00132761,-0.00094533,0.00
 102450,0.00043575,0.00507507,-0.00019710,-0.00181497,0.00051257,0.0000
 7544,0.00030706,-0.00013588,-0.00003623,-0.00006490,0.00006156,-0.0001
 2954,-0.00020224,0.00015998,-0.00005231,0.00012675,0.00008211,0.000698
 43,0.00133706,-0.00037526,-0.00006634,-0.00013414,-0.00002888,-0.00015
 617,0.00026238,0.00002888,-0.00030881,-0.00012916,0.00009103,-0.000056
 83,0.00019296,0.00041826,0.00091479,-0.00011054,0.00084066,0.00009084,
 0.00043458,0.00003970,-0.00006625,-0.00006833,-0.00011242,-0.00004872,
 0.00002737,0.00005922,-0.00005774,0.00009378,0.00000120,-0.00005881,-0
 .00042234,0.00001839,0.00007856,-0.00002928,0.00000241,-0.00010319,0.0
 0001460,0.00003520,-0.26089529,0.20741572,-0.11105851,-0.00019952,0.01
 506065,-0.01774557,0.29421065,0.05732137,-0.04288759,-0.02497472,0.000
 93097,-0.00978845,0.02554833,0.00586089,0.00172519,-0.00436196,-0.0002
 8748,-0.00010680,-0.00039809,-0.00015620,-0.00065705,-0.00026732,-0.00
 192858,0.00006120,0.00009574,0.00168900,0.00252528,-0.00492067,-0.0012
 4512,-0.00051778,-0.00048394,0.00013695,-0.00029036,-0.00008403,-0.000
 06820,0.00002080,-0.00008350,-0.00020846,-0.00012598,-0.00015635,0.000
 08267,0.00021730,0.00000559,-0.00078300,-0.00261169,-0.00223347,-0.000
 21339,-0.00006508,-0.00002384,0.00041248,0.00028312,0.00030092,-0.0003
 7953,-0.00032851,-0.00044529,0.00032932,0.00208174,-0.00017125,-0.0019
 0011,0.00007317,-0.00210285,-0.00161436,0.00225383,-0.00061551,-0.0002
 8879,0.00103999,-0.00025725,0.00005697,0.00002048,-0.00003283,0.000054
 86,0.00018794,-0.00007275,0.00006078,-0.00018930,0.00005273,0.00086695
 ,-0.00072934,-0.00036484,0.00012848,0.00013581,-0.00003272,0.00021097,
 -0.00024804,-0.00008065,0.00033198,0.00019481,0.00000389,0.00001664,-0
 .00010266,-0.00045976,-0.00082251,0.00027713,-0.00123492,-0.00022198,-
 0.00067900,0.00003843,0.00013536,0.00007028,0.00009672,0.00004900,-0.0
 0002235,-0.00006861,0.00005611,-0.00010284,0.00000037,0.00001012,0.000
 43496,-0.00003229,-0.00000406,0.00004594,-0.00005221,0.00012024,-0.000
 02710,-0.00005940,0.20902929,-0.30713180,0.12394926,0.01562205,-0.0024
 7456,0.01990681,-0.28491096,0.35549581,0.00768755,-0.01001740,0.036667
 58,-0.00694389,0.00721818,-0.00372049,0.00335638,-0.00280475,-0.001275
 51,-0.00035309,0.00008942,-0.00028716,-0.00017903,0.00007279,-0.000077
 58,0.00081878,0.00004933,0.00021709,0.00003512,-0.00018789,0.00163734,
 -0.00306325,-0.00142408,0.00117178,0.00092721,-0.00089109,-0.00124712,
 -0.00003177,-0.00000005,-0.00023209,0.00005951,0.00001584,-0.00001025,
 0.00002524,-0.00012030,-0.00007203,0.00083432,-0.00000324,-0.00155949,
 -0.00000524,-0.00004641,0.00008722,-0.00038483,0.00017495,-0.00074081,
 0.00041963,0.00095622,0.00049205,0.00044508,-0.00159336,0.00121095,0.0
 0235983,0.00044083,-0.00088531,0.00034466,-0.00014710,-0.00023067,-0.0
 0012822,-0.00081805,0.00034134,0.00003853,0.00002302,-0.00004229,-0.00
 000879,0.00000531,-0.00004357,0.00002665,-0.00000923,-0.00000549,-0.00
 037204,-0.00001051,0.00020624,0.00000399,0.00007251,0.00004450,0.00000
 359,0.00006622,-0.00000695,-0.00015588,-0.00013878,0.00003858,0.000351
 14,-0.00004885,-0.00020734,-0.00037489,-0.00019743,0.00143202,0.000225
 67,0.00005649,-0.00011108,-0.00000883,-0.00005683,-0.00007610,0.000003
 23,-0.00001069,0.00000154,0.00002764,-0.00001477,-0.00001610,-0.000001
 69,-0.00005329,0.00001784,-0.00003969,-0.00007225,0.00004132,-0.000003
 39,-0.00000858,-0.00000918,-0.08715275,0.09694505,-0.15823841,-0.03293
 815,0.03751529,-0.02044004,0.11728556,-0.12834426,0.15022148,0.0002352
 5,-0.00046452,0.00060626,-0.00003005,0.00006368,-0.00032176,0.00006890
 ,-0.00026651,-0.00007406,-0.00000165,0.00000750,0.00001546,0.00001172,
 0.00001328,0.00001317,0.00005367,-0.00001618,-0.00000949,-0.00003600,-
 0.00002205,0.00010011,-0.00000918,-0.00000455,0.00004132,-0.00000120,-
 0.00000841,-0.00000849,0.00000206,0.00000137,0.00000146,0.00000593,0.0
 0000488,0.00000311,-0.00000396,-0.00000421,-0.00000318,0.00000507,0.00
 004164,0.00005105,0.00000770,-0.00000143,0.00000234,-0.00000620,-0.000
 00571,-0.00000436,0.00000971,0.00000231,0.00001160,-0.00000482,-0.0000
 4429,-0.00000307,0.00003737,-0.00001135,0.00007169,-0.00000222,0.00000
 524,-0.00001428,0.00000933,-0.00001263,0.00001087,-0.00000141,-0.00000
 228,0.00000236,-0.00000233,-0.00000392,0.00000469,-0.00000050,0.000003
 88,0.00000056,-0.00000305,0.00001920,-0.00000276,-0.00000096,0.0000008
 9,-0.00000233,-0.00000151,0.00000724,0.00000200,-0.00000775,-0.0000009
 5,-0.00000110,-0.00001479,-0.00000627,0.00001584,0.00003240,-0.0000046
 5,0.00004670,0.00000825,0.00002286,0.00000739,-0.00000183,-0.00000056,
 -0.00000691,-0.00000140,0.00000126,0.00000125,-0.00000323,0.00000372,-
 0.00000018,-0.00000040,-0.00000646,0.00000348,0.00000091,-0.00000089,-
 0.00000210,-0.00000358,0.00000036,0.00000057,0.00285280,0.00269366,-0.
 00204003,-0.26847290,-0.04462267,0.09711100,0.00069575,-0.00056013,-0.
 00035895,0.28869064,-0.00005042,-0.00008620,0.00021910,-0.00025881,-0.
 00013546,-0.00050418,0.00013554,0.00037615,-0.00007605,0.00000133,-0.0
 0000120,-0.00000006,0.00000581,-0.00001038,-0.00000001,-0.00003363,-0.
 00000344,-0.00001057,0.00006781,0.00002183,-0.00009276,0.00001149,-0.0
 0000303,0.00002100,-0.00001343,-0.00000791,0.00001545,-0.00000023,0.00
 000416,0.00000148,-0.00000240,0.00000055,-0.00000121,-0.00000037,0.000
 00342,0.00000112,-0.00003377,-0.00000382,-0.00001584,0.00000078,0.0000
 0479,-0.00000118,0.00000132,-0.00000180,0.00000537,0.00000838,-0.00000
 900,0.00000999,-0.00001608,-0.00002296,-0.00001011,0.00001398,0.000014
 07,0.00011807,0.00000873,0.00001639,-0.00001376,-0.00000007,0.00000279
 ,0.00000216,-0.00000064,-0.00000202,0.00000149,-0.00000060,-0.00000385
 ,0.00000260,-0.00000005,0.00000016,0.00000303,0.00002157,0.00001130,-0
 .00003674,-0.00000075,0.00000091,-0.00000160,-0.00000015,0.00000516,-0
 .00000232,-0.00000698,-0.00000139,0.00000539,0.00000655,0.00000535,-0.
 00000795,0.00000148,0.00001115,-0.00000140,-0.00000161,-0.00000408,0.0
 0000051,0.00000374,-0.00000331,-0.00000074,-0.00000049,0.00000027,0.00
 000091,0.00000088,0.00000022,-0.00000061,-0.00000018,-0.00000336,0.000
 00009,0.00000096,-0.00000045,-0.00000046,-0.00000052,-0.00000018,-0.00
 000016,-0.00214119,-0.00166872,-0.00165504,-0.04370583,-0.05351859,0.0
 2261652,0.00091844,0.00003718,0.00086654,0.04907003,0.05372200,-0.0021
 3776,-0.00048238,-0.00404677,-0.00070068,-0.00145950,0.00055249,0.0003
 4546,0.00038344,0.00006640,-0.00003012,-0.00001021,-0.00003552,-0.0000
 1057,-0.00007110,-0.00002711,-0.00023730,0.00000344,0.00000616,0.00017
 156,0.00016951,-0.00060560,0.00002790,-0.00005556,-0.00011610,0.000006
 18,-0.00001243,0.00000285,-0.00000742,0.00000064,-0.00000434,-0.000023
 40,-0.00000963,-0.00001735,0.00000523,0.00002967,-0.00000110,0.0000550
 9,0.00005801,-0.00000340,-0.00002784,-0.00000284,-0.00000752,0.0000057
 7,0.00002339,-0.00000192,-0.00000388,0.00000742,-0.00001932,0.00002992
 ,0.00005880,0.00002381,-0.00008502,-0.00002108,0.00005975,-0.00000084,
 0.00003746,-0.00001797,-0.00000830,0.00001148,-0.00002026,0.00000221,0
 .00000638,-0.00000516,0.00000164,0.00001160,-0.00000654,0.00000085,-0.
 00001428,0.00000557,-0.00004994,-0.00005311,-0.00002267,0.00000859,0.0
 0001378,-0.00000176,0.00003185,0.00000629,-0.00002102,-0.00001590,0.00
 000454,0.00000244,0.00006201,0.00001471,-0.00002976,0.00001925,0.00021
 973,-0.00024217,0.00001168,-0.00013065,-0.00001295,0.00004905,-0.00000
 657,-0.00000689,0.00000631,-0.00000269,-0.00000195,0.00000586,-0.00001
 199,-0.00000490,-0.00000758,0.00003914,0.00001726,-0.00001005,0.000005
 01,-0.00000420,0.00001715,-0.00000794,-0.00000600,0.03236973,0.0065222
 7,-0.01399398,0.09876532,0.02390258,-0.08571273,-0.00209574,-0.0022059
 4,0.00322810,-0.10633700,-0.02254116,0.09313114,-0.00024144,-0.0000008
 6,-0.00010490,-0.00023248,-0.00030182,0.00038795,0.00033579,0.00016634
 ,0.00006951,-0.00000381,-0.00000319,-0.00000588,-0.00000228,-0.0000114
 6,-0.00000896,-0.00002906,0.00000291,0.00000050,0.00001790,0.00003034,
 -0.00010139,-0.00000130,-0.00000915,0.00000373,0.00000740,0.00000589,-
 0.00001053,-0.00000132,-0.00000163,-0.00000195,-0.00000284,-0.00000230
 ,-0.00000268,0.00000009,0.00000220,-0.00000319,0.00002860,0.00000944,0
 .00003438,-0.00000164,-0.00000271,0.00000106,-0.00000523,0.00000662,-0
 .00000449,0.00000476,0.00000693,0.00000326,-0.00000197,-0.00004672,-0.
 00000502,0.00002808,0.00003701,0.00009903,0.00005628,-0.00000396,0.000
 00351,-0.00001453,-0.00000691,-0.00001287,-0.00000067,0.00000266,-0.00
 000415,-0.00000277,-0.00000166,-0.00000020,-0.00000199,0.00000104,-0.0
 0000197,-0.00002154,0.00001861,-0.00004521,0.00000598,-0.00000352,0.00
 000177,0.00000110,0.00000463,-0.00000286,-0.00000523,0.00000188,0.0000
 0009,0.00000470,0.00000338,-0.00000332,0.00001544,-0.00000156,0.000005
 24,-0.00001773,-0.00000465,-0.00000215,0.00000114,-0.00000555,-0.00000
 403,0.00000095,-0.00000010,0.00000050,0.00000067,-0.00000081,-0.000000
 01,-0.00000251,0.00000203,0.00000321,0.00000262,0.00000020,0.00000537,
 0.00000140,-0.00000008,0.00000172,-0.00163389,-0.00152481,0.00166767,-
 0.07428406,-0.07841513,-0.03802543,0.00022218,0.00125464,-0.00084347,-
 0.00915641,-0.02521725,-0.01236545,0.07702707,-0.00031694,0.00026492,-
 0.00048899,-0.00001600,-0.00003717,0.00022875,-0.00030113,0.00003651,0
 .00004527,0.00000163,0.00000163,-0.00000698,-0.00000353,-0.00001447,-0
 .00000190,-0.00004254,0.00000314,0.00000584,0.00004489,0.00004810,-0.0
 0009991,0.00001604,-0.00000002,-0.00001733,-0.00000443,0.00000760,0.00
 001633,-0.00000163,0.00000026,0.00000092,-0.00000428,-0.00000293,-0.00
 000340,0.00000088,0.00000491,0.00000150,-0.00002387,-0.00002369,-0.000
 01352,-0.00000170,-0.00000287,0.00000094,-0.00000248,0.00001355,-0.000
 01124,-0.00000665,0.00001591,-0.00001054,0.00004172,0.00004095,0.00001
 616,0.00000630,0.00000362,-0.00010164,0.00002857,0.00002906,-0.0000750
 8,-0.00000638,-0.00000834,-0.00000853,-0.00000037,0.00000325,-0.000002
 19,-0.00000072,0.00000798,-0.00000178,0.00000252,-0.00000589,0.0000007
 4,-0.00001904,0.00001347,-0.00010385,0.00000544,0.00000828,-0.00000026
 ,0.00000407,-0.00000252,0.00000022,0.00000391,0.00000358,-0.00000774,-
 0.00000474,0.00000652,0.00000615,0.00000658,0.00001919,-0.00003187,-0.
 00000220,-0.00002191,-0.00000372,0.00000875,0.00000039,-0.00000224,0.0
 0000215,-0.00000101,-0.00000099,0.00000026,-0.00000162,0.00000085,0.00
 000198,0.00001383,0.00000739,-0.00000321,0.00000290,-0.00000085,0.0000
 0403,-0.00000125,-0.00000232,0.00312436,0.00296356,0.00139288,-0.07897
 129,-0.24587403,-0.08987073,-0.00020518,0.00020210,0.00030520,-0.00081
 670,-0.00456500,-0.00192746,0.08659958,0.26412332,0.00079283,0.0023942
 6,-0.00329742,0.00137392,0.00035482,0.00047886,-0.00035905,-0.00033667
 ,-0.00000245,-0.00000683,-0.00001425,-0.00001307,-0.00001584,-0.000004
 03,-0.00001019,-0.00003149,0.00001915,0.00002416,0.00001792,0.00001697
 ,0.00008629,-0.00000759,0.00003356,-0.00000168,-0.00000354,0.00000546,
 0.00001129,-0.00000395,-0.00000065,-0.00000340,-0.00000566,-0.00000539
 ,-0.00000532,0.00000694,0.00000909,0.00001148,0.00002261,-0.00004196,-
 0.00001266,-0.00001201,0.00000327,-0.00000522,-0.00000501,0.00003299,-
 0.00002642,-0.00003478,0.00003740,-0.00001328,0.00010550,0.00014148,0.
 00004488,-0.00003108,-0.00012607,-0.00043618,-0.00006103,0.00006730,-0
 .00010136,0.00000240,-0.00001377,0.00002439,0.00000337,0.00000353,-0.0
 0000072,0.00000483,0.00002072,-0.00000733,0.00001136,-0.00001619,0.000
 00171,0.00003525,-0.00004489,-0.00005301,0.00001494,0.00002139,-0.0000
 0468,0.00001794,-0.00004662,-0.00001242,0.00005791,-0.00000028,0.00002
 031,0.00002511,0.00003812,-0.00002477,-0.00015115,0.00008893,-0.000507
 74,0.00004628,-0.00013847,-0.00002556,0.00003578,0.00002667,0.00005006
 ,-0.00000066,-0.00000476,-0.00001110,0.00000801,-0.00001396,-0.0000035
 8,-0.00001668,0.00000586,-0.00002273,-0.00001821,0.00000519,-0.0000239
 1,0.00001631,-0.00000623,-0.00001303,-0.01209000,-0.03109097,-0.014297
 94,-0.03979498,-0.09246465,-0.08436215,0.00239613,0.00222388,0.0028354
 1,0.00406074,0.01197100,0.00516390,0.03986984,0.09951350,0.09179397,-0
 .00004349,-0.00031232,0.00022736,-0.00000619,-0.00005774,0.00052805,0.
 00051328,-0.00010102,0.00060179,-0.00000763,-0.00000477,-0.00000834,-0
 .00000470,-0.00001093,-0.00000928,-0.00002089,-0.00000588,0.00000390,0
 .00000772,0.00003330,-0.00006809,-0.00001421,-0.00001137,0.00001277,0.
 00000296,-0.00000793,-0.00001337,-0.00000201,-0.00000038,-0.00000406,-
 0.00000347,-0.00000057,-0.00000451,0.00000204,0.00000498,-0.00000308,0
 .00003421,0.00002022,0.00001192,-0.00000344,0.00000401,-0.00000018,-0.
 00000840,0.00000668,-0.00001761,0.00000401,0.00002244,0.00000535,0.000
 02196,-0.00001924,0.00001999,0.00003447,-0.00000360,-0.00004542,0.0000
 0722,-0.00000903,-0.00001369,-0.00000433,-0.00002149,0.00000207,0.0000
 0008,0.00000266,-0.00000185,-0.00000034,0.00000295,-0.00000262,0.00000
 003,-0.00000075,-0.00000122,-0.00001752,-0.00000776,-0.00000778,0.0000
 0146,0.00000247,0.00000176,0.00000720,-0.00000362,-0.00000295,0.000000
 56,-0.00000385,0.00000376,0.00003179,0.00000832,-0.00001820,-0.0000342
 4,0.00001517,-0.00004150,0.00000266,-0.00002593,-0.00000219,0.00000111
 ,-0.00000166,0.00000371,0.00000041,-0.00000099,-0.00000134,0.00000393,
 -0.00000484,-0.00000286,-0.00000667,0.00000341,-0.00000733,-0.00000506
 ,-0.00000096,0.00000059,0.00000351,-0.00000187,-0.00000074,-0.00379396
 ,0.00027326,0.00232457,-0.15634585,0.12905569,-0.04083559,0.00197249,0
 .00082476,-0.00193146,-0.01496011,0.02120662,-0.00784382,0.00790258,-0
 .00914863,0.00372364,0.16472685,-0.00027625,0.00009740,-0.00008754,0.0
 0001672,0.00005734,-0.00065190,-0.00017459,0.00056647,-0.00061565,0.00
 001309,0.00000275,0.00000793,0.00000247,0.00000916,0.00000982,0.000015
 93,0.00000328,-0.00000902,-0.00000648,-0.00003377,0.00004209,0.0000480
 3,0.00002993,-0.00002466,-0.00001870,0.00001291,0.00003589,0.00000279,
 0.00000165,0.00000665,0.00000277,0.00000160,0.00000504,-0.00000251,-0.
 00000175,0.00000426,-0.00006783,-0.00004151,-0.00000374,0.00000354,0.0
 0000003,-0.00000172,0.00000369,-0.00001117,0.00001528,0.00000023,-0.00
 001956,-0.00000411,-0.00002782,-0.00000312,-0.00001950,-0.00003887,0.0
 0000144,0.00007565,-0.00000241,-0.00000479,0.00004250,-0.00000229,0.00
 001989,0.00000476,0.00000120,-0.00000350,0.00000069,0.00000077,-0.0000
 0548,0.00000256,-0.00000148,0.00000402,-0.00000076,0.00004007,0.000001
 17,0.00000916,0.00000286,-0.00000738,-0.00000179,-0.00000837,0.0000082
 2,0.00000299,-0.00001063,0.00000186,-0.00000131,-0.00001190,0.00000458
 ,0.00001384,0.00002420,-0.00002014,0.00004067,-0.00000732,0.00002532,0
 .00000810,-0.00001118,-0.00000254,-0.00000418,-0.00000089,0.00000147,0
 .00000311,-0.00000115,0.00000367,0.00000156,0.00000175,-0.00000914,0.0
 0000185,0.00000652,-0.00000254,0.00000301,-0.00000430,0.00000174,0.000
 00379,0.00029949,-0.00366473,-0.00329405,0.12877717,-0.20000398,0.0494
 5189,0.00079765,0.00170223,0.00214601,-0.00507567,0.00581829,-0.002502
 77,0.01740950,-0.01727577,0.00733525,-0.14171977,0.21273448,0.00092409
 ,-0.00107043,-0.00065249,-0.00016440,0.00006982,0.00097198,0.00034507,
 -0.00042028,-0.00116404,-0.00001146,0.00000208,-0.00001302,-0.00000911
 ,0.00000047,-0.00000841,0.00004112,0.00000814,0.00001233,-0.00003123,-
 0.00000617,0.00006132,-0.00009161,-0.00005720,0.00006371,0.00003433,-0
 .00002763,-0.00004781,-0.00000134,-0.00000151,-0.00000914,0.00000206,-
 0.00000037,-0.00000048,0.00000010,-0.00000407,-0.00000811,0.00011020,0
 .00009442,0.00002438,-0.00000231,-0.00000082,0.00000136,-0.00001581,0.
 00000728,-0.00002406,0.00001827,0.00002129,0.00000975,0.00001864,-0.00
 006012,0.00003295,0.00002379,0.00003064,0.00007441,0.00001703,-0.00000
 674,-0.00003703,0.00000337,-0.00003804,0.00000566,-0.00000134,0.000002
 26,-0.00000104,-0.00000006,-0.00000091,-0.00000122,-0.00000584,0.00000
 447,0.00000208,-0.00003041,-0.00001067,-0.00000174,0.00000055,0.000003
 86,0.00000067,0.00000090,-0.00000205,-0.00000083,0.00000161,-0.0000051
 5,0.00000276,0.00000701,-0.00002229,-0.00002336,0.00000904,-0.00004033
 ,0.00011627,-0.00000657,0.00002036,0.00000059,-0.00000643,-0.00000285,
 -0.00000474,-0.00000053,0.00000017,-0.00000019,0.00000083,-0.00000038,
 -0.00000145,-0.00000241,0.00000293,-0.00000394,-0.00000069,-0.00000045
 ,0.00000302,-0.00000220,0.00000102,0.00000036,-0.02095791,0.02500027,0
 .00302143,-0.03765816,0.04579760,-0.06410015,-0.00238283,0.00239852,-0
 .01035732,0.00700501,-0.01088790,0.00273710,0.00940179,-0.00874756,0.0
 0275260,0.04341786,-0.05205165,0.06656583\\-0.00001137,0.00001143,0.00
 001174,0.00000638,-0.00000606,-0.00001588,-0.00000294,0.00000302,0.000
 00354,-0.00000587,0.00000955,0.00000147,-0.00000848,0.00000499,0.00000
 592,-0.00000168,-0.00000176,0.00000101,-0.00000361,0.00001125,0.000006
 33,-0.00000092,0.00000834,-0.00000168,-0.00000669,0.00001568,0.0000065
 8,-0.00000618,0.00001262,0.00000614,-0.00000793,0.00000254,0.00000624,
 -0.00000977,0.00000017,0.00000457,-0.00000407,0.00001488,0.00000412,-0
 .00000367,0.00001812,0.00000328,0.00001562,-0.00000366,-0.00000843,0.0
 0001530,-0.00000376,-0.00001136,0.00000084,-0.00000586,-0.00000184,0.0
 0000706,-0.00000854,-0.00000233,0.00000545,-0.00001248,0.00000019,0.00
 001710,-0.00000324,-0.00000770,0.00001921,-0.00000743,-0.00001302,0.00
 001460,-0.00000557,-0.00000893,0.00000759,-0.00000243,-0.00000503,0.00
 001169,-0.00000281,-0.00000716,0.00001771,-0.00000534,-0.00001060,-0.0
 0001158,-0.00001609,0.00000506,-0.00001320,-0.00001177,0.00000671,-0.0
 0001023,-0.00000551,0.00000533,0.00000081,-0.00000426,0.00000450,-0.00
 000318,-0.00000876,-0.00000209,-0.00000433,-0.00001507,0.00000275,-0.0
 0001413,-0.00001910,0.00000651,-0.00001730,-0.00000836,0.00000912,-0.0
 0001075,-0.00000256,0.00000671,0.00000136,-0.00001323,-0.00000347,-0.0
 0000552,-0.00001955,-0.00000002,0.00002534,-0.00001453,0.00000228,0.00
 000573,0.00001134,0.00000412,-0.00001111,0.00004035,-0.00001505,-0.000
 00170,0.00001877,-0.00000023,0.00000553,0.00001370,-0.00000030,-0.0000
 0113,0.00001098,0.00000091\\\@
 The archive entry for this job was punched.


 IT IS A QUALITY OF REVOLUTIONS NOT TO GO BY OLD LINES OR OLD LAWS,
 BUT TO BREAK UP BOTH, AND MAKE NEW ONES.
                                              -- A. LINCOLN (1848)
 Job cpu time:       0 days  6 hours  7 minutes  3.7 seconds.
 Elapsed time:       0 days  0 hours 23 minutes 31.9 seconds.
 File lengths (MBytes):  RWF=   1335 Int=      0 D2E=      0 Chk=     31 Scr=      1
 Normal termination of Gaussian 16 at Sun Sep 27 20:26:05 2026.
