%chk=ylide_2.chk
%nprocshared=16
%mem=32GB
#p M062X/6-31+G(d,p) scrf=(pcm,solvent=thf) freq int=finegrid

ylide 2, Ph3P=CHCOMe: Chen, Nieves-Quinones, Waas, Singleton, JACS 2014 (SI geometry, M06-2X/6-31+G**/PCM(THF), default radii); SI: E = -1227.873969660, ZPE = 0.340415

0 1
C      0.3940928673     0.1446599875     0.4188664096
P      0.4339366656    -0.1266168487     2.1266935761
H     -0.2933816759     0.8962840058     0.0524987633
C      4.3209634101     1.1083726773     4.2798873919
C      3.0982574515     1.2474618773     4.9357072645
C      1.9168889283     0.8819831570     4.2918393398
C      1.9611626191     0.3719833541     2.9891110439
C      3.1886107044     0.2341704322     2.3299958872
C      4.3647275152     0.6032889851     2.9799871088
H      5.2400498754     1.3966598587     4.7805842261
H      3.0612661920     1.6434271496     5.9454451586
H      0.9649179896     1.0021666597     4.8027335484
H      3.2125923750    -0.1730443145     1.3231247497
H      5.3166191513     0.4976547868     2.4694630823
C     -0.5229530696    -4.4704397964     3.3197781208
C      0.2538551091    -3.6835960621     4.1691522943
C      0.5768166451    -2.3758423464     3.8087761795
C      0.1145743566    -1.8549901734     2.5969121145
C     -0.6565947079    -2.6468001817     1.7416470153
C     -0.9752314326    -3.9529745337     2.1053647276
H     -0.7697344684    -5.4898165249     3.5995567255
H      0.6146427239    -4.0870355384     5.1097702805
H      1.1915908529    -1.7711021023     4.4695652760
H     -0.9936645091    -2.2390824083     0.7923567174
H     -1.5690880379    -4.5687120048     1.4374704024
C     -2.8974752437     2.5014769649     3.9162148428
C     -1.8223503529     3.0784794996     3.2369259797
C     -0.8181650764     2.2716147652     2.7115309582
C     -0.8866473124     0.8803998525     2.8636521437
C     -1.9603558225     0.3043840895     3.5465651615
C     -2.9652843406     1.1187727939     4.0705597018
H     -3.6806216933     3.1320363290     4.3253098612
H     -1.7655029552     4.1556907964     3.1186750423
H      0.0221752657     2.7221986823     2.1888856533
H     -2.0181249474    -0.7731894875     3.6700823758
H     -3.7999479871     0.6691344774     4.5985494579
C      1.1609582006    -0.6766055090    -0.4298121722
C      1.0094029358    -0.4957353294    -1.9306134624
O      1.9510634438    -1.5591988986    -0.0128435181
H      1.9926762028    -0.2980087672    -2.3667353211
H      0.6407655357    -1.4315128141    -2.3617760348
H      0.3265796161     0.3141814597    -2.1947210736

