%nprocshared=16
%mem=96GB
%chk=ts_AD.chk
#p b3lyp/6-31g(d) freq=noraman int=finegrid

TS AD of Singleton & Wang 2005, SI B3LYP/6-31G* geometry, atoms in TS A (ts10) order; SI: E = -1343.48737507, ZPE = 0.465261

0 1
C     -2.5630089442    -2.1336038982    -1.1013252019
C     -2.7843652232    -1.4973950728     0.1390199130
C     -3.8619551154    -0.5930512379     0.2409148861
C     -4.6687664294    -0.3138665293    -0.8567399133
C     -4.4223749840    -0.9390126036    -2.0824996811
C     -3.3701529914    -1.8524608833    -2.1984634453
C     -2.0073496052    -1.7918618265     1.3260449797
C     -0.7878486478    -2.4464834577     1.4137413962
C     -0.3320865269    -3.1500001724     2.6596975343
O     -0.9265597202     1.3371790652     0.2865886106
C      0.4697590612     1.2022825927     0.1797541596
C      0.9836009620     2.6056473737     0.5231531335
O     -0.0669016979     3.4546928708     0.0750257819
C     -1.2875119044     2.7337036679     0.1830196100
C      0.9799220300     0.0968119805     1.1710888080
C      2.0745467573    -0.7847045209     0.5466259048
C      1.7697173480    -1.2945603083    -0.8781944641
C      0.7087975563    -0.4208644908    -1.5528623336
O      0.8582036959     0.9375653545    -1.1655318868
O      3.2193861273     0.0385202343     0.3585902947
C      3.9428921149    -0.4236713616    -0.7810120783
O      3.0222128552    -1.2141081283    -1.5497386303
C      4.3804057748     0.7892469705    -1.5930073482
C      5.1069318822    -1.3153978616    -0.3470012908
O      1.2354485909     0.5154259926     2.4038708626
O     -0.0592192593    -0.7048054816     1.8351427409
C     -2.0335988575     3.1117910547     1.4621552058
C     -2.0910491879     2.9680396343    -1.0906245970
H     -2.9532522266     2.5246284975     1.5565655969
H     -1.4028551362     2.9075544785     2.3322603544
H     -2.2940979625     4.1749273334     1.4487571983
H     -2.3434779636     4.0290321137    -1.1885008598
H     -1.4905456343     2.6644683628    -1.9516693524
H     -3.0157025635     2.3831320453    -1.0734991276
H      5.0414281103     1.4266594878    -0.9970371111
H      4.9173364645     0.4700634437    -2.4918914522
H      3.4960669366     1.3607484976    -1.8844774947
H      4.7385182682    -2.1475720736     0.2612218449
H      5.6173628783    -1.7270172467    -1.2236686640
H      5.8268235050    -0.7411364607     0.2445499596
H      1.8945790543     2.8553871036    -0.0211476671
H      1.1484726712     2.6913832319     1.6025917082
H      2.2912631684    -1.5999021113     1.2495100684
H      1.4524757194    -2.3459668578    -0.8883529889
H     -0.3028745260    -0.7746921687    -1.3153662717
H      0.8417935088    -0.4554325528    -2.6375203495
H     -0.6661982635    -4.1967406647     2.6440201741
H      0.7585746903    -3.1428096913     2.7366582765
H     -0.7418576467    -2.6694658757     3.5522592681
H     -4.0492725686    -0.1040710482     1.1930205635
H     -5.4921282487     0.3880709616    -0.7589101788
H     -5.0542171060    -0.7254972253    -2.9400126634
H     -3.1877768835    -2.3545716789    -3.1443775949
H     -1.7733041272    -2.8730670062    -1.1958636188
H     -0.3067853396    -2.7600037613     0.4895265015
H     -2.4499439289    -1.4774026910     2.2688606274

