%nprocshared=16
%mem=96GB
%chk=ts_AA.chk
#p b3lyp/6-31g(d) freq=noraman int=finegrid

TS AA of Singleton & Wang 2005, SI B3LYP/6-31G* geometry, atoms in TS A (ts10) order; SI: E = -1343.49168309, ZPE = 0.465694

0 1
C     -2.6782024338    -2.0461799999     1.1842101219
C     -2.7058095348    -1.8988149126    -0.2195319122
C     -3.8527634059    -1.3233568296    -0.8067033928
C     -4.9125565243    -0.8788874319    -0.0222830688
C     -4.8585260482    -1.0140677180     1.3677919331
C     -3.7408860184    -1.6049630191     1.9658755154
C     -1.6328382850    -2.3656394247    -1.0791018396
C     -0.3233862209    -2.6581325611    -0.7271912153
C      0.5518811244    -3.5554870577    -1.5496392176
O      2.0506561863    -1.1375621681     0.3418577548
C      1.6850500107     0.2016805588     0.0721249714
C      3.0384108072     0.8675177515    -0.2003021758
O      3.9277277702     0.1476957279     0.6473887599
C      3.4331613044    -1.1776666160     0.7774888345
C      0.7085616881     0.2651835192    -1.1552541039
C     -0.3757615277     1.3372182897    -0.9734340904
C     -1.0878163035     1.3215453138     0.3947264976
C     -0.2427961408     0.5858896196     1.4357570772
O      1.1431499814     0.8247800689     1.2282875826
O      0.2815316682     2.6006254629    -0.9861040520
C     -0.4502740635     3.5073325983    -0.1638464994
O     -1.2299000905     2.7002433869     0.7300710455
C      0.5447297061     4.3397703290     0.6355777467
C     -1.3980476865     4.3536598428    -1.0164077708
O      1.2925908384     0.2601749244    -2.3466987590
O      0.1280556769    -1.0039451477    -1.6228068977
C      4.1864085797    -2.1321397061    -0.1472738895
C      3.4997899473    -1.5700186869     2.2488230460
H      3.7774855131    -3.1455625367    -0.0743908524
H      4.0979618988    -1.7926993280    -1.1835221832
H      5.2455219435    -2.1623766509     0.1273883345
H      4.5373944350    -1.5490313494     2.5973620787
H      2.9129982830    -0.8588293196     2.8350055453
H      3.1013195812    -2.5791290665     2.3972490330
H      1.1848365057     4.9182286997    -0.0382510324
H      0.0135413245     5.0327909974     1.2956268644
H      1.1656796478     3.6734389191     1.2392281752
H     -2.0623409113     3.7070836609    -1.5986272837
H     -2.0137093735     4.9943978186    -0.3769410073
H     -0.8300882011     4.9843876179    -1.7077749588
H      3.0489482714     1.9179224296     0.0895017344
H      3.3017967003     0.7594682645    -1.2580687737
H     -1.0738473822     1.2453487134    -1.8142754921
H     -2.0860973429     0.8751951523     0.3402769892
H     -0.4571453228    -0.4902356259     1.4127605632
H     -0.4773614565     0.9628184042     2.4344654392
H      1.5909926611    -3.2293171854    -1.4772049515
H      0.4828015331    -4.5868801835    -1.1763145749
H      0.2511079706    -3.5492391265    -2.6012994287
H     -3.8945437473    -1.2168254756    -1.8877503699
H     -5.7821144761    -0.4288735562    -0.4928305350
H     -5.6868852748    -0.6715860497     1.9814005007
H     -3.7043390669    -1.7303636474     3.0443721024
H     -1.8302367199    -2.5325196629     1.6568397965
H      0.0023741931    -2.4960434838     0.2959964426
H     -1.8965212827    -2.5143296253    -2.1246250354

