%nprocshared=16
%mem=96GB
%chk=ts_AB.chk
#p b3lyp/6-31g(d) freq=noraman int=finegrid

TS AB of Singleton & Wang 2005, SI B3LYP/6-31G* geometry, atoms in TS A (ts10) order; SI: E = -1343.48585457, ZPE = 0.465165

0 1
C      3.5688569571    -1.5359900143    -0.9957150095
C      3.0426469571    -1.3256050143     0.2952569905
C      3.8151759571    -0.6023580143     1.2254329905
C      5.0797149571    -0.1271780143     0.8892949905
C      5.5907969571    -0.3511820143    -0.3913300095
C      4.8270409571    -1.0505850143    -1.3324180095
C      1.7570449571    -1.8453270143     0.7218409905
C      0.9652099571    -2.7681300143     0.0528549905
C     -0.1038230429    -3.5795290143     0.7186669905
O      0.7647369571     1.1755739857     0.4447429905
C     -0.5879100429     1.0590159857     0.0687139905
C     -0.8696860429     2.3603729857    -0.7067330095
O      0.1161369571     3.2612299857    -0.2182730095
C      1.2630829571     2.4892449857     0.0945829905
C     -0.8075490429    -0.2215510143    -0.8184710095
C     -2.1534370429    -0.9082330143    -0.5251640095
C     -2.5028320429    -1.0823100143     0.9717399905
C     -1.6255050429    -0.1811770143     1.8413679905
O     -1.4272140429     1.0757749857     1.2181469905
O     -3.1612500429    -0.0166660143    -0.9932520095
C     -4.3250200429    -0.1773570143    -0.1874840095
O     -3.8696800429    -0.6943280143     1.0697939905
C     -4.9497260429     1.1939439857     0.0315399905
C     -5.2841310429    -1.1844600143    -0.8270440095
O     -0.5304680429    -0.0750900143    -2.0971980095
O      0.3456499571    -1.1817250143    -0.8272890095
C      2.1876089571     2.3477899857    -1.1161240095
C      1.9365479571     3.1076729857     1.3109489905
H      3.0664669571     1.7495869857    -0.8574850095
H      1.6598019571     1.8413989857    -1.9291680095
H      2.5165949571     3.3358179857    -1.4551570095
H      2.2799189571     4.1202659857     1.0762879905
H      1.2201199571     3.1566939857     2.1350299905
H      2.7996289571     2.5073349857     1.6146059905
H     -5.2426130429     1.6359979857    -0.9259090095
H     -5.8376450429     1.1081849857     0.6655889905
H     -4.2208930429     1.8432839857     0.5225799905
H     -4.7768830429    -2.1404360143    -0.9931450095
H     -6.1425760429    -1.3598670143    -0.1708480095
H     -5.6448460429    -0.8101260143    -1.7903530095
H     -1.8557840429     2.7609199857    -0.4729840095
H     -0.7735050429     2.1911819857    -1.7842400095
H     -2.1780120429    -1.8539130143    -1.0816340095
H     -2.4167050429    -2.1238380143     1.3006479905
H     -0.6633890429    -0.6685820143     2.0579959905
H     -2.1301900429     0.0177479857     2.7905929905
H     -0.9637670429    -3.7267570143     0.0579419905
H      0.2964959571    -4.5764460143     0.9496269905
H     -0.4413920429    -3.1313260143     1.6565759905
H      3.4135189571    -0.4201510143     2.2188679905
H      5.6642859571     0.4212699857     1.6226089905
H      6.5751009571     0.0229529857    -0.6588000095
H      5.2142489571    -1.2112860143    -2.3346070095
H      2.9747559571    -2.0481220143    -1.7451520095
H      1.3431169571    -3.1902150143    -0.8730610095
H      1.4162029571    -1.5121450143     1.6996629905

