%nprocshared=16
%mem=96GB
%chk=ts_B.chk
#p b3lyp/6-31g(d) freq=noraman int=finegrid

TS B (structure 11 in the paper) of Singleton & Wang 2005, SI B3LYP/6-31G* geometry, atoms in TS A (ts10) order; SI: E = -1343.49715905, ZPE = 0.466330

0 1
C      4.1332722650     0.7558764326    -1.0453857125
C      3.2287016572     1.0364621742    -0.0009846880
C      3.1137302645     2.3680478163     0.4481482278
C      3.8725439866     3.3819359102    -0.1297419339
C      4.7641790065     3.0876435395    -1.1635685866
C      4.8898617090     1.7713378803    -1.6191528596
C      2.4287234023     0.0089606732     0.6481176970
C      2.2596485020    -1.2993052049     0.2313622658
C      1.7543848226    -2.3994781360     1.1115240230
O     -0.9798474052     0.4450927313     1.7618405927
C     -1.2212001159     0.7279222344     0.3874816439
C     -0.6122239419     2.1256483097     0.1760332977
O     -0.1295903104     2.5142209307     1.4696799933
C     -0.8016944456     1.7097178025     2.4308420433
C     -0.6612560681    -0.3855606939    -0.5272742520
C     -1.2519191149    -1.7455228885    -0.1014440467
C     -2.7862886040    -1.6751096494    -0.0360359545
C     -3.3611354306    -0.3479578251     0.4536526418
O     -2.6100530989     0.8100649592     0.0902281084
O     -1.0182803488    -2.7666827114    -1.0538354750
C     -2.2069256676    -2.9242701690    -1.8678995091
O     -3.1460413688    -1.9607588585    -1.3813884403
C     -1.8996686764    -2.6123832899    -3.3243528177
C     -2.7326557001    -4.3460318432    -1.6570847601
O     -0.7248167753    -0.0538006757    -1.8105789224
O      0.7825187434    -0.3687092649    -0.7368747460
C      0.0987967367     1.5054643083     3.6391716405
C     -2.1513099613     2.3234685425     2.8230328883
H     -0.3901687130     0.8529981361     4.3686688601
H      1.0489435193     1.0534939762     3.3447991759
H      0.3032245964     2.4687363936     4.1160132338
H     -1.9906733423     3.2959711273     3.2996529715
H     -2.7856849172     2.4585578355     1.9448345915
H     -2.6733218942     1.6697609029     3.5297704850
H     -1.1848501483    -3.3420313813    -3.7188844321
H     -2.8171031867    -2.6651818771    -3.9200278407
H     -1.4705718234    -1.6119744940    -3.3896285192
H     -1.9661320046    -5.0752629783    -1.9382546244
H     -2.9931159009    -4.5125069224    -0.6070355876
H     -3.6225470675    -4.5170140550    -2.2713441832
H     -1.3818607066     2.8140374201    -0.1872942157
H      0.2276357847     2.1032256294    -0.5178044570
H     -0.8306846597    -2.0443690260     0.8602644053
H     -3.1647173034    -2.4688809413     0.6298231832
H     -3.4476211223    -0.3975213092     1.5466734395
H     -4.3576898593    -0.2015808560     0.0297391882
H      1.1367717528    -3.1030405723     0.5453833712
H      2.6109125055    -2.9634830335     1.5079410247
H      1.1845897604    -2.0128057460     1.9619269468
H      2.3947103539     2.6018876704     1.2281747898
H      3.7647155734     4.4037178512     0.2234482611
H      5.3586636541     3.8780739871    -1.6135476699
H      5.5830742247     1.5377222598    -2.4224603544
H      4.2522583296    -0.2620256776    -1.4031090348
H      2.7520630313    -1.6219821174    -0.6808809424
H      1.9226763187     0.3048653691     1.5619415583

