%nprocshared=16
%mem=96GB
%chk=ts_BD.chk
#p b3lyp/6-31g(d) freq=noraman int=finegrid

TS BD (structure 16 in the paper) of Singleton & Wang 2005, SI B3LYP/6-31G* geometry, atoms in TS A (ts10) order; SI: E = -1343.49416342, ZPE = 0.466150

0 1
C      1.0363379766     2.9654294696    -0.3103685611
C      1.8653092541     2.1982841552     0.5412128987
C      3.2214351030     2.0459107076     0.1774655529
C      3.7252826800     2.6167756634    -0.9860900038
C      2.8856932689     3.3567578182    -1.8229298633
C      1.5416718181     3.5286881833    -1.4770846879
C      1.4114429161     1.6304550951     1.7947570532
C      0.1297415234     1.6741515827     2.3183517089
C     -0.1344157983     1.5303426998     3.7902488564
O      1.2229450328    -1.2701686665    -0.5479930923
C      0.0635100323    -1.8152109978     0.0434374049
C      0.6106763684    -2.8603730184     1.0102374443
O      1.8430422977    -3.2617843246     0.4145876223
C      2.2705673880    -2.2668046720    -0.5104078934
C     -0.8248139811    -0.7325743701     0.6958925149
C     -1.3143791924     0.2832337031    -0.3515243311
C     -1.8974851668    -0.4032459505    -1.5910523132
C     -1.1950644651    -1.6951003081    -1.9935867374
O     -0.7650559652    -2.4952811790    -0.8980985961
O     -2.3936314483     1.0755777113     0.1171047835
C     -3.6297823399     0.5181910765    -0.4040940597
O     -3.2471372004    -0.6130545174    -1.1901956297
C     -4.5191120648     0.0397500782     0.7331141069
C     -4.2906703693     1.5873992897    -1.2760711190
O     -1.7028742452    -1.3151656350     1.5331775412
O     -0.3249155986    -0.1386520738     1.8972778797
C      3.5429746072    -1.5950200395    -0.0054434552
C      2.4381255734    -2.9137600283    -1.8836629351
H      3.8502764078    -0.7905432954    -0.6805291494
H      3.3657690036    -1.1764699580     0.9894685541
H      4.3501719144    -2.3309745033     0.0615630101
H      3.2090653027    -3.6900007204    -1.8399718545
H      1.4940665664    -3.3745726821    -2.1836345519
H      2.7330846723    -2.1675436348    -2.6289980910
H     -4.8309099479     0.8903575403     1.3480782316
H     -5.4135862965    -0.4455304030     0.3290082093
H     -3.9614453376    -0.6668987614     1.3492524576
H     -4.4895279810     2.4864631041    -0.6839698008
H     -3.6385659565     1.8641710887    -2.1104415486
H     -5.2380427447     1.2156231409    -1.6792033073
H     -0.0491362374    -3.7250411131     1.0871984854
H      0.7686272200    -2.4204544851     2.0005274573
H     -0.4753567950     0.9336458455    -0.6145708906
H     -1.8623237830     0.2860417603    -2.4509260950
H     -0.3360130509    -1.4315050490    -2.6247150000
H     -1.8764621343    -2.3222505290    -2.5741775302
H     -0.1216183457     2.5204641266     4.2648686377
H     -1.1165461058     1.0807361527     3.9550058662
H      0.6235873125     0.9067802104     4.2737640083
H      3.8780766930     1.4731461573     0.8265116620
H      4.7733113264     2.4868698588    -1.2416111611
H      3.2764244420     3.8035584633    -2.7328166253
H      0.8869494225     4.1141754471    -2.1166997452
H     -0.0045279263     3.1320009389    -0.0509372407
H     -0.6546416673     2.1738818596     1.7568287170
H      2.1780402535     1.1624180943     2.4098337412

