%nprocshared=16
%mem=96GB
%chk=ts_CD.chk
#p b3lyp/6-31g(d) freq=noraman int=finegrid

TS CD of Singleton & Wang 2005, SI B3LYP/6-31G* geometry, atoms in TS A (ts10) order; SI: E = -1343.48733066, ZPE = 0.465253

0 1
C      1.0330029524    -3.4102263425    -0.0595574121
C      0.1870191840    -2.9801433289     0.9855716945
C     -1.1213028467    -3.5040636813     1.0423539255
C     -1.5767647988    -4.3975082068     0.0792760024
C     -0.7306691000    -4.7986786199    -0.9586432732
C      0.5763632818    -4.3059314117    -1.0207631347
C      0.6299430864    -2.0864490462     2.0370571505
C      1.7384813140    -1.2507632147     2.0382308062
C      2.4061070268    -0.7887377632     3.3015175088
O     -1.6707329906    -0.1774074338     0.3124310110
C     -0.9133412826     0.9142890808    -0.1484766237
C     -1.9334079257     2.0748527613    -0.2472170871
O     -3.1607212073     1.5305678826     0.2170930835
C     -3.0685655896     0.1172415793     0.1356355693
C      0.2453696240     1.2100632096     0.8698628399
C      1.5499463325     1.6194812928     0.1664621349
C      1.9617496131     0.7224423190    -1.0207594546
C      0.7636867598    -0.0725455651    -1.5431638759
O     -0.4253310292     0.7038087340    -1.4706546143
O      1.3100999236     2.8802326159    -0.4480302483
C      2.1078075776     2.9816306258    -1.6257421220
O      2.4474240162     1.6366566593    -1.9980960815
C      1.2612910680     3.6164239841    -2.7220445496
C      3.3971348014     3.7505340138    -1.3329768577
O     -0.0998397771     1.9699853090     1.8987118913
O      0.4702955100     0.1846652536     1.8992631036
C     -3.8334824125    -0.4763972886     1.3089568807
C     -3.5482210432    -0.3968300375    -1.2258304224
H     -3.7783965456    -1.5694362881     1.2911745124
H     -3.4021512991    -0.1048318820     2.2417094586
H     -4.8853076605    -0.1790188904     1.2569729166
H     -4.6074031353    -0.1579052974    -1.3678617854
H     -2.9682177903     0.0617496477    -2.0308798412
H     -3.4181524027    -1.4823785595    -1.2870142600
H      0.9529911131     4.6246929444    -2.4278855513
H      1.8334190707     3.6812471217    -3.6528559361
H      0.3726623832     3.0023552423    -2.8866162395
H      3.9451580507     3.2724284803    -0.5148286484
H      4.0406917227     3.7637419947    -2.2184604995
H      3.1690153198     4.7816828549    -1.0455146818
H     -2.0028379707     2.4008164771    -1.2916681687
H     -1.6643398162     2.9168375955     0.3913487125
H      2.3355121478     1.6987766641     0.9293961156
H      2.7810764842     0.0376757246    -0.7636299704
H      0.6419416185    -1.0099224639    -0.9868811535
H      0.9152857103    -0.3134071283    -2.5987170933
H      3.1920828342    -1.4993154885     3.5926057302
H      2.8679887264     0.1924100552     3.1620064397
H      1.6852937729    -0.7151849824     4.1203188442
H     -1.7790017908    -3.1861381352     1.8462166373
H     -2.5900315642    -4.7849688820     0.1366980871
H     -1.0832318227    -5.5010616881    -1.7086737826
H      1.2430540145    -4.6309258292    -1.8145476872
H      2.0613790955    -3.0628120665    -0.0993316018
H      2.3505688671    -1.2112187346     1.1393223984
H      0.0285095641    -2.0860668109     2.9433536874

