%nprocshared=16
%mem=96GB
%chk=ts_CA.chk
#p b3lyp/6-31g(d) freq=noraman int=finegrid

TS CA of Singleton & Wang 2005, SI B3LYP/6-31G* geometry, atoms in TS A (ts10) order; SI: E = -1343.49137261, ZPE = 0.465751

0 1
C      1.0503621231    -2.8865208276    -1.8755286836
C      1.6631781706    -2.8115557003    -0.6057971387
C      3.0719627849    -2.7473103786    -0.5490290836
C      3.8353147193    -2.7204820852    -1.7119945104
C      3.2096621274    -2.7739149277    -2.9607051569
C      1.8160611318    -2.8637403273    -3.0366132074
C      0.9094451716    -2.8578703107     0.6337399776
C     -0.4427982375    -2.6077132149     0.8234728770
C     -1.2009342913    -3.1413659638     2.0019503404
O     -2.3050377548    -0.2389648823     0.5546282533
C     -1.3881906968     0.8337051608     0.4950432782
C     -2.1505305435     2.0168768662     1.1432401787
O     -3.4139012717     1.4852528561     1.5202895944
C     -3.6269828166     0.2995703907     0.7752051062
C     -0.0787049898     0.4600239833     1.2773327875
C      1.1764788644     1.0417963240     0.6110002062
C      1.2755308053     0.8050242095    -0.9102834330
C     -0.0980556669     0.4790993791    -1.4973412302
O     -1.1199670643     1.2240901674    -0.8460788648
O      1.0831356993     2.4596980785     0.7152129553
C      1.7472987945     3.0442799680    -0.4024599248
O      1.7703758829     2.0391562298    -1.4261576189
C      0.9256902415     4.2357674817    -0.8780123017
C      3.1871874578     3.4109088988    -0.0361890271
O     -0.1440832649     0.6271613642     2.5902708972
O      0.1191734461    -0.9548942890     1.6309552117
C     -4.4078986750    -0.6763137762     1.6411963094
C     -4.3081076731     0.5926125887    -0.5658995452
H     -4.5309150541    -1.6350406266     1.1276698455
H     -3.8751102453    -0.8304942522     2.5828970901
H     -5.3993865600    -0.2682266118     1.8598549202
H     -5.2954287650     1.0341046530    -0.3954172001
H     -3.7042867658     1.2846962698    -1.1577244698
H     -4.4311566487    -0.3319893168    -1.1399761339
H      0.8537325242     4.9887510821    -0.0867892268
H      1.3938769447     4.6920028288    -1.7558903687
H     -0.0779560604     3.8943358574    -1.1423891935
H      3.7199632062     2.5295197930     0.3348680661
H      3.7180009169     3.7895073988    -0.9156436274
H      3.1992790371     4.1797565186     0.7429655277
H     -2.2525201194     2.8217609041     0.4066316491
H     -1.6513188912     2.3889116337     2.0382358117
H      2.0482885463     0.6604470844     1.1560928891
H      1.9872561131     0.0124167430    -1.1635711963
H     -0.3004366577    -0.5967082096    -1.4287037437
H     -0.1274081829     0.7692141482    -2.5506279289
H     -1.9927266318    -2.4443687821     2.2813209801
H     -1.6596427998    -4.1060032537     1.7432650484
H     -0.5421851314    -3.2927573183     2.8619141236
H      3.5589987665    -2.7045631589     0.4219213378
H      4.9179918598    -2.6601144439    -1.6468829460
H      3.8043788831    -2.7574588666    -3.8695653516
H      1.3275613644    -2.9266759745    -4.0049342232
H     -0.0282482732    -2.9896397932    -1.9460902286
H     -1.0502471721    -2.2946878073    -0.0206767676
H      1.4762676074    -3.1359591298     1.5203149802

