%nprocshared=16
%mem=96GB
%chk=ts_CB.chk
#p b3lyp/6-31g(d) freq=noraman int=finegrid

TS CB of Singleton & Wang 2005, SI B3LYP/6-31G* geometry, atoms in TS A (ts10) order; SI: E = -1343.48491397, ZPE = 0.465176

0 1
C      3.5772428917    -1.4039604834    -1.0091298027
C      3.1003603233    -1.2887269664     0.3132006310
C      3.9241177323    -0.6694387182     1.2742350451
C      5.1947930702    -0.2115127175     0.9374825565
C      5.6574153073    -0.3419892514    -0.3739186482
C      4.8401140848    -0.9309952871    -1.3453007270
C      1.8178693245    -1.8145487909     0.7386840723
C      1.0287107401    -2.7329624388     0.0581026799
C     -0.0285573621    -3.5613056473     0.7237361105
O      0.7597152554     1.2043513705     0.3171495928
C     -0.5973784244     1.0507095195    -0.0134597842
C     -0.9404653158     2.3208460431    -0.8310597994
O      0.2831370788     3.0312458727    -0.9426088433
C      1.1462190072     2.5743171125     0.0861605868
C     -0.7988242114    -0.2689412576    -0.8460567657
C     -2.1247532632    -0.9745213436    -0.5034591503
C     -2.4546093248    -1.0946877753     1.0032380113
C     -1.5857860329    -0.1423018511     1.8235177282
O     -1.4288722191     1.0937770435     1.1459055071
O     -3.1582527670    -0.1259859248    -0.9954998998
C     -4.3087717054    -0.2789225990    -0.1704543542
O     -3.8267980225    -0.7272274081     1.1036578952
C     -4.9636380199     1.0857215525    -0.0057162219
C     -5.2496339469    -1.3369535516    -0.7522199054
O     -0.5520209853    -0.1593310388    -2.1326814492
O      0.3781946043    -1.1954620794    -0.8366521405
C      2.5703615806     2.5886750348    -0.4445399731
C      0.9663966276     3.3937584111     1.3687969571
H      3.2654060944     2.2002560602     0.3050739739
H      2.6248768464     1.9652010396    -1.3398546544
H      2.8605510245     3.6125566231    -0.7005287375
H      1.2257675768     4.4415903948     1.1851411032
H     -0.0687540725     3.3384132163     1.7158824762
H      1.6143827197     3.0052264239     2.1617172320
H     -5.2866074934     1.4724712569    -0.9772731116
H     -5.8359184916     1.0102425641     0.6508945841
H     -4.2405013911     1.7758672564     0.4354913891
H     -4.7206585379    -2.2868118493    -0.8816514646
H     -6.0957849187    -1.5034588490    -0.0779963559
H     -5.6305451525    -1.0155435436    -1.7267710487
H     -1.6985216187     2.8981236615    -0.2880212538
H     -1.2970293821     2.0836785723    -1.8335584488
H     -2.1346296045    -1.9427346242    -1.0202191925
H     -2.3437648574    -2.1200226977     1.3730115909
H     -0.6078387975    -0.5960217298     2.0408834646
H     -2.0797280087     0.0829274498     2.7724372695
H     -0.8836269720    -3.7252822044     0.0609064550
H      0.3886135991    -4.5496029773     0.9608911065
H     -0.3775012901    -3.1149747977     1.6584633595
H      3.5612929422    -0.5619849017     2.2935004319
H      5.8212455473     0.2524185034     1.6942514814
H      6.6454273863     0.0218558136    -0.6419632374
H      5.1891337908    -1.0136845653    -2.3707289733
H      2.9356056197    -1.8220118719    -1.7774711602
H      1.4233303894    -3.1579752323    -0.8595879840
H      1.4778549987    -1.4952156431     1.7218789277

