%nprocshared=16
%mem=96GB
%chk=ts_C.chk
#p b3lyp/6-31g(d) freq=noraman int=finegrid

TS C of Singleton & Wang 2005, SI B3LYP/6-31G* geometry, atoms in TS A (ts10) order; SI: E = -1343.48975459, ZPE = 0.465680

0 1
C     -4.2700316086     0.8231748989     0.5749894596
C     -3.2856631092    -0.1129714414     0.9361061727
C     -3.1463562782    -0.4660843701     2.2905507454
C     -3.9635416756     0.1084456128     3.2588710614
C     -4.9386490793     1.0382919720     2.8881833526
C     -5.0895737115     1.3933334271     1.5450268849
C     -2.4107031889    -0.7546187773    -0.0416500503
C     -2.1964521124    -0.3726978399    -1.3553947467
C     -1.5950357978    -1.2860718503    -2.3757274080
O      1.2457978840     0.2696896139    -2.3343583009
C      1.4578054795     0.8711036356    -1.0678935906
C      1.1682811196     2.3639523854    -1.3013579131
O      0.9634176849     2.4879647482    -2.7106980968
C      1.4209471117     1.3030199284    -3.3362396722
C      0.6206680607     0.2475339649     0.0855611258
C      0.9650951242    -1.2444008229     0.2886499545
C      2.4797655474    -1.4782899353     0.3506332665
C      3.3041477034    -0.5711029414    -0.5556222943
O      2.8187181735     0.7638809969    -0.6512546764
O      0.5114923613    -1.7422512063     1.5382035629
C      1.6280889703    -1.7477634950     2.4641942336
O      2.7496290733    -1.2533350286     1.7286494479
C      1.3607527091    -0.8048139544     3.6273786114
C      1.8631374046    -3.1952970005     2.9005492504
O      0.6327402619     1.0714789234     1.1223687359
O     -0.8223869584     0.4811312957     0.0221472690
C      0.5172373344     1.0007737068    -4.5224201222
C      2.8949039548     1.4170630289    -3.7410952658
H      0.7747196481     0.0351619501    -4.9686761603
H     -0.5273042463     0.9890962242    -4.2023629165
H      0.6373305866     1.7782461362    -5.2828365249
H      3.0131347214     2.2187699372    -4.4772944377
H      3.5132932986     1.6416075598    -2.8697529375
H      3.2434948872     0.4791055357    -4.1869497269
H      0.5159663273    -1.1706591914     4.2207948315
H      2.2425204519    -0.7501615529     4.2743350401
H      1.1258088764     0.1845955706     3.2324751469
H      0.9619729065    -3.5977533166     3.3743345354
H      2.1063059971    -3.8242525581     2.0382946129
H      2.6891348469    -3.2464652660     3.6170982354
H      2.0202004392     2.9626568408    -0.9640841453
H      0.2640333398     2.6837890403    -0.7836609797
H      0.5050322049    -1.8303025544    -0.5138088219
H      2.7096625558    -2.5242823754     0.0861697175
H      3.3426802029    -1.0262755514    -1.5543024335
H      4.3231451975    -0.4917670982    -0.1684147828
H     -2.2947767230    -1.4164268311    -3.2126209330
H     -0.6662287604    -0.8738985210    -2.7786586987
H     -1.3841317007    -2.2745396311    -1.9553284888
H     -2.3663959994    -1.1684146902     2.5717650600
H     -3.8395028373    -0.1644632883     4.3030205433
H     -5.5805375782     1.4842190605     3.6430642239
H     -5.8500385231     2.1126015958     1.2540137359
H     -4.4066161674     1.0924329475    -0.4681619441
H     -2.6142218770     0.5651862119    -1.7087693550
H     -1.9628936689    -1.6917617250     0.2800957378

