%nprocshared=16
%mem=96GB
%chk=ts_DD.chk
#p b3lyp/6-31g(d) freq=noraman int=finegrid

TS DD (structure 17 in the paper) of Singleton & Wang 2005, SI B3LYP/6-31G* geometry, atoms in TS A (ts10) order; SI: E = -1343.49267341, ZPE = 0.465809

0 1
C      0.5836400180     2.9620125797    -0.3199227497
C      1.5597887198     2.2673590487     0.4315416635
C      2.8919288849     2.2865635621    -0.0355449144
C      3.2387920025     2.9645912751    -1.1985175203
C      2.2593481940     3.6405046792    -1.9308866650
C      0.9333591410     3.6339064291    -1.4861270837
C      1.2732372452     1.5953120611     1.6832960692
C      0.0534334623     1.5075976310     2.3253756975
C     -0.0584827267     1.2163371567     3.7944468427
O      1.5672715027    -1.0954421547    -0.2803306105
C      0.3457876838    -1.7686849109    -0.1441918547
C      0.7243977230    -3.0118721544     0.6651370812
O      2.0496495392    -3.2831013492     0.2198083766
C      2.6506827512    -2.0481189061    -0.1494233823
C     -0.7321401461    -0.8796525350     0.5374325655
C     -1.3216797265     0.0909591522    -0.4924300619
C     -2.0341712520    -0.7040681472    -1.6025939510
C     -1.5086640916    -2.1441499416    -1.6549558966
O     -0.0933005449    -2.1310774287    -1.4650883014
O     -2.3261671695     0.9378671647     0.0359469862
C     -3.6254144269     0.4890766596    -0.4100506489
O     -3.3979814080    -0.6748738988    -1.2063201591
C     -4.4724996075     0.0903159756     0.7904089140
C     -4.2475329715     1.6009381344    -1.2552429469
O     -1.5912849014    -1.6146994349     1.2835762918
O     -0.3653263974    -0.3351401608     1.7877943225
C      3.5834455987    -1.5581032679     0.9568953764
C      3.3430033414    -2.2276985582    -1.4952598228
H      4.0210796981    -0.5900830131     0.6927701890
H      3.0265505528    -1.4512522967     1.8926201669
H      4.3935100235    -2.2782264424     1.1082049375
H      4.1305589908    -2.9843078433    -1.4166381259
H      2.6076606994    -2.5514498238    -2.2353262512
H      3.7906170056    -1.2841006544    -1.8233741777
H     -4.6729724717     0.9643011061     1.4189064894
H     -5.4281158222    -0.3259132514     0.4554363066
H     -3.9292475156    -0.6575868926     1.3713748439
H     -4.3539521425     2.5158029008    -0.6632078659
H     -3.6142290049     1.8195782220    -2.1210643183
H     -5.2366638191     1.2973131325    -1.6124270758
H      0.0970911338    -3.8748269236     0.4375360979
H      0.6843922172    -2.8006179728     1.7403057863
H     -0.5106090725     0.7032129368    -0.8982310603
H     -1.8992715391    -0.2081649649    -2.5746253275
H     -1.6774298771    -2.6091342373    -2.6290222792
H     -2.0207145954    -2.7378276741    -0.8862405718
H     -0.1038964757     2.1591351248     4.3557805913
H     -0.9713740551     0.6516924562     4.0005212469
H      0.7992038050     0.6414379928     4.1567853912
H      3.6559050076     1.7658672639     0.5353782400
H      4.2713672309     2.9666891493    -1.5362443123
H      2.5265368317     4.1708535789    -2.8406431287
H      0.1687855747     4.1600254312    -2.0510516768
H     -0.4521954650     2.9674721858     0.0043646570
H     -0.8165170354     1.9727798649     1.8722213708
H      2.1294862510     1.1503132068     2.1864743365

