%nprocshared=16
%mem=96GB
%chk=ts_DA.chk
#p b3lyp/6-31g(d) freq=noraman int=finegrid

TS DA (structure 13 in the paper) of Singleton & Wang 2005, SI B3LYP/6-31G* geometry, atoms in TS A (ts10) order; SI: E = -1343.49414673, ZPE = 0.465574

0 1
C      1.1052237427    -2.6074528871    -1.0075153345
C      1.5931803860    -2.4024750507     0.3015808533
C      2.9890990296    -2.3770990949     0.4958854892
C      3.8657699041    -2.5502814461    -0.5701811691
C      3.3660600500    -2.7505904286    -1.8587434645
C      1.9835346910    -2.7756710962    -2.0720985542
C      0.7286155427    -2.2555014226     1.4596839835
C     -0.6443552264    -2.1592105406     1.4762710698
C     -1.4785458329    -2.3495993032     2.7074049248
O     -1.9860273432    -0.3221081863    -0.8268619962
C     -1.8164046071     0.8475530309    -0.0406658393
C     -3.0500251586     0.8419403910     0.8944795373
O     -3.8187302588    -0.2944234655     0.4938899279
C     -3.3957839861    -0.6425423083    -0.8166197382
C     -0.4552974221     0.8329913122     0.7089604412
C      0.6893505508     0.9584349515    -0.3052787474
C      0.5564995972     2.3029341313    -1.0584326641
C     -0.8115775934     2.9473942304    -0.8045765480
O     -1.8613292201     1.9826224174    -0.9121685511
O      1.9639293634     1.0002756896     0.2990674100
C      2.5398256832     2.3070404971     0.1704890381
O      1.5722419193     3.1211350072    -0.5005981208
C      2.7863158690     2.8951170903     1.5547856838
C      3.8064509753     2.1961871696    -0.6789760778
O     -0.4411225112     1.6718561766     1.7667529770
O     -0.3008495089    -0.1472364544     1.7216826457
C     -3.5725346558    -2.1407151383    -1.0128829408
C     -4.1445405344     0.1621383781    -1.8857532549
H     -4.6384050780    -2.3872430504    -1.0178308062
H     -3.1410914240    -2.4515013659    -1.9692610703
H     -3.0977328949    -2.6978869033    -0.2021459082
H     -5.2139326562    -0.0675880450    -1.8362742782
H     -4.0007916144     1.2341208898    -1.7407159072
H     -3.7730476197    -0.0983290887    -2.8821624884
H      3.5392880891     2.3047819216     2.0871481517
H      3.1438739653     3.9265977768     1.4707747262
H      1.8514131251     2.8729443722     2.1187504553
H      3.5615354421     1.7962221488    -1.6680400286
H      4.2712880922     3.1797526017    -0.8017464558
H      4.5256269517     1.5229910570    -0.2014795231
H     -3.6120205815     1.7732550417     0.7655450061
H     -2.7653064265     0.7241960489     1.9402319250
H      0.6439199641     0.1090865925    -0.9948428500
H      0.7210298341     2.1605031669    -2.1356443099
H     -1.0434844321     3.7100931040    -1.5519750105
H     -0.7970362178     3.4162874684     0.1862302749
H     -2.3990590729    -1.7639210026     2.6375504875
H     -1.7646000518    -3.4064021719     2.8083013267
H     -0.9353449422    -2.0551465748     3.6102135417
H      3.3783741008    -2.2127565129     1.4971508927
H      4.9381507797    -2.5264807832    -0.3981018285
H      4.0480533519    -2.8882180671    -2.6933068419
H      1.5911840636    -2.9326334942    -3.0730772949
H      0.0357499293    -2.6307077359    -1.1902505804
H     -1.1755073566    -2.1639391604     0.5321703105
H      1.2378071280    -2.2286025059     2.4217736156

