%nprocshared=16
%mem=96GB
%chk=ts_D.chk
#p b3lyp/6-31g(d) freq=noraman int=finegrid

TS D (structure 15 in the paper) of Singleton & Wang 2005, SI B3LYP/6-31G* geometry, atoms in TS A (ts10) order; SI: E = -1343.49437390, ZPE = 0.466324

0 1
C      0.0095276840     2.7927482225    -1.4260583429
C      0.9227983991     2.7706590711    -0.3457510115
C      2.2779965603     3.0548997826    -0.6236499281
C      2.7073805915     3.3338359961    -1.9164701759
C      1.7923093259     3.3345325876    -2.9723934071
C      0.4436241510     3.0646313331    -2.7187907055
C      0.5263682445     2.5486195305     1.0301817222
C     -0.7515608311     2.2977499433     1.5019938541
C     -1.1465892421     2.5929859143     2.9211652307
O      1.6347117416    -0.9062760281    -0.0723341119
C      0.6723337109    -1.5489997309     0.7344540303
C      1.4129732966    -1.8730354092     2.0428068450
O      2.7684741967    -1.4953008270     1.8023739350
C      2.9400555680    -1.2997410561     0.4075883936
C     -0.6064641704    -0.6984597923     0.9130837161
C     -1.2406944174    -0.3847308913    -0.4519628389
C     -1.4122778501    -1.6501662115    -1.3003142701
C     -0.3016038022    -2.6839960805    -1.1408970671
O      0.2273800344    -2.7877220432     0.1776629966
O     -2.5648170256     0.1133676394    -0.3426382548
C     -3.4878470016    -0.9805917003    -0.5897358220
O     -2.6740989201    -2.1275664876    -0.8457298065
C     -4.3336437404    -1.2514683130     0.6448644708
C     -4.3198318702    -0.6184308109    -1.8214252548
O     -1.3592998499    -1.2165307723     1.9009076591
O     -0.5101540489     0.4205755926     1.7956844336
C      3.9017007805    -0.1425304468     0.1948863762
C      3.4011748602    -2.5890821406    -0.2803476146
H      3.9822175233     0.1003551318    -0.8686916236
H      3.5387129493     0.7329395361     0.7368902763
H      4.8930834186    -0.4088907106     0.5738468125
H      4.3750544536    -2.8932611730     0.1168588617
H      2.6809094347    -3.3915604942    -0.1053280449
H      3.4968374462    -2.4333021806    -1.3603755087
H     -4.9739402850    -0.3888909039     0.8569311727
H     -4.9706995749    -2.1260050837     0.4768245352
H     -3.6747810565    -1.4319861519     1.4952776439
H     -4.8614694999     0.3170943257    -1.6485140948
H     -3.6776482125    -0.4850719112    -2.6976618787
H     -5.0452490492    -1.4098683847    -2.0350690811
H      1.3242407331    -2.9419986630     2.2622167505
H      1.0275893457    -1.2896366587     2.8795801029
H     -0.6167664034     0.3564534846    -0.9590862646
H     -1.4741728214    -1.3797507499    -2.3674137363
H      0.5023717232    -2.4285107104    -1.8432429918
H     -0.6831709540    -3.6774001945    -1.3900459974
H     -1.5322083101     3.6188356073     2.9898698168
H     -1.9322731051     1.9060761992     3.2448282653
H     -0.2946815059     2.4986959516     3.6012331865
H      2.9920429127     3.0616978041     0.1954992983
H      3.7554465630     3.5519375331    -2.1022089671
H      2.1245897801     3.5514110360    -3.9837232489
H     -0.2747756237     3.0756438158    -3.5338908257
H     -1.0453786333     2.6056025938    -1.2512472231
H     -1.5754686389     2.2452509740     0.7959131386
H      1.3156368810     2.6431846005     1.7739456134

