%nprocshared=16
%mem=96GB
%chk=ts_E.chk
#p b3lyp/6-31g(d) freq=noraman int=finegrid

TS E of Singleton & Wang 2005, SI B3LYP/6-31G* geometry, atoms in TS A (ts10) order; SI: E = -1343.49073403, ZPE = 0.466386

0 1
C     -3.6106848347    -0.0938795982     0.0962741733
C     -3.3945112835    -1.4788306262     0.3025489365
C     -4.3942987258    -2.3913455160    -0.1084329966
C     -5.5811291387    -1.9412787839    -0.6713698080
C     -5.7844660137    -0.5698073280    -0.8576667728
C     -4.7942520833     0.3456439268    -0.4820002772
C     -2.1962530040    -1.9879456617     0.9075802923
C     -1.1901705999    -1.2323452324     1.5075882028
C     -0.1006510844    -1.9219566061     2.2850730119
O      2.4581153128    -1.0722525644     0.4562889067
C      1.9099421820    -0.3928686223    -0.6594276136
C      1.8616872274    -1.4546219337    -1.7702669039
O      2.5035621443    -2.6043168964    -1.2133574162
C      3.2076881640    -2.2024618454    -0.0511308789
C      0.5426977977     0.2727147950    -0.3623450804
C      0.6657918751     1.3019948951     0.7847981427
C      1.8414559982     2.2623058810     0.5545341851
C      3.0612123061     1.6372256776    -0.1159407085
O      2.7607388106     0.6623802515    -1.1093616470
O     -0.4551370124     2.1712528315     0.8487094262
C     -0.1044909962     3.4256596263     0.2100240473
O      1.2387132943     3.2685924196    -0.2500064899
C     -0.9999893094     3.6811746502    -0.9925705206
C     -0.1903425468     4.5276371023     1.2685686186
O     -0.0136888664     0.6749077918    -1.5000236870
O     -0.6013761486    -0.6167998286    -0.2067530669
C      3.1514280372    -3.3283375714     0.9696683452
C      4.6452401190    -1.7882871172    -0.3857168875
H      3.6029219161    -3.0127653727     1.9153107262
H      2.1141813285    -3.6217691267     1.1430457455
H      3.7022195588    -4.1952713332     0.5924403084
H      5.1919567343    -2.6470714792    -0.7886106277
H      4.6483080687    -0.9861633055    -1.1266839647
H      5.1612365881    -1.4362068764     0.5141401854
H     -2.0361254692     3.8197249551    -0.6655059704
H     -0.6759017260     4.5883686390    -1.5131142249
H     -0.9407652196     2.8249988215    -1.6657907901
H     -1.2027109775     4.5741524507     1.6825971611
H      0.5056128074     4.3313367767     2.0901692328
H      0.0535054270     5.4989219866     0.8262409918
H      2.3892258527    -1.0880623503    -2.6567424054
H      0.8351450284    -1.7150994404    -2.0293767374
H      0.7625618597     0.7808451250     1.7420166819
H      2.1679229712     2.6942694576     1.5154531056
H      3.6871686993     1.1887371828     0.6667892142
H      3.6390051518     2.4140403306    -0.6232552145
H      0.8685314711    -1.4384397870     2.1519211396
H     -0.3460782718    -1.9066952572     3.3558752731
H      0.0051385708    -2.9663239743     1.9751498765
H     -4.2273598489    -3.4565535234     0.0320713821
H     -6.3446297118    -2.6525809991    -0.9729748352
H     -6.7088580819    -0.2152142087    -1.3054930451
H     -4.9465278491     1.4075983193    -0.6517438029
H     -2.8265162797     0.6152548042     0.3381551566
H     -1.4400264138    -0.2279270617     1.8338042658
H     -2.0419869777    -3.0645574629     0.8414059177

