%nprocshared=16
%mem=96GB
%chk=ts_EA.chk
#p b3lyp/6-31g(d) freq=noraman int=finegrid

TS EA (structure 12 in the paper) of Singleton & Wang 2005, SI B3LYP/6-31G* geometry, atoms in TS A (ts10) order; SI: E = -1343.49417539, ZPE = 0.465352

0 1
C     -0.3269567393     2.8348642482    -0.7745468189
C     -1.0769707990     2.6042724679     0.4002927737
C     -2.4656818317     2.8480528589     0.3646846318
C     -3.0827734167     3.3155120338    -0.7910970196
C     -2.3253936274     3.5435345789    -1.9421176825
C     -0.9480281261     3.2964189230    -1.9293784729
C     -0.4880312793     2.1604407179     1.6499362601
C      0.8275477904     1.8282318525     1.8984394446
C      1.3889141094     1.7347045998     3.2861646540
O      2.0485007839     0.2099671173    -0.5628497825
C      1.5568394628    -1.0489339828    -0.1591072879
C      2.7277814606    -1.6132861391     0.6477929096
O      3.8685706968    -1.0810138012    -0.0213001143
C      3.4889417200     0.1130430843    -0.6993490558
C      0.2234592471    -0.9479642992     0.6395620804
C     -0.9603378360    -0.7741193666    -0.3255136588
C     -1.0576896348    -2.0038402493    -1.2534300038
C      0.2731247950    -2.7622779000    -1.2917135346
O      1.3455569491    -1.8193128461    -1.3510338864
O     -2.2084726780    -0.7299965345     0.3349795231
C     -2.9250181626    -1.9583171105     0.1191485139
O     -2.0655805331    -2.8015478755    -0.6535288999
C     -3.1903341451    -2.6415803929     1.4541855592
C     -4.1985066193    -1.6397803161    -0.6662119187
O      0.1146108264    -1.9196991087     1.5679444008
O      0.2236968680    -0.0904366753     1.7741432108
C      4.1187486154     1.3267227732    -0.0197500104
C      3.8721916704    -0.0108739134    -2.1715331606
H      5.2072768349     1.2838215892    -0.1232325822
H      3.7652229536     2.2581379745    -0.4753973770
H      3.8758254168     1.3328136099     1.0469458739
H      4.9544185951    -0.1491103880    -2.2638272970
H      3.3616303360    -0.8720553487    -2.6061680684
H      3.5856448349     0.8924790616    -2.7203547615
H     -3.8548559873    -2.0246135825     2.0678885586
H     -3.6652063951    -3.6149619096     1.2933293796
H     -2.2402203904    -2.7754132339     1.9749341148
H     -4.8244133295    -0.9378571172    -0.1057450674
H     -3.9456300637    -1.1842126622    -1.6289734715
H     -4.7720950607    -2.5540622914    -0.8494156935
H      2.7772651616    -2.7028302624     0.6149430468
H      2.6745995458    -1.2820495389     1.6918766660
H     -0.8219121312     0.1495312709    -0.8963801241
H     -1.3533834112    -1.6949911857    -2.2667269571
H      0.3707400320    -3.3825422756    -2.1857080096
H      0.3433288612    -3.4048072326    -0.4048505110
H      2.1543203108     0.9556049056     3.3441437821
H      1.8572000827     2.6881113957     3.5679160878
H      0.6086205508     1.5057990233     4.0179818965
H     -3.0563142614     2.6600879979     1.2571532666
H     -4.1536772407     3.4976028810    -0.7969416977
H     -2.8041311746     3.9087760605    -2.8465324865
H     -0.3577891986     3.4656184942    -2.8256654474
H      0.7377198918     2.6282197951    -0.7872354657
H      1.5450705599     1.8822590044     1.0886375456
H     -1.1752785509     2.0980149461     2.4918199672

