%nprocshared=16
%mem=96GB
%chk=ts_EB.chk
#p b3lyp/6-31g(d) freq=noraman int=finegrid

TS EB (structure 14 in the paper) of Singleton & Wang 2005, SI B3LYP/6-31G* geometry, atoms in TS A (ts10) order; SI: E = -1343.49441751, ZPE = 0.466189

0 1
C      3.3619031599    -2.6432214837     0.0265996834
C      3.0859952642    -1.2925956272     0.3190297157
C      3.9245502672    -0.3006762665    -0.2290578310
C      4.9970718423    -0.6478813529    -1.0458917726
C      5.2567952742    -1.9908913477    -1.3276208648
C      4.4347542570    -2.9858579009    -0.7887916952
C      1.9849771301    -0.8745592573     1.1751639514
C      0.9546963744    -1.6584129820     1.6498006058
C      0.0381964405    -1.2545524480     2.7611968190
O     -0.1397808007     1.9487730159     0.8031809682
C     -0.4030080094     1.4433506130    -0.5042255978
C      0.9107802910     1.7231172100    -1.2694294903
O      1.7556920424     2.3973039863    -0.3291714303
C      0.9011155820     2.9332783582     0.6779235037
C     -0.8177936035    -0.0470992952    -0.4199137197
C     -2.0670068514    -0.1304498079     0.4708459040
C     -3.2059507186     0.6692129949    -0.2059883139
C     -2.6914304869     1.5038583726    -1.3898011439
O     -1.4689699695     2.1874445406    -1.0901627665
O     -2.5721236057    -1.4393367573     0.6248363467
C     -3.8113128516    -1.5898100466    -0.0858387024
O     -4.0937312995    -0.3252260784    -0.6943988694
C     -3.6472888994    -2.6326567682    -1.1849890499
C     -4.9067510242    -1.9333650300     0.9232821522
O     -0.8768563412    -0.6575178095    -1.6112248534
O      0.2372639947    -0.9885213684    -0.1745982146
C      1.6611815506     3.0259532762     1.9918993340
C      0.3319903717     4.2946968687     0.2589383300
H      1.0043857013     3.4055114513     2.7801958577
H      2.0443851796     2.0492477648     2.2956435638
H      2.5054662173     3.7129715773     1.8818447640
H      1.1467900916     5.0189481645     0.1567858834
H     -0.2035032027     4.2218830434    -0.6890588710
H     -0.3696193800     4.6572076776     1.0169669182
H     -3.4553055976    -3.6172627799    -0.7460404648
H     -4.5576290697    -2.6898682330    -1.7905102428
H     -2.8008792501    -2.3505925523    -1.8146829276
H     -4.9942006645    -1.1363717559     1.6685110614
H     -5.8698920249    -2.0457646747     0.4153457794
H     -4.6700748084    -2.8696933901     1.4389450977
H      0.7024766612     2.3522947134    -2.1408606371
H      1.4019524279     0.8013863206    -1.5832062824
H     -1.8323666494     0.2833998721     1.4542975155
H     -3.7146251219     1.3105085728     0.5268174491
H     -3.4004167794     2.2910699948    -1.6581791379
H     -2.5622022599     0.8343608928    -2.2467670720
H     -0.9790067678    -1.6123466168     2.5764903326
H      0.3807826153    -1.7149454308     3.6993419847
H      0.0246491757    -0.1695857891     2.8993869541
H      3.7029245463     0.7447554470    -0.0312490997
H      5.6287873317     0.1298378380    -1.4660618177
H      6.0950248825    -2.2632721141    -1.9631435135
H      4.6346273822    -4.0318627859    -1.0042560616
H      2.7403293826    -3.4284605410     0.4456287561
H      0.9147818313    -2.7044149715     1.3600803263
H      1.9896138264     0.1690735953     1.4712535327

