%nprocshared=16
%mem=96GB
%chk=ts_G.chk
#p b3lyp/6-31g(d) freq=noraman int=finegrid

TS G of Singleton & Wang 2005, SI B3LYP/6-31G* geometry, atoms in TS A (ts10) order; SI: E = -1343.49216932, ZPE = 0.466269

0 1
C      2.7382861319    -1.9582551825     0.7210580488
C      1.6064276345    -2.4361695227     0.0169259267
C      1.8009665038    -3.0097286049    -1.2621156968
C      3.0766700893    -3.1464771378    -1.7958322388
C      4.1840356519    -2.6869473828    -1.0767485950
C      4.0075693132    -2.0838376570     0.1748095371
C      0.2699960303    -2.3716403415     0.5428582900
C     -0.0987008901    -2.0353490418     1.8523599979
C     -1.4460225462    -2.4085397632     2.4157435263
O     -1.9493611980    -0.3739904923    -0.8114649809
C     -1.8126046828     0.7080633769     0.1063033060
C     -2.9914686677     0.5279275145     1.0795446084
O     -3.7188397214    -0.5993133716     0.5739152348
C     -3.3346698560    -0.7781508610    -0.7831347421
C     -0.4167325493     0.7590784711     0.7840967423
C      0.6983916618     0.9286422369    -0.2821416417
C      0.3779270185     2.0602371612    -1.2703275105
C     -1.0978179249     2.2162140290    -1.6151180621
O     -1.9881644613     1.9696044765    -0.5302999263
O      1.9253744850     1.3479076210     0.2923174689
C      2.0680079581     2.7734833193     0.1022502046
O      0.8930008106     3.1989853979    -0.5939211544
C      2.1243455517     3.4905734568     1.4427328878
C      3.3142266129     3.0093081931    -0.7560106825
O     -0.4255614218     1.6304934447     1.7909119578
O     -0.1120263438    -0.2890907808     1.7420227111
C     -3.4270583543    -2.2549248704    -1.1370051371
C     -4.1853694995     0.0863488520    -1.7217604546
H     -3.0757605412    -2.4224629859    -2.1598084999
H     -2.8273797386    -2.8549202268    -0.4484042176
H     -4.4670470110    -2.5874205852    -1.0682734592
H     -5.2329780668    -0.2262741742    -1.6625792912
H     -4.1119226512     1.1405966531    -1.4490246564
H     -3.8439719100    -0.0287412642    -2.7560635065
H      3.0227493377     3.1875790945     1.9909165833
H      2.1594520991     4.5741085996     1.2869871086
H      1.2391926951     3.2233902008     2.0209515683
H      4.1973267622     2.5956214663    -0.2583345966
H      3.2113617539     2.5207999177    -1.7302642493
H      3.4702098138     4.0813406003    -0.9146862220
H     -3.6078255391     1.4322440780     1.0859090170
H     -2.6526329363     0.3064786121     2.0909834030
H      0.8618565285    -0.0172939898    -0.8033266466
H      0.9297628486     1.8998999180    -2.2124809214
H     -1.3308145095     1.5371370742    -2.4460029007
H     -1.2960719370     3.2421796908    -1.9354721597
H     -1.4675851869    -3.4791212662     2.6587761630
H     -1.6226348287    -1.8503023442     3.3391851744
H     -2.2581539418    -2.1849946346     1.7202285735
H      0.9364928369    -3.3612968291    -1.8196478278
H      3.2104689623    -3.6022712117    -2.7726333476
H      5.1816643993    -2.7838479656    -1.4959758600
H      4.8661766349    -1.6989381362     0.7170049595
H      2.6039093137    -1.4405857216     1.6643908135
H      0.7028050583    -2.0612543133     2.5858699403
H     -0.5324585637    -2.5575580926    -0.1670053162

