%nprocshared=16
%mem=96GB
%chk=ts_H.chk
#p b3lyp/6-31g(d) freq=noraman int=finegrid

TS H of Singleton & Wang 2005, SI B3LYP/6-31G* geometry, atoms in TS A (ts10) order; SI: E = -1343.49177120, ZPE = 0.466361

0 1
C      3.7602988896    -0.0586518490    -0.3885814006
C      3.4877681252    -1.0974750085     0.5339068558
C      4.3058597099    -2.2497733398     0.5114843173
C      5.3584828410    -2.3621365527    -0.3886929011
C      5.6123295222    -1.3269407334    -1.2926802654
C      4.8090014308    -0.1798132997    -1.2899060835
C      2.4190795223    -1.0286870391     1.4942626088
C      1.4949507900    -0.0017185765     1.6386255919
C      0.6249535508     0.0718866188     2.8650356068
O     -0.7255087008     2.0701252432     0.5474355311
C     -0.8562438890     1.2337037824    -0.6008349022
C      0.2882183742     1.6830421602    -1.5288532622
O      0.9862547350     2.6896539079    -0.7849015804
C      0.0540711009     3.2188643159     0.1506845153
C     -0.8092080540    -0.2756624454    -0.2471487879
C     -1.9623902646    -0.6664264063     0.7073092312
C     -3.3071399304    -0.1005606772     0.2155316252
C     -3.2383155602     1.2604708058    -0.4685414422
O     -2.0823388185     1.4606043995    -1.2798518729
O     -2.1969042235    -2.0630640444     0.7338779260
C     -3.3180686021    -2.3672480456    -0.1247831814
O     -3.7419847940    -1.1172129746    -0.6771759090
C     -2.8893901463    -3.2801342806    -1.2639060344
C     -4.4230460175    -2.9743909184     0.7440838183
O     -0.6559686628    -1.0114826580    -1.3376357320
O      0.5141617855    -0.7564528176     0.1586501131
C      0.8039934513     3.7571818937     1.3588788177
C     -0.8378559894     4.2892375303    -0.4907640201
H      0.0960982499     4.0979265046     2.1201791153
H      1.4474756682     2.9892973708     1.7938072594
H      1.4272177970     4.6050459496     1.0591976457
H     -0.2230927409     5.1282743033    -0.8325974758
H     -1.3878071891     3.8798867706    -1.3403368523
H     -1.5635406779     4.6619691774     0.2396716231
H     -2.5637760482    -4.2461982126    -0.8645311213
H     -3.7296354470    -3.4483367675    -1.9458879383
H     -2.0615071110    -2.8139493785    -1.7990753297
H     -4.0561890518    -3.8791701539     1.2391289226
H     -4.7402625662    -2.2674801623     1.5173960116
H     -5.2907969462    -3.2362131176     0.1299158948
H     -0.1261766353     2.0841499898    -2.4597900963
H      0.9739106161     0.8661598426    -1.7477391729
H     -1.7341716718    -0.3322912704     1.7218838384
H     -4.0079095233    -0.0162786648     1.0634992819
H     -3.2840589678     2.0390295677     0.3040482489
H     -4.0952713082     1.3785441669    -1.1364090180
H      1.2089686224     0.4610344067     3.7108400776
H     -0.2100490118     0.7560342991     2.7063254769
H      0.2400285804    -0.9138506850     3.1452254777
H      4.0989497917    -3.0564427349     1.2102156708
H      5.9773284419    -3.2547532561    -0.3924619784
H      6.4321139652    -1.4130015331    -2.0005565746
H      5.0046819018     0.6204355150    -1.9977762001
H      3.1416566650     0.8327994624    -0.4043807214
H      1.6952375609     0.9412414639     1.1453873491
H      2.2847933395    -1.9098389105     2.1209685332

